LAMMPS (29 Aug 2024 - Update 1)
  using 1 OpenMP thread(s) per MPI task
package gpu 1 gpuID 0
# GCMC for CO2 molecular fluid, rigid/small/nvt dynamics
# Rigid CO2 TraPPE model
# [Potoff and J.I. Siepmann, Vapor-liquid equilibria of
# mixtures containing alkanes, carbon dioxide and
# nitrogen AIChE J., 47,1676-1682 (2001)].

# global model settings

units           real
atom_style      full
boundary        p p p
pair_style      lj/cut/coul/long  12
pair_modify     mix arithmetic shift yes
kspace_style    pppm 1.0e-4
bond_style      harmonic
angle_style     harmonic
neigh_modify    one 4000

# box, start molecules on simple cubic lattice
region          mbox block 0 ${lbox} 0 ${lbox} 0 ${lbox} units box
region          mbox block 0 99 0 ${lbox} 0 ${lbox} units box
region          mbox block 0 99 0 99 0 ${lbox} units box
region          mbox block 0 99 0 99 0 99 units box
create_box      2 mbox                                       bond/types 1                                angle/types 1                               extra/bond/per/atom 2                       extra/angle/per/atom 1                      extra/special/per/atom 2
Created orthogonal box = (0 0 0) to (99 99 99)
  1 by 1 by 1 MPI processor grid
molecule        co2mol ../CO2.txt
Read molecule template co2mol:
# CO2 molecule file. TraPPE model.
  1 molecules
  0 fragments
  3 atoms with max type 2
  2 bonds with max type 1
  1 angles with max type 1
  0 dihedrals with max type 0
  0 impropers with max type 0
create_atoms   	0 random ${nmols} 34578 mbox mol co2mol 464563 overlap 1.2
create_atoms   	0 random 500 34578 mbox mol co2mol 464563 overlap 1.2
Created 1500 atoms
  using lattice units in orthogonal box = (0 0 0) to (99 99 99)
  create_atoms CPU = 0.013 seconds

# rigid CO2 TraPPE model

pair_coeff      1   1  0.053649   2.800
pair_coeff      2   2  0.156973   3.050
bond_coeff      1       0       1.16
angle_coeff     1       0       180

# masses

mass 1 12.0107
mass 2 15.9994

write_data init_conf.data  pair ij
System init for write_data ...
PPPM initialization ...
  using 12-bit tables for long-range coulomb (src/kspace.cpp:342)
  G vector (1/distance) = 0.17633375
  grid = 24 24 24
  stencil order = 5
  estimated absolute RMS force accuracy = 0.029674313
  estimated relative force accuracy = 8.9363312e-05
  using double precision FFTW3
  3d grid and FFT values/proc = 24389 13824
Generated 1 of 1 mixed pair_coeff terms from arithmetic mixing rule

# MD settings

group           co2 type 1 2
1500 atoms in group co2
velocity       	all create 300 54654
timestep        0.25

# rigid constraints with thermostat
fix             myrigidnvt co2 rigid/nvt molecule temp 300 300 $(100*dt)
fix             myrigidnvt co2 rigid/nvt molecule temp 300 300 25
  500 rigid bodies with 1500 atoms

thermo 1000
thermo_style custom step temp density press ke pe etotal


variable    mvol equal vol
variable    mden equal density
variable	mtmp equal temp
variable    mpre equal press

fix mydat all ave/time 1 4000 4000 v_mtmp v_mden v_mpre file statistics.dat ## every 1ps

run 4000000 ## 1ns

CITE-CITE-CITE-CITE-CITE-CITE-CITE-CITE-CITE-CITE-CITE-CITE-CITE

Your simulation uses code contributions which should be cited:

- GPU package (short-range, long-range and three-body potentials): doi:10.1016/j.cpc.2010.12.021, doi:10.1016/j.cpc.2011.10.012, doi:10.1016/j.cpc.2013.08.002, doi:10.1016/j.commatsci.2014.10.068, doi:10.1016/j.cpc.2016.10.020, doi:10.3233/APC200086

@Article{Brown11,
 author = {W. M. Brown and P. Wang and S. J. Plimpton and A. N. Tharrington},
 title = {Implementing Molecular Dynamics on Hybrid High Performance Computers---Short Range Forces},
 journal = {Comput.\ Phys.\ Commun.},
 year =    2011,
 volume =  182,
 pages =   {898--911},
 doi =     {10.1016/j.cpc.2010.12.021}
}

@Article{Brown12,
 author = {W. M. Brown and A. Kohlmeyer and S. J. Plimpton and A. N. Tharrington},
 title = {Implementing Molecular Dynamics on Hybrid High Performance Computers - Particle-Particle Particle-Mesh},
 journal = {Comput.\ Phys.\ Commun.},
 year =    2012,
 volume =  183,
 doi =     {10.1016/j.cpc.2011.10.012},
 pages =   {449--459}
}

@Article{Brown13,
 author = {W. M. Brown and Y. Masako},
 title = {Implementing Molecular Dynamics on Hybrid High Performance Computers---Three-Body Potentials},
 journal = {Comput.\ Phys.\ Commun.},
 year =    2013,
 volume =  184,
 pages =   {2785--2793},
 doi =     {10.1016/j.cpc.2013.08.002},
}

@Article{Trung15,
 author = {T. D. Nguyen and S. J. Plimpton},
 title = {Accelerating Dissipative Particle Dynamics Simulations for Soft Matter Systems},
 journal = {Comput.\ Mater.\ Sci.},
 year =    2015,
 doi =     {10.1016/j.commatsci.2014.10.068},
 volume =  100,
 pages =   {173--180}
}

@Article{Trung17,
 author = {T. D. Nguyen},
 title = {{GPU}-Accelerated {T}ersoff Potentials for Massively Parallel
    Molecular Dynamics Simulations},
 journal = {Comput.\ Phys.\ Commun.},
 year =    2017,
 doi =     {10.1016/j.cpc.2016.10.020},
 volume =  212,
 pages =   {113--122}
}

@inproceedings{Nikolskiy19,
 author = {V. Nikolskiy and V. Stegailov},
 title = {{GPU} Acceleration of Four-Site Water Models in {LAMMPS}},
 booktitle = {Proceedings of the International Conference on Parallel
    Computing (ParCo 2019), Prague, Czech Republic},
 doi =     {10.3233/APC200086},
 year =    2019
}

CITE-CITE-CITE-CITE-CITE-CITE-CITE-CITE-CITE-CITE-CITE-CITE-CITE

PPPM initialization ...
  using 12-bit tables for long-range coulomb (src/kspace.cpp:342)
  G vector (1/distance) = 0.17633375
  grid = 24 24 24
  stencil order = 5
  estimated absolute RMS force accuracy = 0.029674313
  estimated relative force accuracy = 8.9363312e-05
  using double precision FFTW3
  3d grid and FFT values/proc = 24389 13824
Generated 1 of 1 mixed pair_coeff terms from arithmetic mixing rule
Per MPI rank memory allocation (min/avg/max) = 9.616 | 9.616 | 9.616 Mbytes
   Step          Temp         Density         Press          KinEng         PotEng         TotEng    
         0   305.66621      0.037658231   -1301.9125      758.3663       17872.98       18631.347    
      1000   314.54056      0.037658231    12.854569      780.3838      -47.761463      732.62234    
      2000   303.43849      0.037658231    24.833746      752.83925     -61.761039      691.07822    
      3000   292.70853      0.037658231    19.006778      726.21794     -78.990078      647.22786    
      4000   315.86706      0.037658231    14.704055      783.67488     -87.455939      696.21894    
      5000   307.82093      0.037658231    19.656199      763.71222     -93.303619      670.4086     
      6000   297.97212      0.037658231    17.786327      739.27704     -107.53182      631.74522    
      7000   294.1744       0.037658231    18.950987      729.8548      -102.48489      627.36992    
      8000   299.42125      0.037658231    16.845184      742.87238     -105.08028      637.7921     
      9000   298.67211      0.037658231    23.58094       741.01375     -118.87401      622.13974    
     10000   286.24859      0.037658231    19.911297      710.19064     -121.39993      588.7907     
     11000   303.2469       0.037658231    21.344268      752.36392     -132.3109       620.05302    
     12000   315.51957      0.037658231    21.135135      782.81274     -131.84689      650.96585    
     13000   298.16863      0.037658231    9.1238803      739.76459     -129.34876      610.41583    
     14000   295.06216      0.037658231    24.349854      732.05736     -127.25331      604.80406    
     15000   297.86739      0.037658231    18.811274      739.01722     -130.91806      608.09916    
     16000   300.77376      0.037658231    20.484781      746.22799     -140.02969      606.1983     
     17000   279.68597      0.037658231    20.291258      693.90859     -140.59092      553.31768    
     18000   296.37682      0.037658231    17.486336      735.31906     -135.34594      599.97312    
     19000   307.43539      0.037658231    18.598567      762.75567     -135.92738      626.82829    
     20000   302.02181      0.037658231    20.864123      749.32443     -130.57407      618.75036    
     21000   295.5639       0.037658231    11.848958      733.30219     -141.74694      591.55526    
     22000   299.34619      0.037658231    18.576643      742.68615     -139.91105      602.7751     
     23000   313.72497      0.037658231    17.603735      778.36029     -141.25544      637.10485    
     24000   286.05039      0.037658231    15.684724      709.6989      -147.58059      562.1183     
     25000   300.64686      0.037658231    26.62282       745.91315     -151.70322      594.20993    
     26000   319.60714      0.037658231   -0.95468224     792.95413     -158.39184      634.56229    
     27000   295.83596      0.037658231   -10.946322      733.97716     -146.98276      586.9944     
     28000   285.52898      0.037658231    14.971291      708.40528     -147.14774      561.25754    
     29000   319.10561      0.037658231    29.031273      791.70982     -144.01091      647.69891    
     30000   303.28982      0.037658231    1.0197805      752.47041     -138.87087      613.59954    
     31000   288.27149      0.037658231    52.952586      715.20952     -139.52332      575.6862     
     32000   306.78664      0.037658231    23.070428      761.14611     -143.80109      617.34503    
     33000   306.18588      0.037658231    8.8807418      759.65562     -152.15268      607.50294    
     34000   302.00484      0.037658231    11.549906      749.28234     -148.98051      600.30183    
     35000   298.19229      0.037658231    16.690503      739.82328     -148.23794      591.58534    
     36000   280.51652      0.037658231    10.581702      695.96922     -146.02446      549.94476    
     37000   299.96834      0.037658231    20.83157       744.22971     -141.47626      602.75345    
     38000   303.15427      0.037658231    21.442403      752.13411     -147.9087       604.22542    
     39000   300.83944      0.037658231    16.299178      746.39094     -148.98843      597.40251    
     40000   308.91908      0.037658231    24.86132       766.43676     -144.57835      621.8584     
     41000   289.48567      0.037658231    31.18864       718.22192     -146.89573      571.32619    
     42000   300.80258      0.037658231    12.171948      746.29948     -153.96808      592.3314     
     43000   304.04815      0.037658231    1.4372278      754.35184     -150.46021      603.89163    
     44000   301.6331       0.037658231    12.183859      748.36002     -146.77126      601.58877    
     45000   316.17462      0.037658231    28.389888      784.43795     -151.95083      632.48712    
     46000   300.85934      0.037658231    21.005767      746.44032     -145.89735      600.54296    
     47000   295.40946      0.037658231    17.176328      732.91902     -145.66811      587.25091    
     48000   297.93694      0.037658231    11.06745       739.18976     -148.75975      590.43001    
     49000   312.19874      0.037658231    5.1200956      774.57369     -147.31048      627.26321    
     50000   302.76137      0.037658231    39.791089      751.15931     -144.31735      606.84196    
     51000   297.46076      0.037658231    22.219404      738.00834     -143.66139      594.34694    
     52000   287.54285      0.037658231    6.0290499      713.40174     -144.51132      568.89042    
     53000   304.40505      0.037658231   -15.41788       755.23732     -152.81783      602.41949    
     54000   308.59794      0.037658231    22.651025      765.63999     -147.86739      617.77259    
     55000   299.80343      0.037658231    44.967633      743.82058     -146.47959      597.34099    
     56000   296.3348       0.037658231    5.5298726      735.2148      -149.65409      585.5607     
     57000   308.67321      0.037658231    26.369662      765.82673     -156.02326      609.80347    
     58000   303.74558      0.037658231    26.849575      753.60116     -157.96836      595.6328     
     59000   288.48324      0.037658231   -0.74934128     715.73488     -157.45132      558.28356    
     60000   295.03171      0.037658231   -4.8772276      731.98181     -157.84554      574.13626    
     61000   305.61056      0.037658231    24.539186      758.22823     -156.75688      601.47135    
     62000   298.46656      0.037658231    37.757508      740.50376     -151.12694      589.37682    
     63000   298.57277      0.037658231    11.775889      740.76728     -153.76482      587.00247    
     64000   301.94959      0.037658231    29.615727      749.14525     -160.15025      588.995      
     65000   298.00962      0.037658231    22.160326      739.37009     -157.94241      581.42768    
     66000   299.7213       0.037658231    3.4962513      743.6168      -156.48945      587.12736    
     67000   310.72199      0.037658231    13.864799      770.90981     -151.81184      619.09797    
     68000   305.58042      0.037658231    21.712095      758.15345     -156.20936      601.94409    
     69000   302.20563      0.037658231    22.874424      749.7805      -157.06568      592.71483    
     70000   297.26083      0.037658231    18.723385      737.51232     -151.54188      585.97044    
     71000   294.33545      0.037658231    15.653988      730.25437     -154.36796      575.88641    
     72000   303.72898      0.037658231    20.076125      753.55996     -158.89656      594.6634     
     73000   301.89157      0.037658231    18.30068       749.00132     -147.75984      601.24148    
     74000   301.25084      0.037658231    18.549965      747.41164     -146.41981      600.99183    
     75000   305.41274      0.037658231    16.723966      757.73744     -147.63         610.10743    
     76000   301.0319       0.037658231    19.885335      746.86845     -139.54436      607.32409    
     77000   308.07452      0.037658231    20.632974      764.34138     -144.48072      619.86066    
     78000   295.75313      0.037658231    16.708388      733.77167     -141.07636      592.69531    
     79000   292.23922      0.037658231    6.4044369      725.05356     -130.8457       594.20786    
     80000   306.48432      0.037658231    19.951963      760.39605     -136.93516      623.46089    
     81000   299.3336       0.037658231    21.501597      742.6549      -134.37718      608.27772    
     82000   290.55403      0.037658231    29.357145      720.87256     -135.61395      585.25861    
     83000   300.80453      0.037658231    10.972655      746.30433     -146.97406      599.33027    
     84000   320.08135      0.037658231    16.446842      794.13064     -139.58614      654.5445     
     85000   296.76286      0.037658231    21.768373      736.27683     -140.94418      595.33265    
     86000   298.08832      0.037658231    27.463792      739.56535     -127.23404      612.33131    
     87000   296.92208      0.037658231    19.06454       736.67185     -133.70379      602.96806    
     88000   290.46068      0.037658231   -5.3949432      720.64095     -136.03943      584.60152    
     89000   309.79858      0.037658231    4.4288417      768.61882     -128.05321      640.5656     
     90000   309.90739      0.037658231    21.713544      768.88878     -124.86066      644.02813    
     91000   279.10683      0.037658231    28.849912      692.47173     -124.14066      568.33107    
     92000   295.28675      0.037658231    8.3729079      732.61456     -127.36328      605.25128    
     93000   308.86289      0.037658231    18.808036      766.29735     -128.13317      638.16417    
     94000   300.25504      0.037658231    36.626746      744.94104     -124.42729      620.51375    
     95000   283.70585      0.037658231    36.276013      703.88203     -121.39759      582.48444    
     96000   302.06913      0.037658231    13.498808      749.44184     -126.01102      623.43082    
     97000   308.51634      0.037658231    56.267965      765.43755     -130.14309      635.29446    
     98000   283.47977      0.037658231    21.1151        703.32113     -120.38985      582.93128    
     99000   290.22506      0.037658231   -15.749886      720.05638     -113.38634      606.67004    
    100000   302.50955      0.037658231    10.55288       750.53453     -115.10752      635.427      
    101000   306.19333      0.037658231    33.461756      759.67408     -118.52108      641.153      
    102000   302.9953       0.037658231    24.580776      751.7397      -117.60838      634.13132    
    103000   300.28747      0.037658231    38.840994      745.0215      -122.39868      622.62282    
    104000   290.30386      0.037658231    22.073335      720.25189     -122.41783      597.83406    
    105000   295.08686      0.037658231    8.3086166      732.11865     -121.59123      610.52741    
    106000   311.33036      0.037658231    26.090776      772.4192      -123.82816      648.59103    
    107000   293.59817      0.037658231    10.216769      728.42516     -119.74169      608.68347    
    108000   308.08307      0.037658231    2.4672701      764.36259     -116.84012      647.52247    
    109000   308.62295      0.037658231    32.591277      765.70205     -126.01377      639.68827    
    110000   313.20962      0.037658231    35.641338      777.0817      -117.20506      659.87665    
    111000   301.41232      0.037658231    10.553661      747.81228     -117.62983      630.18245    
    112000   293.96328      0.037658231    15.347821      729.331       -115.69799      613.63301    
    113000   300.73606      0.037658231    22.723004      746.13445     -118.63456      627.49989    
    114000   290.23942      0.037658231    20.016839      720.09201     -124.46897      595.62305    
    115000   307.43962      0.037658231    22.064459      762.76618     -128.55817      634.20802    
    116000   306.63593      0.037658231    19.506278      760.7722      -128.20996      632.56224    
    117000   293.24735      0.037658231    21.404739      727.55476     -107.31925      620.2355     
    118000   287.84043      0.037658231    13.034084      714.14004     -107.86759      606.27245    
    119000   307.74138      0.037658231    17.829402      763.51484     -112.69168      650.82316    
    120000   308.71147      0.037658231    28.832638      765.92167     -111.14631      654.77536    
    121000   295.11624      0.037658231    17.992514      732.19154     -109.18055      623.01098    
    122000   298.25619      0.037658231    10.865091      739.98182     -113.50489      626.47693    
    123000   304.42134      0.037658231    18.659157      755.27774     -114.16168      641.11606    
    124000   298.94785      0.037658231    17.447792      741.69786     -108.07207      633.6258     
    125000   286.83678      0.037658231    22.231831      711.64995     -109.29251      602.35744    
    126000   300.78723      0.037658231    18.490909      746.26141     -113.83673      632.42468    
    127000   301.81048      0.037658231    15.381611      748.80013     -109.94022      638.85991    
    128000   307.75924      0.037658231    28.548802      763.55915     -104.55105      659.0081     
    129000   309.07786      0.037658231    17.056853      766.8307      -105.20523      661.62548    
    130000   306.82687      0.037658231    16.645412      761.24593     -105.39522      655.85071    
    131000   293.12123      0.037658231    28.808465      727.24185     -101.54469      625.69716    
    132000   304.95903      0.037658231    16.036384      756.61176     -101.53475      655.07701    
    133000   305.92403      0.037658231    12.354846      759.00595     -104.35103      654.65492    
    134000   292.38301      0.037658231    19.659227      725.41032     -98.858241      626.55208    
    135000   309.21541      0.037658231    17.845963      767.17195     -103.08251      664.08944    
    136000   307.02642      0.037658231    14.497352      761.74101     -112.82114      648.91986    
    137000   289.2909       0.037658231    1.082441       717.73869     -104.75708      612.98161    
    138000   292.9003       0.037658231    25.788094      726.69372     -98.685729      628.00799    
    139000   296.72494      0.037658231    27.777081      736.18275     -94.258383      641.92436    
    140000   315.65652      0.037658231    16.069431      783.15252     -97.640409      685.51211    
    141000   295.42612      0.037658231    20.670515      732.96034     -94.861156      638.09918    
    142000   307.05635      0.037658231    23.87929       761.81526     -92.249758      669.5655     
    143000   307.06423      0.037658231    7.3485829      761.83482     -90.600268      671.23455    
    144000   298.09565      0.037658231    22.582137      739.58352     -85.851104      653.73241    
    145000   295.57894      0.037658231    38.147008      733.3395      -91.031233      642.30827    
    146000   291.54918      0.037658231    49.359123      723.34154     -90.882627      632.45891    
    147000   298.69874      0.037658231    23.854054      741.0798      -90.517354      650.56245    
    148000   306.04267      0.037658231   -11.91004       759.3003      -93.186657      666.11365    
    149000   297.02431      0.037658231    28.539177      736.9255      -81.979186      654.94631    
    150000   307.22989      0.037658231    21.429574      762.24582     -79.935335      682.31048    
    151000   306.80843      0.037658231    10.612242      761.20017     -80.081709      681.11846    
    152000   295.6828       0.037658231    42.275928      733.59718     -75.75743       657.83975    
    153000   306.37135      0.037658231    14.78454       760.11576     -72.288365      687.82739    
    154000   290.6547       0.037658231    5.068824       721.12233     -75.51205       645.61028    
    155000   296.45468      0.037658231    17.188159      735.51224     -71.581922      663.93032    
    156000   293.14545      0.037658231    30.796421      727.30195     -71.738917      655.56303    
    157000   301.11199      0.037658231    27.086919      747.06715     -72.109043      674.9581     
    158000   304.37805      0.037658231    22.382777      755.17032     -69.473971      685.69635    
    159000   304.36818      0.037658231    20.933693      755.14584     -68.331104      686.81473    
    160000   306.65546      0.037658231    17.391238      760.82066     -72.121345      688.69931    
    161000   291.73377      0.037658231    17.834263      723.79952     -75.363464      648.43605    
    162000   286.3257       0.037658231    15.962596      710.38195     -70.041645      640.3403     
    163000   292.27244      0.037658231    17.851878      725.13597     -71.297515      653.83846    
    164000   306.89275      0.037658231    19.34579       761.40937     -84.405184      677.00419    
    165000   290.2153       0.037658231    27.845846      720.03216     -84.330595      635.70156    
    166000   302.59164      0.037658231    19.0623        750.73821     -83.647443      667.09077    
    167000   313.36743      0.037658231    22.339979      777.47323     -83.42466       694.04857    
    168000   298.18057      0.037658231    16.494353      739.7942      -91.711563      648.08264    
    169000   300.45803      0.037658231    14.217711      745.44466     -82.064439      663.38022    
    170000   313.90123      0.037658231    20.969631      778.79759     -75.216636      703.58096    
    171000   304.62016      0.037658231    20.296126      755.77102     -78.946119      676.8249     
    172000   296.77418      0.037658231    17.463656      736.30493     -78.024305      658.28062    
    173000   303.83172      0.037658231    19.66327       753.81488     -81.204634      672.61025    
    174000   311.10538      0.037658231    21.346173      771.86103     -83.933302      687.92772    
    175000   297.55297      0.037658231    17.45801       738.23713     -77.980656      660.25647    
    176000   299.61378      0.037658231    19.884912      743.35006     -75.868857      667.4812     
    177000   300.25623      0.037658231    20.288028      744.94399     -69.269881      675.67411    
    178000   297.08402      0.037658231    19.065346      737.07365     -73.97255       663.1011     
    179000   298.75486      0.037658231    17.999279      741.21904     -70.245592      670.97345    
    180000   303.1108       0.037658231    18.385135      752.02625     -72.691901      679.33435    
    181000   310.02556      0.037658231    30.566309      769.18197     -74.323512      694.85845    
    182000   294.52205      0.037658231    25.148299      730.71732     -79.669478      651.04784    
    183000   297.64074      0.037658231    17.443996      738.45488     -76.150576      662.3043     
    184000   293.89343      0.037658231    17.926654      729.15769     -76.168478      652.98921    
    185000   311.72773      0.037658231    20.373439      773.4051      -72.939651      700.46544    
    186000   313.1543       0.037658231    20.352107      776.94445     -74.96374       701.98071    
    187000   283.8185       0.037658231    11.573238      704.16152     -80.126741      624.03478    
    188000   299.18179      0.037658231    16.852746      742.27827     -78.882336      663.39593    
    189000   304.70656      0.037658231    30.313711      755.98537     -77.008805      678.97656    
    190000   298.32442      0.037658231    19.359778      740.15111     -77.399644      662.75146    
    191000   301.24711      0.037658231    15.025179      747.40238     -79.906168      667.49621    
    192000   302.25308      0.037658231    16.921254      749.89823     -81.141666      668.75656    
    193000   306.72172      0.037658231    21.869574      760.98505     -90.00403       670.98102    
    194000   297.9807       0.037658231    16.592567      739.29833     -92.375328      646.923      
    195000   307.524        0.037658231    23.090397      762.97553     -77.924596      685.05094    
    196000   300.80148      0.037658231    20.625646      746.29677     -79.919757      666.37701    
    197000   298.74395      0.037658231    18.795255      741.19198     -80.12793       661.06405    
    198000   296.38312      0.037658231    23.096347      735.33469     -71.560253      663.77444    
    199000   297.7252       0.037658231    20.07503       738.66442     -75.144624      663.51979    
    200000   292.82978      0.037658231    17.863096      726.51875     -67.776337      658.74241    
    201000   302.63321      0.037658231    20.813922      750.84133     -80.908741      669.93259    
    202000   296.03201      0.037658231    18.387254      734.46359     -80.242039      654.22155    
    203000   311.14662      0.037658231    14.327237      771.96335     -78.45578       693.50757    
    204000   303.67211      0.037658231    11.733172      753.41887     -76.553961      676.86491    
    205000   289.60559      0.037658231    17.217057      718.51946     -71.444819      647.07464    
    206000   297.56862      0.037658231    21.770963      738.27594     -66.723735      671.55221    
    207000   316.6125       0.037658231    21.223328      785.52435     -68.663538      716.86081    
    208000   297.86741      0.037658231    16.009551      739.01726     -64.022089      674.99517    
    209000   294.40991      0.037658231    19.329601      730.43911     -65.107849      665.33126    
    210000   306.12226      0.037658231    24.115196      759.49776     -66.739672      692.75809    
    211000   319.09601      0.037658231    18.581525      791.686       -62.367569      729.31843    
    212000   289.2722       0.037658231    15.115275      717.69231     -62.669936      655.02237    
    213000   288.48947      0.037658231    17.698341      715.75033     -65.34955       650.40078    
    214000   294.90285      0.037658231    24.250184      731.66209     -62.93242       668.72967    
    215000   321.34524      0.037658231    18.024375      797.26641     -60.616927      736.64948    
    216000   291.90576      0.037658231    17.544139      724.22624     -63.301538      660.9247     
    217000   288.89884      0.037658231    18.027144      716.76599     -64.830235      651.93576    
    218000   299.7734       0.037658231    24.380475      743.74606     -59.065191      684.68087    
    219000   302.87705      0.037658231    23.158439      751.44632     -58.513153      692.93316    
    220000   298.78172      0.037658231    25.622692      741.28569     -55.648921      685.63676    
    221000   297.92758      0.037658231    16.379794      739.16654     -61.905635      677.2609     
    222000   295.69802      0.037658231    21.056522      733.63495     -60.709416      672.92553    
    223000   305.28043      0.037658231    20.976869      757.40916     -61.461101      695.94806    
    224000   286.43667      0.037658231    19.875229      710.65729     -66.777772      643.87951    
    225000   296.70902      0.037658231    18.768236      736.14325     -67.532767      668.61048    
    226000   313.079        0.037658231    20.546093      776.75762     -65.353237      711.40438    
    227000   307.08836      0.037658231    12.02949       761.89469     -62.701521      699.19317    
    228000   286.37582      0.037658231    11.682499      710.50629     -68.122955      642.38334    
    229000   288.9283       0.037658231    22.808665      716.83907     -62.457038      654.38203    
    230000   304.83408      0.037658231    20.586917      756.30176     -65.834611      690.46715    
    231000   314.10131      0.037658231    19.010764      779.294       -60.287312      719.00669    
    232000   291.05082      0.037658231    17.54812       722.10511     -62.611003      659.4941     
    233000   287.52631      0.037658231    21.937413      713.36069     -55.298816      658.06188    
    234000   314.98008      0.037658231    19.912778      781.47425     -60.906254      720.568      
    235000   299.80223      0.037658231    16.829914      743.81759     -64.591923      679.22567    
    236000   286.137        0.037658231    25.550886      709.91379     -70.243361      639.67043    
    237000   313.42216      0.037658231    21.220382      777.60902     -64.48593       713.12309    
    238000   303.46935      0.037658231    18.336105      752.91581     -69.611538      683.30427    
    239000   300.62768      0.037658231    18.516414      745.86556     -69.717526      676.14803    
    240000   295.11169      0.037658231    21.042389      732.18023     -67.151224      665.02901    
    241000   293.58885      0.037658231    18.873989      728.40202     -67.295864      661.10616    
    242000   295.09266      0.037658231    20.75979       732.13302     -59.475805      672.65721    
    243000   306.50562      0.037658231    15.62591       760.4489      -62.801052      697.64785    
    244000   298.67878      0.037658231    20.425039      741.0303      -61.812283      679.21801    
    245000   289.83233      0.037658231    18.46281       719.08201     -67.157854      651.92416    
    246000   305.17631      0.037658231    22.085552      757.15085     -70.249368      686.90148    
    247000   305.75478      0.037658231    13.573974      758.58604     -73.119476      685.46657    
    248000   297.6165       0.037658231    21.471648      738.39474     -68.485603      669.90914    
    249000   306.55407      0.037658231    19.037992      760.56911     -62.86953       697.69958    
    250000   306.60858      0.037658231    19.880493      760.70435     -60.555296      700.14905    
    251000   299.82018      0.037658231    19.869868      743.86214     -65.265258      678.59688    
    252000   306.06584      0.037658231    23.599707      759.35779     -60.29135       699.06644    
    253000   297.79534      0.037658231    19.148919      738.83845     -62.053204      676.78525    
    254000   301.27251      0.037658231    18.610613      747.46539     -62.047839      685.41755    
    255000   304.36576      0.037658231    20.384753      755.13985     -58.803899      696.33595    
    256000   295.01436      0.037658231    23.190164      731.93876     -60.252202      671.68656    
    257000   291.49003      0.037658231    15.142103      723.1948      -61.142442      662.05236    
    258000   315.36477      0.037658231    16.306797      782.42868     -65.734381      716.6943     
    259000   303.80404      0.037658231    30.821258      753.7462      -61.924087      691.82211    
    260000   292.8134       0.037658231    17.177854      726.47813     -69.922721      656.55541    
    261000   294.89765      0.037658231    17.532821      731.6492      -71.814487      659.83471    
    262000   305.60634      0.037658231    23.27128       758.21776     -69.549037      688.66873    
    263000   293.74624      0.037658231    23.092574      728.79252     -66.648611      662.14391    
    264000   297.21563      0.037658231    18.32461       737.40018     -61.405808      675.99437    
    265000   299.26542      0.037658231    17.175178      742.48576     -68.023828      674.46193    
    266000   295.83681      0.037658231    22.478788      733.97929     -58.747483      675.2318     
    267000   290.56745      0.037658231    20.785988      720.90586     -59.884579      661.02128    
    268000   294.79156      0.037658231    25.588199      731.38599     -57.648618      673.73737    
    269000   302.99018      0.037658231    19.863666      751.72698     -62.149662      689.57732    
    270000   309.63426      0.037658231    18.241142      768.21114     -54.446199      713.76494    
    271000   288.36247      0.037658231    22.223278      715.43523     -58.293059      657.14217    
    272000   299.23355      0.037658231    31.281152      742.40668     -59.831357      682.57532    
    273000   299.84739      0.037658231    15.648434      743.92964     -56.434226      687.49542    
    274000   308.98491      0.037658231    8.1672817      766.60008     -61.658389      704.94169    
    275000   296.62023      0.037658231    16.897487      735.92297     -66.022699      669.90028    
    276000   293.08836      0.037658231    23.299277      727.16031     -61.082859      666.07745    
    277000   297.23497      0.037658231    27.282826      737.44816     -57.848434      679.59972    
    278000   324.2628       0.037658231    24.404604      804.50495     -57.061256      747.44369    
    279000   289.03346      0.037658231    2.5368998      717.09998     -60.62841       656.47157    
    280000   298.27632      0.037658231    22.858999      740.03176     -64.223822      675.80794    
    281000   302.20809      0.037658231    27.235519      749.78661     -67.605105      682.18151    
    282000   308.14616      0.037658231    21.958727      764.51912     -68.652719      695.8664     
    283000   307.5917       0.037658231    14.621523      763.1435      -64.756446      698.38705    
    284000   300.56213      0.037658231    24.670252      745.70292     -62.909012      682.79391    
    285000   296.10359      0.037658231    35.80319       734.64117     -66.865606      667.77556    
    286000   296.87479      0.037658231    20.410323      736.55454     -63.127846      673.4267     
    287000   308.13329      0.037658231    20.396517      764.4872      -67.516165      696.97103    
    288000   305.22696      0.037658231    20.241044      757.2765      -64.176932      693.09957    
    289000   285.45206      0.037658231    17.562898      708.21443     -65.362486      642.85194    
    290000   280.92664      0.037658231    15.374718      696.98675     -65.214161      631.77258    
    291000   286.82973      0.037658231    18.936175      711.63247     -64.336677      647.29579    
    292000   301.19894      0.037658231    18.881791      747.28288     -62.058262      685.22462    
    293000   301.9049       0.037658231    23.678365      749.03437     -59.302515      689.73186    
    294000   289.44018      0.037658231    20.577842      718.10907     -63.106723      655.00234    
    295000   300.33981      0.037658231    12.796878      745.15136     -55.917609      689.23375    
    296000   299.43548      0.037658231    27.286682      742.90768     -51.97568       690.932      
    297000   296.38011      0.037658231    21.565828      735.32722     -57.162078      678.16514    
    298000   302.37583      0.037658231    9.2249214      750.20278     -56.588395      693.61438    
    299000   303.78377      0.037658231    23.180495      753.6959      -61.992655      691.70324    
    300000   287.37871      0.037658231    27.339609      712.9945      -59.687595      653.30691    
    301000   300.87979      0.037658231    22.426051      746.49106     -65.835162      680.6559     
    302000   295.78622      0.037658231    7.4280661      733.85377     -65.530709      668.32306    
    303000   308.37917      0.037658231    8.8122591      765.09723     -59.808083      705.28915    
    304000   306.78788      0.037658231    22.404477      761.14919     -62.067516      699.08168    
    305000   297.32788      0.037658231    13.316811      737.67867     -66.837331      670.84134    
    306000   296.12287      0.037658231    18.613336      734.68899     -65.72351       668.96548    
    307000   296.98319      0.037658231    16.889243      736.82347     -63.230726      673.59275    
    308000   313.87577      0.037658231    21.215895      778.73444     -59.048835      719.68561    
    309000   293.59786      0.037658231    18.532616      728.42438     -58.75372       669.67066    
    310000   299.29907      0.037658231    20.184261      742.56923     -56.464055      686.10518    
    311000   304.55487      0.037658231    19.798996      755.60902     -63.295689      692.31333    
    312000   299.51748      0.037658231    11.24222       743.11113     -69.694596      673.41654    
    313000   285.66724      0.037658231    23.038635      708.7483      -64.485965      644.26233    
    314000   304.33874      0.037658231    24.497185      755.07281     -63.442848      691.62996    
    315000   315.79333      0.037658231    8.1410769      783.49195     -67.675689      715.81627    
    316000   293.73325      0.037658231   -20.338858      728.76029     -69.73303       659.02726    
    317000   296.68813      0.037658231    20.30894       736.09143     -71.535741      664.55569    
    318000   296.10878      0.037658231    17.451954      734.65405     -61.842063      672.81199    
    319000   310.31061      0.037658231    3.5640609      769.88918     -70.45936       699.42982    
    320000   301.15085      0.037658231    20.736328      747.16356     -65.845482      681.31808    
    321000   315.00519      0.037658231    27.23918       781.53656     -64.020419      717.51614    
    322000   306.52537      0.037658231    16.937201      760.4979      -60.757563      699.74034    
    323000   315.18507      0.037658231    14.547241      781.98285     -67.17975       714.8031     
    324000   287.33917      0.037658231    21.584602      712.8964      -59.40102       653.49538    
    325000   308.72876      0.037658231    20.553216      765.96457     -63.261148      702.70342    
    326000   310.96899      0.037658231    22.025273      771.52265     -59.481009      712.04164    
    327000   286.69635      0.037658231    20.835683      711.30154     -66.853302      644.44824    
    328000   291.70494      0.037658231    20.318545      723.72801     -72.510346      651.21766    
    329000   309.57242      0.037658231    17.374391      768.05771     -69.350578      698.70713    
    330000   306.50053      0.037658231    19.715364      760.43626     -67.469179      692.96708    
    331000   299.42934      0.037658231    21.53517       742.89245     -62.762011      680.13044    
    332000   282.87726      0.037658231    1.2032483      701.82629     -64.092126      637.73416    
    333000   316.53339      0.037658231   -0.68478592     785.32807     -57.080464      728.2476     
    334000   311.60362      0.037658231    22.337937      773.09718     -58.561923      714.53525    
    335000   310.45816      0.037658231    28.539609      770.25526     -57.097748      713.15751    
    336000   288.67959      0.037658231    29.552816      716.22201     -54.950052      661.27196    
    337000   289.30998      0.037658231    19.3436        717.78604     -57.676683      660.10936    
    338000   296.35008      0.037658231    11.590987      735.25272     -64.164764      671.08796    
    339000   308.76963      0.037658231    19.633784      766.06597     -57.501309      708.56466    
    340000   302.5408       0.037658231    22.791716      750.61206     -57.991106      692.62095    
    341000   288.29402      0.037658231    18.489112      715.26541     -49.757639      665.50777    
    342000   302.32422      0.037658231    18.19262       750.07472     -54.298834      695.77589    
    343000   307.92752      0.037658231    24.201851      763.97666     -52.864628      711.11203    
    344000   303.22391      0.037658231    15.629441      752.30687     -60.696812      691.61006    
    345000   296.24438      0.037658231    20.474169      734.99048     -56.346439      678.64404    
    346000   293.05817      0.037658231    27.58564       727.08539     -52.08524       675.00015    
    347000   305.97939      0.037658231    22.422748      759.1433      -58.027508      701.11579    
    348000   301.88516      0.037658231    9.3587571      748.9854      -59.903419      689.08198    
    349000   284.85621      0.037658231    4.3604824      706.7361      -62.243683      644.49242    
    350000   293.85982      0.037658231    22.739447      729.07432     -68.655994      660.41833    
    351000   315.18745      0.037658231    17.894171      781.98874     -66.93954       715.0492     
    352000   290.53464      0.037658231    12.493973      720.82444     -65.751103      655.07334    
    353000   293.10404      0.037658231    44.507985      727.19921     -64.815677      662.38354    
    354000   309.81984      0.037658231    23.289037      768.67157     -64.031305      704.64026    
    355000   309.84813      0.037658231   -17.912492      768.74176     -61.975151      706.7666     
    356000   294.21103      0.037658231    7.2130786      729.94567     -61.61975       668.32592    
    357000   287.28625      0.037658231    31.435121      712.76512     -64.817679      647.94744    
    358000   304.41535      0.037658231    27.333564      755.26288     -65.913353      689.34953    
    359000   305.32121      0.037658231    14.797193      757.51033     -60.62594       696.88439    
    360000   302.38397      0.037658231    31.995484      750.22296     -62.799462      687.4235     
    361000   310.20771      0.037658231    41.131289      769.63387     -65.352678      704.2812     
    362000   299.55567      0.037658231    14.510251      743.20589     -61.189198      682.01669    
    363000   299.01033      0.037658231    19.608646      741.85287     -64.845032      677.00784    
    364000   283.8561       0.037658231    63.09553       704.25482     -57.281433      646.97338    
    365000   304.63094      0.037658231    15.819523      755.79776     -63.446541      692.35122    
    366000   310.19057      0.037658231   -11.320425      769.59135     -57.542061      712.04929    
    367000   299.21283      0.037658231    15.156046      742.35528     -51.629601      690.72568    
    368000   296.03899      0.037658231    29.506583      734.4809      -61.298036      673.18287    
    369000   294.53624      0.037658231    21.351562      730.75254     -59.713216      671.03932    
    370000   292.49421      0.037658231    16.215517      725.68621     -55.173699      670.51251    
    371000   295.54035      0.037658231    23.254801      733.24375     -64.577043      668.6667     
    372000   311.8653       0.037658231    21.981873      773.74641     -61.362913      712.38349    
    373000   308.47165      0.037658231    18.528749      765.32667     -65.991154      699.33552    
    374000   294.66875      0.037658231    18.305125      731.0813      -62.516364      668.56494    
    375000   294.37335      0.037658231    21.022966      730.34838     -61.754251      668.59413    
    376000   307.33965      0.037658231    18.607249      762.51813     -62.889627      699.6285     
    377000   299.16604      0.037658231    18.63632       742.2392      -56.96758       685.27162    
    378000   297.23902      0.037658231    21.021725      737.45819     -51.882245      685.57595    
    379000   297.75597      0.037658231    27.667259      738.74077     -52.283975      686.4568     
    380000   301.70621      0.037658231    9.7902217      748.54142     -50.495127      698.04629    
    381000   308.9885       0.037658231    18.49513       766.60898     -57.696559      708.91243    
    382000   305.23638      0.037658231    22.386038      757.29986     -54.075141      703.22472    
    383000   294.10409      0.037658231    15.851519      729.68035     -59.154883      670.52547    
    384000   291.78367      0.037658231    18.296276      723.92332     -57.872089      666.05123    
    385000   297.77196      0.037658231    17.417951      738.78044     -56.790164      681.99028    
    386000   307.2          0.037658231    17.33536       762.17166     -65.547071      696.62459    
    387000   296.52321      0.037658231    27.571132      735.68226     -57.874286      677.80797    
    388000   302.40342      0.037658231    17.75006       750.27122     -66.680041      683.59118    
    389000   314.32463      0.037658231    23.661575      779.84808     -57.336291      722.51178    
    390000   282.87758      0.037658231    24.917421      701.82707     -67.097629      634.72944    
    391000   289.56081      0.037658231    17.121061      718.40836     -68.162416      650.24594    
    392000   304.48669      0.037658231    13.732687      755.43986     -68.628434      686.81143    
    393000   301.10887      0.037658231    18.936936      747.05942     -69.505395      677.55402    
    394000   297.2839       0.037658231    20.514444      737.56956     -63.241678      674.32788    
    395000   303.22101      0.037658231    25.46778       752.29969     -65.095922      687.20376    
    396000   291.71754      0.037658231    24.624543      723.75925     -57.064754      666.69449    
    397000   296.33262      0.037658231    10.355968      735.2094      -59.967809      675.24159    
    398000   309.57727      0.037658231    41.026347      768.06973     -61.423138      706.64659    
    399000   298.13772      0.037658231    38.474991      739.68789     -63.693576      675.99432    
    400000   305.55562      0.037658231    27.145574      758.09192     -62.629133      695.46279    
    401000   299.92089      0.037658231   -0.75556933     744.11201     -60.926667      683.18534    
    402000   298.32359      0.037658231    6.2874145      740.14905     -62.056845      678.09221    
    403000   306.38003      0.037658231   -0.17830785     760.13731     -56.580914      703.5564     
    404000   300.81125      0.037658231    43.496477      746.321       -63.31498       683.00602    
    405000   291.60141      0.037658231    0.51838877     723.47114     -62.449387      661.02175    
    406000   305.41875      0.037658231    15.893415      757.75233     -57.1649        700.58743    
    407000   301.81331      0.037658231    29.023462      748.80714     -64.806903      684.00024    
    408000   290.23081      0.037658231    27.285719      720.07063     -61.292657      658.77797    
    409000   297.54157      0.037658231   -6.7890716      738.20883     -55.251999      682.95683    
    410000   316.87235      0.037658231    5.9410598      786.16903     -66.573902      719.59513    
    411000   297.0173       0.037658231    32.578529      736.90811     -62.251651      674.65646    
    412000   291.75761      0.037658231    17.494815      723.85868     -60.640849      663.21783    
    413000   301.67094      0.037658231    3.1607054      748.45393     -66.593478      681.86045    
    414000   309.53429      0.037658231    21.337273      767.96311     -72.122457      695.84065    
    415000   290.80691      0.037658231    20.0908        721.49997     -66.738641      654.76133    
    416000   300.962        0.037658231    9.8571697      746.69501     -63.510207      683.1848     
    417000   320.29559      0.037658231    23.568014      794.66219     -58.8481        735.81409    
    418000   285.51312      0.037658231    21.574154      708.36592     -67.811453      640.55447    
    419000   291.22657      0.037658231    14.912985      722.54114     -54.160939      668.3802     
    420000   315.23154      0.037658231    29.018652      782.09813     -57.946583      724.15154    
    421000   305.55761      0.037658231    35.495503      758.09687     -62.731378      695.36549    
    422000   295.67588      0.037658231    11.798721      733.58        -67.003358      666.57664    
    423000   303.60925      0.037658231    23.702463      753.26292     -63.947377      689.31554    
    424000   307.53783      0.037658231    31.076429      763.00984     -68.388404      694.62144    
    425000   285.96631      0.037658231    17.777228      709.49031     -65.280223      644.21009    
    426000   306.70677      0.037658231    13.251445      760.94796     -63.936411      697.01155    
    427000   322.02167      0.037658231    32.412749      798.94463     -65.016632      733.928      
    428000   286.83461      0.037658231    25.234781      711.64458     -66.883637      644.76095    
    429000   288.02914      0.037658231    19.466293      714.60823     -61.323412      653.28482    
    430000   317.79998      0.037658231    20.297822      788.47052     -63.95267       724.51785    
    431000   299.53654      0.037658231    19.036119      743.15841     -64.306159      678.85225    
    432000   291.4122       0.037658231    18.702254      723.00171     -65.198911      657.8028     
    433000   318.61999      0.037658231    17.801211      790.50498     -64.785553      725.71943    
    434000   300.36517      0.037658231    20.291489      745.21426     -67.424723      677.78954    
    435000   283.6412       0.037658231    17.033594      703.72163     -57.854453      645.86717    
    436000   294.68102      0.037658231    8.4812332      731.11173     -59.471787      671.63994    
    437000   310.81585      0.037658231    22.388882      771.14269     -57.957767      713.18492    
    438000   305.93923      0.037658231    18.432306      759.04366     -57.103902      701.93976    
    439000   299.25459      0.037658231    21.034405      742.45888     -57.549343      684.90954    
    440000   297.36756      0.037658231    26.065101      737.77712     -57.270577      680.50654    
    441000   300.19281      0.037658231    19.15868       744.78664     -60.478662      684.30797    
    442000   307.31475      0.037658231    17.697658      762.45636     -60.077845      702.37851    
    443000   299.0223       0.037658231    27.240885      741.88256     -61.032853      680.84971    
    444000   296.10816      0.037658231    19.663566      734.6525      -55.991711      678.66078    
    445000   301.9125       0.037658231    19.285455      749.05324     -58.752147      690.30109    
    446000   299.17023      0.037658231    19.247036      742.2496      -55.811849      686.43775    
    447000   300.88378      0.037658231    19.814948      746.50096     -54.028201      692.47276    
    448000   294.6614       0.037658231    19.77869       731.06305     -58.312397      672.75065    
    449000   290.963        0.037658231    19.04174       721.88723     -54.427751      667.45947    
    450000   291.98264      0.037658231    19.879633      724.41697     -58.430835      665.98613    
    451000   296.88306      0.037658231    25.219267      736.57505     -59.453258      677.12179    
    452000   308.07339      0.037658231    14.90275       764.33857     -61.051534      703.28704    
    453000   290.7641       0.037658231    12.738306      721.39374     -65.682278      655.71146    
    454000   297.139        0.037658231    35.663204      737.21004     -64.561759      672.64828    
    455000   313.54702      0.037658231    20.551668      777.9188      -69.95874       707.96006    
    456000   298.40103      0.037658231    12.734795      740.34118     -62.066335      678.27485    
    457000   275.1074       0.037658231    11.645495      682.54905     -62.760605      619.78844    
    458000   298.27041      0.037658231    23.183503      740.01711     -62.865296      677.15181    
    459000   312.91329      0.037658231    27.340545      776.34649     -56.611959      719.73453    
    460000   306.20605      0.037658231    20.894988      759.70566     -64.466786      695.23887    
    461000   303.4373       0.037658231    12.593684      752.8363      -68.568156      684.26814    
    462000   302.32771      0.037658231    21.710172      750.08339     -62.694956      687.38844    
    463000   285.15485      0.037658231    23.708139      707.47704     -60.585997      646.89104    
    464000   309.32404      0.037658231    33.512409      767.44146     -55.066731      712.37473    
    465000   294.43882      0.037658231    8.3647521      730.51083     -61.745594      668.76524    
    466000   300.4915       0.037658231    12.387262      745.52771     -64.657563      680.87014    
    467000   311.43352      0.037658231    30.261813      772.67515     -61.651807      711.02334    
    468000   290.30773      0.037658231   -8.9543834      720.26147     -64.938625      655.32285    
    469000   297.06426      0.037658231    9.1672126      737.02463     -61.112476      675.91215    
    470000   289.09181      0.037658231    7.5895285      717.24474     -55.62609       661.61865    
    471000   287.35675      0.037658231    7.9991553      712.94003     -57.488719      655.45131    
    472000   301.44901      0.037658231    35.918885      747.90331     -51.034931      696.86838    
    473000   308.81453      0.037658231    3.261847       766.17735     -50.296973      715.88038    
    474000   299.35383      0.037658231    5.3418426      742.7051      -52.623707      690.08139    
    475000   292.26324      0.037658231    15.638511      725.11316     -56.17207       668.94109    
    476000   302.45764      0.037658231    28.161882      750.40575     -59.777313      690.62844    
    477000   309.87968      0.037658231    18.219034      768.82003     -60.775401      708.04463    
    478000   291.46666      0.037658231    17.016694      723.13681     -56.373374      666.76343    
    479000   294.87671      0.037658231    25.089743      731.59725     -58.237472      673.35977    
    480000   296.54156      0.037658231    12.372403      735.72779     -52.693967      683.03383    
    481000   304.97667      0.037658231    13.840797      756.65551     -57.362176      699.29334    
    482000   298.55596      0.037658231    18.072618      740.72558     -53.874593      686.85098    
    483000   301.12931      0.037658231    23.662325      747.11012     -61.447101      685.66302    
    484000   303.61979      0.037658231    22.322539      753.28907     -74.999085      678.28999    
    485000   307.42032      0.037658231    6.6013106      762.7183      -75.885089      686.83321    
    486000   282.86956      0.037658231    12.744976      701.80718     -64.843589      636.96359    
    487000   295.82055      0.037658231    22.183907      733.93894     -68.590695      665.34825    
    488000   309.69582      0.037658231    18.391922      768.36386     -67.302455      701.06141    
    489000   301.84513      0.037658231    18.246925      748.88608     -60.523487      688.36259    
    490000   300.74462      0.037658231    21.320512      746.1557      -55.332801      690.8229     
    491000   305.77435      0.037658231    12.684745      758.63458     -55.595031      703.03955    
    492000   296.43879      0.037658231    20.40204       735.47282     -59.624331      675.84849    
    493000   300.58269      0.037658231    18.745667      745.75395     -65.351735      680.40222    
    494000   303.69526      0.037658231    21.452996      753.47631     -59.988049      693.48826    
    495000   310.4151       0.037658231    24.047134      770.14842     -60.962716      709.1857     
    496000   290.53593      0.037658231    19.89877       720.82766     -58.144305      662.68336    
    497000   300.4226       0.037658231    17.531889      745.35675     -55.273715      690.08303    
    498000   297.19224      0.037658231    22.538589      737.34215     -57.56592       679.77623    
    499000   308.38469      0.037658231    18.318423      765.11091     -56.659743      708.45117    
    500000   291.83545      0.037658231    16.828035      724.0518      -55.722515      668.32928    
    501000   295.41555      0.037658231    16.333378      732.93412     -56.184799      676.74932    
    502000   302.66669      0.037658231    21.254939      750.9244      -67.002175      683.92222    
    503000   309.89417      0.037658231    19.81943       768.85597     -65.910332      702.94563    
    504000   301.11992      0.037658231    16.924714      747.08682     -69.776587      677.31023    
    505000   295.02237      0.037658231    20.160927      731.95863     -65.695967      666.26267    
    506000   303.76477      0.037658231    15.235812      753.64877     -70.646413      683.00236    
    507000   297.34177      0.037658231    14.502145      737.71312     -67.57341       670.13971    
    508000   292.86495      0.037658231    19.561133      726.60602     -65.917275      660.68874    
    509000   306.06481      0.037658231    19.414169      759.35524     -65.459879      693.89536    
    510000   298.29136      0.037658231    17.288334      740.06908     -64.443904      675.62518    
    511000   291.52618      0.037658231    16.609841      723.28449     -63.612012      659.67248    
    512000   303.14867      0.037658231    18.208978      752.1202      -76.915361      675.20484    
    513000   306.78586      0.037658231    18.709495      761.14418     -74.550879      686.5933     
    514000   297.05997      0.037658231    17.435302      737.01397     -74.170304      662.84366    
    515000   299.66905      0.037658231    18.940976      743.48717     -66.027271      677.4599     
    516000   301.87887      0.037658231    21.008624      748.9698      -71.008709      677.96109    
    517000   298.08493      0.037658231    19.204213      739.55692     -68.215834      671.34109    
    518000   298.76516      0.037658231    15.998367      741.24459     -73.4062        667.83839    
    519000   301.06387      0.037658231    17.510182      746.94776     -63.376672      683.57109    
    520000   300.89788      0.037658231    27.501176      746.53595     -59.957843      686.5781     
    521000   301.59585      0.037658231    18.06789       748.26761     -68.409352      679.85826    
    522000   292.45662      0.037658231    14.690725      725.59293     -63.449717      662.14321    
    523000   298.95111      0.037658231    17.542726      741.70594     -60.793699      680.91224    
    524000   299.00221      0.037658231    18.796205      741.83273     -69.125889      672.70684    
    525000   304.40292      0.037658231    25.574551      755.23202     -68.095224      687.1368     
    526000   303.46533      0.037658231    21.719917      752.90585     -70.244397      682.66145    
    527000   295.8139       0.037658231    16.397838      733.92245     -72.324991      661.59745    
    528000   293.89658      0.037658231    14.962523      729.16552     -67.472891      661.69262    
    529000   308.10686      0.037658231    32.376561      764.4216      -63.328261      701.09334    
    530000   296.99407      0.037658231    16.961585      736.85048     -68.288911      668.56157    
    531000   293.51804      0.037658231    6.6518371      728.22634     -68.346424      659.87992    
    532000   303.23668      0.037658231    15.460453      752.33857     -69.347716      682.99085    
    533000   313.50612      0.037658231    18.30167       777.81733     -71.540847      706.27648    
    534000   296.59131      0.037658231    26.108123      735.85121     -69.760235      666.09097    
    535000   295.64732      0.037658231    35.240011      733.50915     -71.475877      662.03327    
    536000   278.73927      0.037658231   -2.1759144      691.5598      -70.968978      620.59082    
    537000   309.50134      0.037658231    22.470636      767.88135     -62.899372      704.98198    
    538000   308.17997      0.037658231    35.942124      764.60301     -58.696697      705.90631    
    539000   292.59781      0.037658231    28.884685      725.94322     -64.225408      661.71782    
    540000   291.20258      0.037658231    7.9056039      722.48162     -66.95161       655.53001    
    541000   317.38519      0.037658231    26.491586      787.4414      -66.092346      721.34905    
    542000   301.54475      0.037658231    23.108969      748.14083     -64.734974      683.40585    
    543000   296.63592      0.037658231    5.4687449      735.96189     -64.742307      671.21959    
    544000   304.21255      0.037658231    24.708447      754.75972     -63.131845      691.62787    
    545000   293.77266      0.037658231    26.901385      728.85807     -58.157698      670.70038    
    546000   305.89254      0.037658231    7.7479333      758.92782     -60.388138      698.53969    
    547000   311.44462      0.037658231    21.411605      772.70269     -53.83224       718.87045    
    548000   285.08068      0.037658231    32.548951      707.29303     -59.791273      647.50176    
    549000   286.92794      0.037658231    15.768406      711.87614     -60.938645      650.93749    
    550000   307.6894       0.037658231    22.561493      763.38589     -65.590005      697.79589    
    551000   306.74136      0.037658231    26.900755      761.03377     -67.635487      693.39829    
    552000   288.94697      0.037658231    17.122879      716.88539     -70.321193      646.5642     
    553000   305.17261      0.037658231    11.040898      757.14166     -65.443463      691.6982     
    554000   311.37511      0.037658231    23.409266      772.53023     -66.370636      706.15959    
    555000   295.55759      0.037658231    20.932463      733.28654     -61.759458      671.52708    
    556000   289.10579      0.037658231    18.230935      717.27942     -64.273584      653.00584    
    557000   320.11275      0.037658231    24.011461      794.20857     -61.084945      733.12362    
    558000   294.73438      0.037658231    18.317539      731.24413     -64.195772      667.04836    
    559000   289.9748       0.037658231    17.573356      719.43547     -65.419767      654.0157     
    560000   309.02637      0.037658231    28.4503        766.70295     -62.350536      704.35241    
    561000   300.54516      0.037658231    16.49923       745.66083     -61.549868      684.11096    
    562000   302.03227      0.037658231    12.847443      749.35039     -60.787445      688.56295    
    563000   298.97473      0.037658231    21.196164      741.76454     -60.844641      680.9199     
    564000   294.8158       0.037658231    16.400607      731.44612     -51.773224      679.6729     
    565000   311.12302      0.037658231    17.490124      771.9048      -56.598673      715.30612    
    566000   295.4798       0.037658231    22.198737      733.09353     -57.72982       675.36371    
    567000   287.08773      0.037658231    20.103149      712.27256     -58.193336      654.07923    
    568000   311.76699      0.037658231    16.082096      773.5025      -53.970556      719.53194    
    569000   315.37304      0.037658231    11.361718      782.44922     -63.587395      718.86182    
    570000   302.09185      0.037658231    28.252599      749.4982      -58.519994      690.97821    
    571000   289.74882      0.037658231    3.0898385      718.87481     -63.212617      655.66219    
    572000   306.17897      0.037658231    22.789967      759.63847     -62.542118      697.09636    
    573000   311.92131      0.037658231    21.478575      773.88538     -62.626644      711.25873    
    574000   299.74654      0.037658231    17.522949      743.67943     -62.041588      681.63784    
    575000   289.11757      0.037658231    20.183007      717.30867     -57.858672      659.45       
    576000   303.91123      0.037658231    22.925805      754.01213     -55.160214      698.85191    
    577000   315.93482      0.037658231    18.401591      783.843       -51.05839       732.78461    
    578000   289.13622      0.037658231    19.312559      717.35494     -54.116279      663.23866    
    579000   290.38911      0.037658231    20.963776      720.46339     -57.449402      663.01399    
    580000   304.36431      0.037658231    19.323387      755.13625     -50.626352      704.5099     
    581000   307.76909      0.037658231    18.216664      763.58358     -51.296615      712.28697    
    582000   304.437        0.037658231    18.383217      755.3166      -55.171234      700.14536    
    583000   295.91496      0.037658231    17.366922      734.17318     -54.945463      679.22771    
    584000   301.11273      0.037658231    24.450133      747.06898     -60.911754      686.15723    
    585000   300.18524      0.037658231    19.044098      744.76786     -63.263567      681.50429    
    586000   289.59575      0.037658231    17.694946      718.49503     -58.861308      659.63372    
    587000   297.90132      0.037658231    21.756759      739.10138     -60.259399      678.84198    
    588000   294.18157      0.037658231    14.564915      729.87257     -55.569518      674.30305    
    589000   295.08139      0.037658231    15.943945      732.10506     -63.585479      668.51958    
    590000   282.11107      0.037658231    17.461207      699.92533     -63.021083      636.90425    
    591000   302.87376      0.037658231    21.635365      751.43815     -62.050452      689.3877     
    592000   306.48709      0.037658231    17.887174      760.40293     -58.628557      701.77437    
    593000   297.51412      0.037658231    19.440582      738.14073     -56.266157      681.87457    
    594000   311.00822      0.037658231    21.818094      771.61997     -56.959522      714.66045    
    595000   295.87665      0.037658231    17.51914       734.07813     -53.870355      680.20777    
    596000   284.95796      0.037658231    18.865816      706.98855     -55.785167      651.20338    
    597000   308.80731      0.037658231    16.35005       766.15944     -57.978984      708.18046    
    598000   304.0233       0.037658231    20.913804      754.29018     -63.669232      690.62095    
    599000   286.07853      0.037658231    23.950024      709.76871     -57.897288      651.87142    
    600000   293.5044       0.037658231    13.459254      728.19251     -63.783458      664.40906    
    601000   306.7315       0.037658231    18.889391      761.00931     -62.090913      698.9184     
    602000   294.12869      0.037658231    28.493106      729.74138     -62.37172       667.36966    
    603000   277.89581      0.037658231    21.62697       689.46716     -60.224065      629.2431     
    604000   289.35024      0.037658231    18.469347      717.88593     -53.573089      664.31284    
    605000   319.61392      0.037658231    17.548089      792.97095     -59.625609      733.34535    
    606000   303.70143      0.037658231    17.548755      753.49162     -59.723365      693.76826    
    607000   286.91483      0.037658231    26.539986      711.8436      -57.39156       654.45204    
    608000   308.34611      0.037658231    24.854497      765.0152      -57.85607       707.15913    
    609000   321.04381      0.037658231    29.765141      796.51853     -50.914235      745.6043     
    610000   299.31918      0.037658231    10.355379      742.61913     -54.883736      687.73539    
    611000   296.31574      0.037658231    24.487445      735.16752     -59.573147      675.59437    
    612000   302.54375      0.037658231    25.461358      750.61938     -56.277169      694.34221    
    613000   300.39117      0.037658231    16.506492      745.27877     -55.938875      689.3399     
    614000   287.70102      0.037658231    4.6244105      713.79417     -53.912011      659.88216    
    615000   304.57401      0.037658231    36.704407      755.6565      -58.215765      697.44074    
    616000   305.92394      0.037658231    10.201668      759.00573     -65.372585      693.63315    
    617000   299.01206      0.037658231    13.193966      741.85715     -64.814029      677.04312    
    618000   298.54034      0.037658231    16.842929      740.68681     -55.980397      684.70641    
    619000   299.38586      0.037658231    31.516596      742.78456     -54.161485      688.62308    
    620000   300.41263      0.037658231    20.044786      745.33202     -59.249315      686.08271    
    621000   297.32995      0.037658231   -2.3521789      737.68381     -61.049842      676.63397    
    622000   298.88743      0.037658231    29.939624      741.54795     -59.152539      682.39541    
    623000   309.2305       0.037658231    41.772268      767.20939     -70.709154      696.50024    
    624000   305.33571      0.037658231    1.5572691      757.54631     -66.723585      690.82272    
    625000   297.86224      0.037658231    16.259901      739.00444     -71.116811      667.88763    
    626000   304.98362      0.037658231    34.334161      756.67277     -69.630285      687.04248    
    627000   305.14125      0.037658231    19.987356      757.06386     -68.400744      688.66312    
    628000   295.43225      0.037658231    2.2208455      732.97556     -70.004515      662.97105    
    629000   295.01544      0.037658231    24.458386      731.94144     -72.206682      659.73475    
    630000   319.52052      0.037658231    30.148799      792.73923     -70.872903      721.86632    
    631000   301.9111       0.037658231    8.4662792      749.04975     -71.603892      677.44586    
    632000   289.93028      0.037658231    31.523197      719.32503     -60.4121        658.91293    
    633000   301.16706      0.037658231    40.194998      747.20378     -61.862025      685.34176    
    634000   308.12725      0.037658231    6.0525747      764.47221     -66.483276      697.98893    
    635000   291.49196      0.037658231    17.204234      723.19959     -62.858764      660.34083    
    636000   296.59327      0.037658231    38.906792      735.85607     -66.185766      669.6703     
    637000   322.55149      0.037658231   -7.3169899      800.25913     -63.520768      736.73836    
    638000   298.79477      0.037658231   -13.087125      741.31805     -61.725329      679.59272    
    639000   293.95467      0.037658231    19.803167      729.30964     -66.539841      662.7698     
    640000   297.9239       0.037658231    22.975184      739.1574      -62.321303      676.8361     
    641000   309.09188      0.037658231    18.041498      766.86548     -61.367903      705.49757    
    642000   298.64531      0.037658231    12.803025      740.94724     -58.14228       682.80496    
    643000   294.90182      0.037658231    19.840966      731.65954     -55.851095      675.80845    
    644000   296.63178      0.037658231    24.269253      735.95162     -60.582073      675.36954    
    645000   312.25258      0.037658231    18.928039      774.70725     -62.172013      712.53524    
    646000   301.25058      0.037658231    15.827128      747.411       -63.907755      683.50324    
    647000   292.76641      0.037658231    17.320423      726.36153     -68.284214      658.07732    
    648000   301.48647      0.037658231    20.008898      747.99625     -63.224945      684.7713     
    649000   304.00748      0.037658231    18.843732      754.25093     -57.302039      696.94889    
    650000   295.87081      0.037658231    20.060953      734.06364     -61.357092      672.70655    
    651000   297.56259      0.037658231    18.109006      738.26098     -63.020711      675.24027    
    652000   300.00821      0.037658231    18.416129      744.32864     -57.996265      686.33238    
    653000   303.71244      0.037658231    19.441259      753.51894     -62.966404      690.55253    
    654000   308.71423      0.037658231    32.250568      765.92853     -65.487233      700.44129    
    655000   289.26337      0.037658231    14.803418      717.67039     -68.374018      649.29637    
    656000   283.83035      0.037658231    17.486838      704.19093     -66.817116      637.37381    
    657000   298.80884      0.037658231    33.356328      741.35298     -65.625067      675.72791    
    658000   309.03843      0.037658231    22.03122       766.73286     -68.771428      697.96144    
    659000   309.4899       0.037658231    3.3517639      767.85298     -65.520843      702.33214    
    660000   298.49744      0.037658231    22.043886      740.58038     -60.618422      679.96196    
    661000   294.57157      0.037658231    19.470898      730.84019     -64.381423      666.45876    
    662000   308.02284      0.037658231    21.982392      764.21316     -66.253981      697.95918    
    663000   310.63024      0.037658231    19.695207      770.68219     -66.477777      704.20441    
    664000   290.56183      0.037658231    18.512412      720.89192     -65.11695       655.77497    
    665000   308.31632      0.037658231    12.746775      764.9413      -62.369825      702.57147    
    666000   302.62438      0.037658231    23.041987      750.81943     -63.542391      687.27704    
    667000   275.49282      0.037658231    18.380822      683.50529     -58.315649      625.18964    
    668000   290.99886      0.037658231    18.164966      721.9762      -65.019338      656.95687    
    669000   314.07494      0.037658231    9.4001116      779.22859     -52.888806      726.33979    
    670000   307.01028      0.037658231    19.981349      761.70097     -50.041229      711.65974    
    671000   302.75466      0.037658231    24.900416      751.14265     -50.663883      700.47877    
    672000   287.60784      0.037658231    16.37838       713.56297     -53.887651      659.67532    
    673000   299.50627      0.037658231    21.32478       743.08332     -61.587697      681.49562    
    674000   333.68897      0.037658231    35.496105      827.89153     -57.506661      770.38487    
    675000   302.37875      0.037658231    11.835198      750.21002     -57.879226      692.3308     
    676000   289.67438      0.037658231    7.4912474      718.69011     -57.979514      660.7106     
    677000   292.77013      0.037658231    18.339213      726.37077     -55.476616      670.89416    
    678000   305.94224      0.037658231    21.228409      759.05114     -58.307784      700.74335    
    679000   306.02951      0.037658231    23.302534      759.26764     -53.93467       705.33297    
    680000   292.0815       0.037658231    19.867733      724.66225     -57.333789      667.32846    
    681000   298.20796      0.037658231    10.299896      739.86217     -62.934681      676.92749    
    682000   309.89159      0.037658231    10.765063      768.84958     -62.480539      706.36904    
    683000   309.0518       0.037658231    20.497332      766.76603     -60.307366      706.45866    
    684000   297.43505      0.037658231    26.359655      737.94455     -59.037818      678.90673    
    685000   304.03319      0.037658231    18.304904      754.31473     -57.966742      696.34799    
    686000   301.52292      0.037658231    16.811419      748.08668     -63.051834      685.03485    
    687000   293.85639      0.037658231    34.289544      729.0658      -64.043896      665.0219     
    688000   289.14348      0.037658231    14.808429      717.37294     -64.388221      652.98472    
    689000   310.75502      0.037658231    18.693244      770.99178     -70.301454      700.69032    
    690000   319.4123       0.037658231    18.62046       792.47072     -77.777597      714.69312    
    691000   293.07937      0.037658231    20.30346       727.138       -68.345508      658.79249    
    692000   283.61069      0.037658231   -1.9051005      703.64594     -65.016052      638.62989    
    693000   300.78525      0.037658231    16.571662      746.25649     -71.449119      674.80737    
    694000   297.13619      0.037658231    28.485075      737.20308     -62.667027      674.53606    
    695000   301.69964      0.037658231    3.9397312      748.52512     -68.308802      680.21632    
    696000   302.34238      0.037658231    12.91403       750.11978     -60.412651      689.70712    
    697000   308.03881      0.037658231    33.093351      764.25277     -60.369091      703.88368    
    698000   294.40699      0.037658231    17.744064      730.43187     -66.015683      664.41618    
    699000   308.15251      0.037658231    19.280133      764.53488     -59.353265      705.18161    
    700000   303.55286      0.037658231    20.61987       753.123       -59.143634      693.97937    
    701000   305.93589      0.037658231    18.630049      759.03536     -60.025354      699.01001    
    702000   297.60927      0.037658231    16.766093      738.3768      -56.433878      681.94293    
    703000   297.45894      0.037658231    20.312945      738.00384     -55.643091      682.36075    
    704000   299.49719      0.037658231    18.79516       743.06078     -59.591154      683.46962    
    705000   302.60037      0.037658231    18.807143      750.75987     -62.184705      688.57517    
    706000   301.18956      0.037658231    22.678755      747.25961     -49.455637      697.80397    
    707000   303.61403      0.037658231    20.868702      753.27478     -53.160035      700.11474    
    708000   303.03832      0.037658231    18.046502      751.84643     -56.780636      695.06579    
    709000   288.40307      0.037658231    15.29543       715.53596     -56.678054      658.8579     
    710000   295.55157      0.037658231    17.534151      733.27159     -60.9171        672.35449    
    711000   302.5783       0.037658231    22.759511      750.7051      -56.957862      693.74724    
    712000   302.83606      0.037658231    15.009736      751.34461     -62.110112      689.2345     
    713000   306.47759      0.037658231    19.626905      760.37935     -57.285868      703.09349    
    714000   314.59156      0.037658231    16.226821      780.51034     -58.183955      722.32639    
    715000   299.97351      0.037658231    16.867442      744.24256     -58.637519      685.60504    
    716000   287.03761      0.037658231    22.181461      712.14821     -56.557497      655.59072    
    717000   295.25992      0.037658231    19.671804      732.548       -59.911324      672.63667    
    718000   304.6684       0.037658231    21.109779      755.89069     -60.739081      695.15161    
    719000   306.26127      0.037658231    18.287105      759.84265     -56.771908      703.07074    
    720000   291.17572      0.037658231    14.93057       722.41499     -55.161884      667.2531     
    721000   301.59179      0.037658231    17.422072      748.25755     -60.752516      687.50503    
    722000   303.02007      0.037658231    25.995661      751.80114     -54.981407      696.81974    
    723000   297.3288       0.037658231    24.767214      737.68094     -55.588474      682.09246    
    724000   315.43753      0.037658231    12.372839      782.60921     -57.01628       725.59293    
    725000   304.71217      0.037658231    9.2910383      755.99929     -47.516921      708.48237    
    726000   299.08192      0.037658231    25.363967      742.03048     -50.455386      691.5751     
    727000   309.98301      0.037658231    11.257478      769.07639     -57.159872      711.91651    
    728000   300.68936      0.037658231    16.1674        746.0186      -61.1381        684.8805     
    729000   300.01485      0.037658231    19.856436      744.34511     -64.039906      680.3052     
    730000   293.58893      0.037658231    24.704852      728.40222     -66.77254       661.62968    
    731000   309.57046      0.037658231    18.000765      768.05285     -68.126244      699.92661    
    732000   301.54715      0.037658231    12.476865      748.14678     -68.603979      679.5428     
    733000   286.33735      0.037658231    17.160081      710.41085     -67.270461      643.14039    
    734000   299.17795      0.037658231    22.188485      742.26874     -65.879882      676.38886    
    735000   307.0487       0.037658231    7.768602       761.7963      -68.924637      692.87166    
    736000   298.95918      0.037658231    11.491053      741.72597     -66.91326       674.81271    
    737000   290.61119      0.037658231    23.320131      721.01437     -57.991944      663.02243    
    738000   300.3962       0.037658231    19.356537      745.29126     -62.322578      682.96868    
    739000   307.89429      0.037658231    15.798143      763.89423     -62.020116      701.87411    
    740000   294.44047      0.037658231    19.253746      730.51492     -61.125852      669.38907    
    741000   300.15057      0.037658231    16.841947      744.68184     -66.144501      678.53734    
    742000   306.66609      0.037658231    25.726792      760.84702     -66.242025      694.605      
    743000   293.97233      0.037658231    22.02361       729.35345     -62.372275      666.98118    
    744000   294.13542      0.037658231    17.072557      729.7581      -58.727827      671.03027    
    745000   316.71707      0.037658231    11.264122      785.78378     -55.678929      730.10485    
    746000   299.36156      0.037658231    28.240562      742.72428     -52.8038        689.92048    
    747000   284.19676      0.037658231    20.36521       705.1         -56.969682      648.13031    
    748000   292.19596      0.037658231    18.680745      724.94622     -54.545507      670.40072    
    749000   301.42943      0.037658231    15.090252      747.85473     -51.051112      696.80362    
    750000   304.1155       0.037658231    21.397898      754.51894     -51.709587      702.80935    
    751000   302.7583       0.037658231    21.770501      751.15168     -53.022864      698.12882    
    752000   293.39123      0.037658231    17.610835      727.91173     -62.667011      665.24471    
    753000   304.98515      0.037658231    20.064264      756.67656     -53.040783      703.63578    
    754000   295.30279      0.037658231    28.679296      732.65437     -59.192485      673.46188    
    755000   296.56747      0.037658231    17.034352      735.79208     -46.881749      688.91033    
    756000   307.18888      0.037658231    17.486438      762.14409     -52.477573      709.66652    
    757000   310.5451       0.037658231    20.02125       770.47095     -47.616221      722.85473    
    758000   301.02576      0.037658231    19.926448      746.85322     -50.912529      695.94069    
    759000   295.48591      0.037658231    13.093403      733.10868     -47.468869      685.63981    
    760000   299.93213      0.037658231    20.172092      744.13987     -50.8657        693.27417    
    761000   299.82572      0.037658231    25.356859      743.87587     -53.991485      689.88438    
    762000   304.17499      0.037658231    30.86092       754.66653     -55.350041      699.31649    
    763000   295.43596      0.037658231    6.7399974      732.98476     -58.559924      674.42483    
    764000   295.0633       0.037658231    14.906408      732.06018     -59.289689      672.77049    
    765000   296.09394      0.037658231    17.507684      734.61723     -53.992696      680.62453    
    766000   296.82774      0.037658231    23.566377      736.43779     -55.2305        681.20729    
    767000   299.25265      0.037658231    22.67325       742.45409     -53.244577      689.20951    
    768000   298.3414       0.037658231    24.489839      740.19323     -45.275123      694.9181     
    769000   292.76842      0.037658231    20.337773      726.36652     -49.631219      676.73531    
    770000   292.59963      0.037658231    18.492155      725.94776     -50.719442      675.22831    
    771000   305.16292      0.037658231    19.988543      757.1176      -62.743468      694.37414    
    772000   290.4131       0.037658231    18.245301      720.52291     -60.077706      660.44521    
    773000   299.95534      0.037658231    21.204443      744.19747     -56.776348      687.42112    
    774000   303.1619       0.037658231    15.873604      752.15303     -60.362468      691.79056    
    775000   309.86093      0.037658231    17.541653      768.7735      -53.88246       714.89104    
    776000   298.39835      0.037658231    21.336238      740.33453     -57.746915      682.58762    
    777000   293.21674      0.037658231    17.859826      727.47882     -63.195856      664.28296    
    778000   304.1805       0.037658231    7.7805544      754.68019     -63.061428      691.61877    
    779000   305.83579      0.037658231    13.442486      758.78702     -61.22731       697.55971    
    780000   304.09548      0.037658231    30.873932      754.46926     -69.774319      684.69494    
    781000   301.35449      0.037658231    25.040953      747.66879     -64.771185      682.8976     
    782000   305.5553       0.037658231    1.1810122      758.09112     -70.580583      687.51053    
    783000   301.69059      0.037658231    27.356653      748.50267     -66.145726      682.35694    
    784000   293.24196      0.037658231    27.561654      727.54139     -71.156121      656.38526    
    785000   292.32442      0.037658231    15.294593      725.26495     -63.787507      661.47744    
    786000   312.19617      0.037658231    12.659713      774.56731     -63.656044      710.91127    
    787000   309.90201      0.037658231    20.644411      768.87544     -62.226533      706.64891    
    788000   291.84042      0.037658231    25.91123       724.06413     -56.222381      667.84175    
    789000   298.97484      0.037658231    16.825628      741.76481     -57.608656      684.15615    
    790000   313.15991      0.037658231    25.97998       776.95838     -61.225763      715.73262    
    791000   293.42508      0.037658231    22.544747      727.99571     -62.61159       665.38412    
    792000   289.51638      0.037658231    19.204083      718.29811     -64.873921      653.42419    
    793000   304.76055      0.037658231    21.106879      756.11932     -60.115654      696.00367    
    794000   296.61341      0.037658231    19.654134      735.90605     -63.278545      672.62751    
    795000   296.65718      0.037658231    21.07193       736.01464     -56.80114       679.2135     
    796000   295.15377      0.037658231    19.66055       732.28463     -57.289089      674.99554    
    797000   297.8607       0.037658231    21.689061      739.0006      -63.591959      675.40864    
    798000   323.18175      0.037658231    15.456424      801.82283     -61.042197      740.78063    
    799000   285.73856      0.037658231    14.804861      708.92524     -58.842449      650.08279    
    800000   303.67634      0.037658231    26.50698       753.42937     -61.074386      692.35498    
    801000   310.00597      0.037658231    19.257092      769.13335     -63.987427      705.14592    
    802000   288.27339      0.037658231    17.319952      715.21424     -59.906229      655.30801    
    803000   313.01269      0.037658231    26.224511      776.59311     -62.831002      713.76211    
    804000   301.47558      0.037658231    18.331127      747.96923     -63.777248      684.19199    
    805000   293.71714      0.037658231    21.187687      728.72031     -67.618071      661.10224    
    806000   294.34508      0.037658231    21.047413      730.27825     -69.957312      660.32094    
    807000   321.25628      0.037658231    19.288793      797.04568     -72.112385      724.93329    
    808000   302.09444      0.037658231    19.67073       749.50464     -73.220845      676.28379    
    809000   290.60828      0.037658231    18.142654      721.00715     -82.481725      638.52542    
    810000   305.54396      0.037658231    18.595823      758.063       -79.51828       678.54472    
    811000   304.09922      0.037658231    16.541496      754.47856     -79.869182      674.60937    
    812000   275.60479      0.037658231    14.432274      683.78309     -78.869658      604.91343    
    813000   296.58043      0.037658231    16.692108      735.82422     -73.011149      662.81307    
    814000   302.42057      0.037658231    18.549866      750.31377     -67.823074      682.4907     
    815000   307.5519       0.037658231    18.675923      763.04474     -67.725832      695.31891    
    816000   293.78112      0.037658231    18.891095      728.87905     -62.290544      666.58851    
    817000   292.72792      0.037658231    19.613818      726.26604     -64.122941      662.1431     
    818000   297.48211      0.037658231    16.694579      738.06131     -71.312739      666.74858    
    819000   285.23055      0.037658231    16.448864      707.66486     -64.849776      642.81509    
    820000   295.79741      0.037658231    19.341766      733.88153     -64.377054      669.50448    
    821000   312.26183      0.037658231    19.919722      774.73022     -57.840506      716.88971    
    822000   313.52455      0.037658231    10.258644      777.86306     -56.075316      721.78774    
    823000   289.10965      0.037658231    14.692811      717.289       -57.206663      660.08234    
    824000   300.25418      0.037658231    19.925818      744.93891     -60.52177       684.41714    
    825000   298.82044      0.037658231    14.156435      741.38175     -56.236173      685.14558    
    826000   306.72439      0.037658231    19.956881      760.99168     -56.232727      704.75895    
    827000   310.13796      0.037658231    19.438304      769.46082     -60.189417      709.2714     
    828000   294.89627      0.037658231    17.42515       731.64578     -63.156871      668.48891    
    829000   302.56         0.037658231    21.548401      750.65969     -61.713185      688.9465     
    830000   296.27382      0.037658231    17.835665      735.06353     -61.945647      673.11788    
    831000   300.01608      0.037658231    7.5245233      744.34816     -62.853373      681.49478    
    832000   302.95521      0.037658231    19.514478      751.64023     -66.340969      685.29926    
    833000   306.05552      0.037658231    22.315258      759.33218     -61.829796      697.50239    
    834000   312.13087      0.037658231    20.871041      774.40528     -61.601094      712.80419    
    835000   290.94876      0.037658231    16.832176      721.8519      -67.344483      654.50742    
    836000   301.8676       0.037658231    21.468744      748.94182     -66.593722      682.3481     
    837000   310.42879      0.037658231    29.962816      770.18239     -70.248138      699.93425    
    838000   292.47406      0.037658231    20.912933      725.63621     -66.70628       658.92993    
    839000   300.15879      0.037658231    16.938964      744.70223     -66.919824      677.7824     
    840000   298.50043      0.037658231    21.86688       740.58778     -63.20469       677.38309    
    841000   291.99561      0.037658231    18.014515      724.44917     -60.884799      663.56437    
    842000   296.83228      0.037658231    19.697332      736.44907     -64.339267      672.1098     
    843000   302.58571      0.037658231    23.672823      750.72348     -61.073263      689.65022    
    844000   310.98184      0.037658231    23.944471      771.55452     -64.549484      707.00504    
    845000   318.8051       0.037658231    16.564626      790.96424     -60.320953      730.64329    
    846000   283.46867      0.037658231    18.707029      703.29358     -58.628525      644.66505    
    847000   304.95088      0.037658231    27.173155      756.59155     -55.325344      701.2662     
    848000   313.98141      0.037658231    22.379676      778.99655     -53.13729       725.85926    
    849000   305.70373      0.037658231    16.385831      758.45939     -54.866766      703.59262    
    850000   282.71063      0.037658231    18.469327      701.41287     -56.398904      645.01396    
    851000   301.58924      0.037658231    22.499793      748.25122     -60.035429      688.21579    
    852000   304.43373      0.037658231    20.433275      755.30849     -59.555114      695.75337    
    853000   297.62078      0.037658231    17.564546      738.40535     -57.851985      680.55337    
    854000   296.63714      0.037658231    17.853222      735.96491     -60.961892      675.00302    
    855000   312.99789      0.037658231    20.552036      776.5564      -63.215823      713.34058    
    856000   289.70793      0.037658231    19.694614      718.77336     -59.218273      659.55509    
    857000   289.50056      0.037658231    19.108589      718.25888     -58.974681      659.28419    
    858000   296.38664      0.037658231    17.384663      735.34343     -56.542194      678.80124    
    859000   316.1434       0.037658231    14.66431       784.36048     -63.628778      720.73171    
    860000   291.33817      0.037658231    23.291348      722.81802     -67.835174      654.98285    
    861000   289.04521      0.037658231    15.00914       717.12913     -69.825026      647.3041     
    862000   324.70724      0.037658231    16.215656      805.60762     -68.504599      737.10302    
    863000   308.8061       0.037658231    20.744963      766.15645     -69.173468      696.98298    
    864000   303.40813      0.037658231    14.143272      752.76394     -71.60031       681.16363    
    865000   298.45595      0.037658231    18.720416      740.47743     -74.492001      665.98543    
    866000   309.88697      0.037658231    23.893898      768.8381      -70.990686      697.84742    
    867000   302.62886      0.037658231    30.135284      750.83055     -61.458732      689.37182    
    868000   302.0888       0.037658231    10.629534      749.49065     -69.092036      680.39862    
    869000   304.53123      0.037658231    12.126114      755.55036     -66.724272      688.82609    
    870000   288.29519      0.037658231    26.112601      715.26831     -64.522081      650.74623    
    871000   309.66911      0.037658231    16.150634      768.29759     -59.698228      708.59936    
    872000   309.8817       0.037658231    18.771536      768.82504     -62.290871      706.53417    
    873000   294.83237      0.037658231    13.818085      731.48723     -60.598908      670.88833    
    874000   294.91915      0.037658231    19.279602      731.70255     -66.125796      665.57676    
    875000   310.60993      0.037658231    28.459539      770.63179     -55.531316      715.10047    
    876000   300.1359       0.037658231    15.986933      744.64544     -61.758342      682.8871     
    877000   292.88507      0.037658231    16.130372      726.65594     -57.891085      668.76485    
    878000   295.64457      0.037658231    18.678129      733.50233     -58.269239      675.2331     
    879000   305.15384      0.037658231    16.45135       757.09509     -64.393779      692.70131    
    880000   295.98164      0.037658231    17.15341       734.33861     -59.115443      675.22317    
    881000   305.75695      0.037658231    20.570479      758.59143     -62.975608      695.61582    
    882000   296.2902       0.037658231    22.514008      735.10416     -54.625351      680.47881    
    883000   301.83823      0.037658231    14.461832      748.86897     -58.648947      690.22003    
    884000   303.21294      0.037658231    13.970908      752.27966     -56.44239       695.83727    
    885000   310.41685      0.037658231    20.021779      770.15276     -67.218249      702.93451    
    886000   288.69945      0.037658231    22.857169      716.27129     -57.425009      658.84628    
    887000   298.42352      0.037658231    19.801282      740.39697     -63.418501      676.97847    
    888000   310.44444      0.037658231    19.80354       770.2212      -59.191462      711.02974    
    889000   307.0034       0.037658231    17.148397      761.68389     -62.051449      699.63244    
    890000   299.4683       0.037658231    19.264169      742.98911     -57.651191      685.33792    
    891000   288.91594      0.037658231    20.883163      716.80842     -53.773438      663.03498    
    892000   310.71091      0.037658231    18.722763      770.88233     -62.045882      708.83645    
    893000   319.2815       0.037658231    18.214468      792.14621     -60.736136      731.41007    
    894000   291.41562      0.037658231    20.57233       723.01019     -66.174622      656.83556    
    895000   293.52089      0.037658231    17.144779      728.23341     -60.066936      668.16648    
    896000   306.38198      0.037658231    19.803029      760.14214     -60.719202      699.42294    
    897000   305.47428      0.037658231    19.401355      757.8901      -57.284764      700.60534    
    898000   295.4516       0.037658231    25.148047      733.02357     -53.239605      679.78396    
    899000   302.08606      0.037658231    18.609763      749.48385     -52.393692      697.09015    
    900000   293.54553      0.037658231    20.540198      728.29456     -57.846142      670.44842    
    901000   302.90302      0.037658231    20.505697      751.51074     -55.37971       696.13103    
    902000   288.77004      0.037658231    18.129504      716.44642     -54.634934      661.81149    
    903000   297.5711       0.037658231    18.628785      738.28211     -51.669536      686.61257    
    904000   316.78992      0.037658231    18.717025      785.96454     -56.02783       729.93671    
    905000   311.43067      0.037658231    21.19513       772.66807     -57.768119      714.89995    
    906000   305.28295      0.037658231    14.11198       757.41542     -57.44072       699.9747     
    907000   285.98436      0.037658231    18.761486      709.53509     -63.015854      646.51923    
    908000   297.99857      0.037658231    20.943974      739.34266     -64.537441      674.80522    
    909000   299.07743      0.037658231    19.388237      742.01934     -62.9718        679.04754    
    910000   324.11069      0.037658231    19.547996      804.12756     -65.700034      738.42753    
    911000   291.27899      0.037658231    24.320831      722.6712      -63.516005      659.15519    
    912000   291.06895      0.037658231    17.751967      722.15009     -60.869737      661.28035    
    913000   301.56182      0.037658231    19.994461      748.18319     -71.49961       676.68358    
    914000   301.1305       0.037658231    16.633109      747.11308     -65.073451      682.03963    
    915000   293.99888      0.037658231    15.220831      729.41933     -58.813788      670.60555    
    916000   302.16752      0.037658231    19.750396      749.68595     -59.008489      690.67746    
    917000   304.99534      0.037658231    23.47085       756.70184     -59.175585      697.52625    
    918000   301.43535      0.037658231    14.831311      747.86941     -59.111759      688.75765    
    919000   300.41141      0.037658231    16.016948      745.32899     -59.257955      686.07103    
    920000   291.16377      0.037658231    14.946068      722.38533     -60.338773      662.04656    
    921000   304.9828       0.037658231    31.915573      756.67074     -62.850837      693.81991    
    922000   316.23127      0.037658231    20.685428      784.5785      -64.522603      720.0559     
    923000   296.31086      0.037658231    18.24625       735.15541     -62.061009      673.09441    
    924000   292.37993      0.037658231    22.198559      725.40267     -63.838856      661.56381    
    925000   301.8857       0.037658231    17.605888      748.98676     -59.927882      689.05887    
    926000   298.45633      0.037658231    18.664353      740.47838     -54.42987       686.04851    
    927000   301.04543      0.037658231    20.791904      746.90201     -58.848142      688.05387    
    928000   301.82799      0.037658231    18.54494       748.84357     -64.266255      684.57731    
    929000   296.60504      0.037658231    17.554311      735.88528     -70.974526      664.91076    
    930000   299.16991      0.037658231    19.097049      742.24879     -67.138699      675.11009    
    931000   298.79252      0.037658231    19.48185       741.31248     -68.896622      672.41586    
    932000   308.45658      0.037658231    21.834808      765.28928     -68.440918      696.84836    
    933000   295.22105      0.037658231    19.841412      732.45157     -62.96542       669.48615    
    934000   297.49718      0.037658231    21.114777      738.09872     -62.746425      675.35229    
    935000   302.84999      0.037658231    17.187529      751.37917     -61.653567      689.7256     
    936000   309.66993      0.037658231    19.267545      768.29963     -57.952934      710.3467     
    937000   305.21904      0.037658231    24.369019      757.25686     -58.475089      698.78177    
    938000   293.2918       0.037658231    21.642643      727.66504     -65.516943      662.1481     
    939000   295.68484      0.037658231    17.836384      733.60224     -68.358617      665.24362    
    940000   300.04353      0.037658231    16.560156      744.41626     -67.175657      677.24061    
    941000   316.20426      0.037658231    20.373795      784.51149     -62.983862      721.52763    
    942000   291.06194      0.037658231    19.16529       722.1327      -61.734597      660.3981     
    943000   294.80432      0.037658231    16.362539      731.41764     -64.514645      666.903      
    944000   318.59291      0.037658231    22.825016      790.43779     -61.643343      728.79445    
    945000   295.424        0.037658231    20.966517      732.95508     -62.738741      670.21634    
    946000   291.38567      0.037658231    21.940984      722.93587     -65.575362      657.36051    
    947000   319.89091      0.037658231    17.247353      793.65816     -63.912692      729.74547    
    948000   296.16056      0.037658231    16.121211      734.78251     -64.18106       670.60145    
    949000   298.71822      0.037658231    26.362685      741.12813     -58.904891      682.22324    
    950000   294.72342      0.037658231    19.251447      731.21692     -62.000949      669.21597    
    951000   294.95546      0.037658231    10.953409      731.79262     -62.880719      668.9119     
    952000   300.71761      0.037658231    19.758451      746.08867     -59.469039      686.61964    
    953000   300.83213      0.037658231    20.383598      746.37282     -50.658774      695.71404    
    954000   296.99731      0.037658231    18.265332      736.8585      -56.370558      680.48795    
    955000   298.5426       0.037658231    18.41955       740.69241     -59.498106      681.1943     
    956000   299.80808      0.037658231    18.912434      743.8321      -55.704424      688.12767    
    957000   282.64168      0.037658231    14.546018      701.24179     -60.081911      641.15988    
    958000   295.37661      0.037658231    17.534301      732.83752     -63.577102      669.26042    
    959000   306.29495      0.037658231    16.492252      759.92621     -57.520845      702.40537    
    960000   296.67243      0.037658231    24.897337      736.05248     -63.956932      672.09555    
    961000   289.93659      0.037658231    8.0745346      719.34067     -57.986171      661.3545     
    962000   303.83104      0.037658231    18.85415       753.81319     -54.763328      699.04986    
    963000   294.33173      0.037658231    18.809293      730.24512     -61.986201      668.25892    
    964000   295.1302       0.037658231    21.849355      732.22616     -60.6348        671.59136    
    965000   308.28129      0.037658231    26.817366      764.85438     -58.679169      706.17521    
    966000   296.22922      0.037658231    23.964194      734.95285     -57.093553      677.8593     
    967000   304.33973      0.037658231    17.948007      755.07525     -58.887351      696.1879     
    968000   302.77416      0.037658231    15.658691      751.19104     -56.115866      695.07518    
    969000   295.97533      0.037658231    7.8070577      734.32294     -57.665114      676.65783    
    970000   302.53951      0.037658231    21.928868      750.60887     -52.473826      698.13504    
    971000   306.30319      0.037658231    22.784609      759.94667     -57.767776      702.17889    
    972000   298.68214      0.037658231    19.914382      741.03863     -56.551506      684.48713    
    973000   297.65724      0.037658231    17.869942      738.49583     -66.774352      671.72148    
    974000   314.43452      0.037658231    28.857603      780.12072     -64.801756      715.31897    
    975000   310.23378      0.037658231    13.749963      769.69855     -58.609398      711.08916    
    976000   302.90481      0.037658231    20.163858      751.51517     -58.612184      692.90299    
    977000   300.97345      0.037658231    21.509738      746.72343     -55.76751       690.95592    
    978000   298.0293       0.037658231    11.983108      739.41891     -59.048594      680.37032    
    979000   303.59017      0.037658231    18.580614      753.21559     -55.156828      698.05876    
    980000   309.60267      0.037658231    22.509597      768.13275     -60.466635      707.66611    
    981000   313.00103      0.037658231    20.245548      776.56419     -60.609307      715.95489    
    982000   288.23019      0.037658231    10.21296       715.10704     -63.433627      651.67341    
    983000   279.39535      0.037658231    21.969829      693.18757     -63.59621       629.59136    
    984000   317.55561      0.037658231    24.320287      787.86423     -60.682583      727.18164    
    985000   296.60052      0.037658231    15.779984      735.87408     -59.982528      675.89155    
    986000   291.64376      0.037658231    15.515318      723.57622     -58.205933      665.37028    
    987000   296.0552       0.037658231    17.725675      734.52112     -59.065104      675.45602    
    988000   294.61174      0.037658231    18.745777      730.93985     -69.968982      660.97086    
    989000   297.25762      0.037658231    22.760118      737.50436     -63.213112      674.29125    
    990000   303.05282      0.037658231    17.959678      751.8824      -68.856047      683.02635    
    991000   305.50526      0.037658231    18.529953      757.96698     -64.122246      693.84474    
    992000   290.95485      0.037658231    17.26776       721.86701     -64.469392      657.39762    
    993000   306.0173       0.037658231    15.958746      759.23735     -63.14777       696.08958    
    994000   323.59723      0.037658231    33.559964      802.85365     -66.236489      736.61716    
    995000   299.76116      0.037658231    54.57848       743.7157      -58.778879      684.93682    
    996000   290.83047      0.037658231    32.502451      721.55841     -59.207418      662.351      
    997000   295.01768      0.037658231    13.634679      731.947       -62.309536      669.63746    
    998000   306.92324      0.037658231    8.1065051      761.48502     -56.417585      705.06744    
    999000   297.32029      0.037658231    28.577239      737.65982     -61.977975      675.68185    
   1000000   295.79592      0.037658231    35.66587       733.87783     -61.460311      672.41752    
   1001000   307.0581       0.037658231    17.720656      761.81962     -64.317435      697.50219    
   1002000   308.53644      0.037658231   -15.408151      765.48741     -60.931006      704.5564     
   1003000   304.30601      0.037658231    29.11872       754.9916      -62.303705      692.68789    
   1004000   300.2156       0.037658231    33.226937      744.84318     -77.541919      667.30126    
   1005000   296.59615      0.037658231    7.792419       735.86323     -65.549045      670.31419    
   1006000   304.69064      0.037658231    16.55554       755.94588     -69.159823      686.78606    
   1007000   299.75471      0.037658231    43.045285      743.6997      -63.395608      680.30409    
   1008000   310.87017      0.037658231    54.012305      771.27746     -60.691309      710.58615    
   1009000   293.99463      0.037658231    33.13          729.40877     -57.028158      672.38061    
   1010000   291.76546      0.037658231    0.34911846     723.87816     -59.249233      664.62892    
   1011000   307.18188      0.037658231    29.403608      762.1267      -61.829708      700.29699    
   1012000   299.22032      0.037658231    31.975341      742.37386     -54.782861      687.591      
   1013000   284.37865      0.037658231    10.043007      705.55126     -50.539698      655.01157    
   1014000   290.96949      0.037658231    16.658467      721.90333     -60.642914      661.26042    
   1015000   311.9268       0.037658231    17.166465      773.899       -63.726685      710.17231    
   1016000   287.48859      0.037658231    24.908727      713.26712     -62.225875      651.04125    
   1017000   300.46588      0.037658231    16.035527      745.46413     -61.921448      683.54268    
   1018000   318.09329      0.037658231    5.9047472      789.19823     -58.66395       730.53428    
   1019000   300.00778      0.037658231    19.963687      744.32756     -60.440499      683.88706    
   1020000   300.58542      0.037658231    29.41855       745.76072     -53.902405      691.85832    
   1021000   304.68652      0.037658231    18.581715      755.93566     -58.01281       697.92285    
   1022000   296.3051       0.037658231    12.834357      735.14112     -66.905306      668.23581    
   1023000   296.76385      0.037658231    14.928554      736.27928     -66.6759        669.60338    
   1024000   301.12057      0.037658231    28.764181      747.08844     -64.542744      682.54569    
   1025000   302.26267      0.037658231    17.287417      749.92201     -62.102127      687.81988    
   1026000   298.10223      0.037658231    15.307881      739.59984     -62.720763      676.87908    
   1027000   296.98111      0.037658231    26.664535      736.81831     -61.158923      675.65939    
   1028000   298.74792      0.037658231    17.138581      741.20183     -59.636274      681.56556    
   1029000   312.59675      0.037658231    23.55452       775.56116     -58.731379      716.82979    
   1030000   305.78587      0.037658231    18.800471      758.66317     -62.922051      695.74112    
   1031000   293.81085      0.037658231    18.073188      728.95281     -70.405688      658.54712    
   1032000   296.21946      0.037658231    12.842104      734.92865     -75.220126      659.70853    
   1033000   299.90681      0.037658231    20.028444      744.07705     -63.729748      680.34731    
   1034000   302.16119      0.037658231    18.678648      749.67023     -72.186246      677.48399    
   1035000   292.93436      0.037658231    20.302604      726.77822     -67.466948      659.31127    
   1036000   298.78579      0.037658231    18.322849      741.29579     -68.38863       672.90716    
   1037000   303.90376      0.037658231    21.655849      753.99361     -58.564213      695.4294     
   1038000   298.16024      0.037658231    17.577036      739.74378     -66.612028      673.13176    
   1039000   297.91917      0.037658231    11.524289      739.14568     -65.619277      673.52641    
   1040000   304.65647      0.037658231    19.068881      755.86109     -68.056615      687.80448    
   1041000   290.89414      0.037658231    22.442331      721.71638     -60.982047      660.73434    
   1042000   295.0452       0.037658231    19.837393      732.01527     -59.300462      672.7148     
   1043000   298.91431      0.037658231    17.399505      741.61465     -54.094864      687.51979    
   1044000   300.09016      0.037658231    18.984504      744.53196     -62.449066      682.08289    
   1045000   300.8027       0.037658231    16.954716      746.2998      -59.682773      686.61702    
   1046000   297.48278      0.037658231    21.689789      738.06297     -63.018978      675.04399    
   1047000   315.33685      0.037658231    17.728029      782.35941     -65.061857      717.29755    
   1048000   299.72463      0.037658231    18.300145      743.62506     -60.271305      683.35375    
   1049000   297.04176      0.037658231    21.030828      736.9688      -65.768259      671.20054    
   1050000   320.43553      0.037658231    21.809355      795.00939     -66.019225      728.99017    
   1051000   294.27081      0.037658231    14.403597      730.09398     -62.745091      667.34889    
   1052000   297.22669      0.037658231    18.578902      737.4276      -67.607827      669.81977    
   1053000   297.34555      0.037658231    20.303307      737.7225      -67.039718      670.68278    
   1054000   308.59896      0.037658231    20.089921      765.64253     -60.526335      705.11619    
   1055000   296.83567      0.037658231    18.450772      736.45749     -73.308586      663.14891    
   1056000   292.65007      0.037658231    17.921962      726.07288     -74.640568      651.43231    
   1057000   295.86456      0.037658231    27.743781      734.04812     -73.339275      660.70884    
   1058000   300.33309      0.037658231    17.684338      745.13467     -70.62348       674.51119    
   1059000   303.70069      0.037658231    19.486475      753.48979     -73.121743      680.36805    
   1060000   305.30916      0.037658231    31.02893       757.48044     -67.420155      690.06029    
   1061000   295.92801      0.037658231    20.110103      734.20556     -63.615458      670.5901     
   1062000   286.55721      0.037658231    13.831468      710.95634     -62.222105      648.73423    
   1063000   303.85951      0.037658231    22.377424      753.88381     -62.9047        690.97911    
   1064000   319.74415      0.037658231    22.87223       793.29405     -65.454649      727.8394     
   1065000   296.35384      0.037658231    3.3247432      735.26205     -62.417551      672.8445     
   1066000   283.64809      0.037658231    11.577133      703.73872     -63.263843      640.47488    
   1067000   297.31048      0.037658231    18.576971      737.63549     -65.270868      672.36462    
   1068000   310.88895      0.037658231    23.471256      771.32406     -69.067083      702.25698    
   1069000   310.18859      0.037658231    4.6121629      769.58643     -57.166196      712.42024    
   1070000   293.72312      0.037658231    11.570885      728.73515     -61.334259      667.4009     
   1071000   280.22789      0.037658231    26.830156      695.25312     -60.417559      634.83556    
   1072000   306.30369      0.037658231    27.600434      759.94791     -57.044554      702.90335    
   1073000   313.19481      0.037658231    19.888412      777.04496     -62.755442      714.28952    
   1074000   321.38422      0.037658231    20.208037      797.36311     -63.472957      733.89015    
   1075000   298.41345      0.037658231    12.268718      740.37199     -61.575986      678.796      
   1076000   286.35341      0.037658231    16.47028       710.45072     -64.814804      645.63591    
   1077000   297.81027      0.037658231    18.349003      738.87548     -60.715444      678.16004    
   1078000   302.82356      0.037658231    23.297148      751.31359     -63.590008      687.72359    
   1079000   309.83545      0.037658231    23.065183      768.71028     -60.964761      707.74552    
   1080000   301.37837      0.037658231    16.137446      747.72805     -57.166157      690.5619     
   1081000   313.83829      0.037658231    35.436616      778.64144     -60.880314      717.76112    
   1082000   292.07496      0.037658231    14.005809      724.64604     -58.290331      666.35571    
   1083000   293.63182      0.037658231    23.200334      728.50865     -64.28165       664.22699    
   1084000   314.56417      0.037658231    29.834927      780.44237     -67.752989      712.68938    
   1085000   304.21368      0.037658231    9.8054651      754.76252     -64.731886      690.03063    
   1086000   291.06996      0.037658231    18.792849      722.1526      -63.050091      659.10251    
   1087000   312.44731      0.037658231    25.957288      775.19038     -65.41004       709.78034    
   1088000   326.4986       0.037658231    22.69487       810.05202     -62.521353      747.53066    
   1089000   293.14673      0.037658231    17.900276      727.30513     -61.586519      665.71861    
   1090000   292.08284      0.037658231    26.491714      724.66558     -59.75925       664.90633    
   1091000   319.68825      0.037658231    18.670938      793.15536     -58.886398      734.26896    
   1092000   304.78613      0.037658231    18.847452      756.18279     -54.372649      701.81014    
   1093000   296.13447      0.037658231    17.957769      734.71779     -59.073099      675.64469    
   1094000   293.47982      0.037658231    19.178688      728.13154     -61.816094      666.31544    
   1095000   285.43008      0.037658231    16.431445      708.15989     -64.332904      643.82698    
   1096000   313.52587      0.037658231    22.551603      777.86632     -59.681596      718.18473    
   1097000   319.12305      0.037658231    23.04758       791.75309     -62.335382      729.41771    
   1098000   295.81461      0.037658231    17.82489       733.92419     -60.487353      673.43684    
   1099000   287.8037       0.037658231    21.962395      714.04892     -54.030254      660.01867    
   1100000   311.91905      0.037658231    29.774313      773.87975     -55.279343      718.60041    
   1101000   301.68757      0.037658231    20.205294      748.49518     -52.408199      696.08698    
   1102000   291.86211      0.037658231    19.805927      724.11793     -48.842732      675.2752     
   1103000   299.67654      0.037658231    14.380723      743.50576     -50.958265      692.5475     
   1104000   310.39395      0.037658231    19.251636      770.09596     -54.45725       715.63871    
   1105000   301.05707      0.037658231    20.077098      746.9309      -56.513864      690.41704    
   1106000   290.47762      0.037658231    20.370829      720.68299     -56.170439      664.51255    
   1107000   296.88534      0.037658231    18.059801      736.58072     -50.026629      686.55409    
   1108000   303.14014      0.037658231    17.078264      752.09903     -51.146402      700.95263    
   1109000   311.93048      0.037658231    24.980922      773.90812     -48.182797      725.72532    
   1110000   298.77873      0.037658231    18.928276      741.27826     -51.368318      689.90995    
   1111000   302.24988      0.037658231    20.281186      749.89028     -52.747531      697.14275    
   1112000   293.80071      0.037658231    16.111184      728.92765     -59.231301      669.69635    
   1113000   309.72921      0.037658231    23.283851      768.44672     -63.453729      704.99299    
   1114000   313.40127      0.037658231    17.821654      777.55719     -62.772364      714.78482    
   1115000   297.54107      0.037658231    12.193909      738.20761     -70.114583      668.09302    
   1116000   286.45641      0.037658231    28.388838      710.70624     -62.453351      648.25289    
   1117000   300.69918      0.037658231    26.529366      746.04295     -58.997913      687.04503    
   1118000   309.58906      0.037658231    8.222774       768.099       -56.754382      711.34462    
   1119000   298.48225      0.037658231    20.761465      740.54269     -59.258417      681.28427    
   1120000   302.89546      0.037658231    39.731113      751.49199     -57.002378      694.48961    
   1121000   308.50892      0.037658231    22.07275       765.41914     -54.299774      711.11937    
   1122000   314.17071      0.037658231    17.847291      779.46619     -58.763019      720.70317    
   1123000   306.20336      0.037658231    15.67044       759.69898     -58.889278      700.8097     
   1124000   297.98401      0.037658231    14.340925      739.30655     -60.977173      678.32937    
   1125000   297.76051      0.037658231    19.378442      738.75204     -60.642139      678.1099     
   1126000   306.96046      0.037658231    22.878097      761.57736     -59.447482      702.12988    
   1127000   306.34802      0.037658231    28.124899      760.05788     -62.062785      697.99509    
   1128000   305.75947      0.037658231    14.381733      758.59767     -65.654427      692.94324    
   1129000   309.17717      0.037658231    12.182222      767.07707     -66.196318      700.88075    
   1130000   287.97222      0.037658231    13.027873      714.46702     -67.047905      647.41912    
   1131000   299.15228      0.037658231    24.699607      742.20505     -60.565309      681.63974    
   1132000   316.92569      0.037658231    23.410193      786.30138     -59.120967      727.18041    
   1133000   312.84478      0.037658231    19.330353      776.17652     -58.785408      717.39111    
   1134000   297.98126      0.037658231    17.249217      739.29972     -61.927917      677.3718     
   1135000   289.29951      0.037658231    18.380833      717.76005     -65.45498       652.30507    
   1136000   296.14905      0.037658231    20.297099      734.75396     -64.553088      670.20087    
   1137000   319.05217      0.037658231    20.902515      791.57722     -71.193315      720.3839     
   1138000   295.52129      0.037658231    15.252439      733.19646     -71.651832      661.54463    
   1139000   292.53851      0.037658231    23.832234      725.79611     -71.644977      654.15114    
   1140000   308.96171      0.037658231    22.493523      766.54252     -66.745155      699.79736    
   1141000   301.14813      0.037658231    10.24283       747.15682     -65.039594      682.11723    
   1142000   291.02767      0.037658231    17.709975      722.04766     -67.074497      654.97317    
   1143000   296.6186       0.037658231    18.579176      735.91892     -69.8777        666.04122    
   1144000   299.57593      0.037658231    23.189582      743.25615     -67.286194      675.96995    
   1145000   312.40545      0.037658231    23.226355      775.08654     -66.412472      708.67407    
   1146000   300.32463      0.037658231    16.429594      745.11369     -65.46087       679.65282    
   1147000   294.72299      0.037658231    17.228482      731.21585     -62.60026       668.61559    
   1148000   298.39503      0.037658231    19.6888        740.3263      -60.211901      680.1144     
   1149000   313.35529      0.037658231    21.213101      777.4431      -54.642311      722.80079    
   1150000   285.95964      0.037658231    21.600777      709.47374     -52.331718      657.14202    
   1151000   295.80929      0.037658231    18.069022      733.911       -51.099575      682.81142    
   1152000   319.09001      0.037658231    20.346655      791.67111     -56.85527       734.81584    
   1153000   306.35422      0.037658231    31.625398      760.07326     -65.231157      694.8421     
   1154000   291.47047      0.037658231    37.098613      723.14627     -67.623786      655.52248    
   1155000   285.03276      0.037658231    20.000394      707.17413     -74.169192      633.00494    
   1156000   318.21151      0.037658231    11.779869      789.49153     -71.140791      718.35074    
   1157000   299.783        0.037658231    26.210241      743.7699      -64.002839      679.76706    
   1158000   288.32191      0.037658231    15.117414      715.3346      -65.07436       650.26024    
   1159000   317.79118      0.037658231    16.632309      788.44868     -63.219346      725.22933    
   1160000   297.51212      0.037658231    27.361131      738.13577     -59.624261      678.51151    
   1161000   298.18863      0.037658231    10.369681      739.81421     -64.357962      675.45625    
   1162000   296.76762      0.037658231    2.2951794      736.28865     -58.755133      677.53352    
   1163000   301.12403      0.037658231    23.585624      747.09703     -63.502396      683.59463    
   1164000   298.41278      0.037658231    26.45265       740.37034     -68.787629      671.58271    
   1165000   294.16981      0.037658231    4.8300244      729.84341     -57.818458      672.02495    
   1166000   298.64195      0.037658231    14.257833      740.93891     -57.661841      683.27707    
   1167000   311.32026      0.037658231    39.394628      772.39415     -56.980665      715.41348    
   1168000   293.66472      0.037658231    20.23731       728.59025     -64.083337      664.50692    
   1169000   296.36528      0.037658231    6.730649       735.29043     -55.979729      679.3107     
   1170000   290.24628      0.037658231    18.692292      720.10901     -53.374174      666.73484    
   1171000   303.34702      0.037658231    27.124958      752.61233     -59.555481      693.05685    
   1172000   309.38018      0.037658231    23.092328      767.58075     -60.800995      706.77975    
   1173000   288.72061      0.037658231    19.282017      716.3238      -59.618348      656.70545    
   1174000   286.16592      0.037658231    4.7919289      709.98553     -55.873225      654.1123     
   1175000   294.39763      0.037658231    7.9154557      730.40864     -55.648112      674.76052    
   1176000   314.12748      0.037658231    45.16782       779.35895     -60.133464      719.22548    
   1177000   306.96286      0.037658231    24.229142      761.5833      -52.516528      709.06678    
   1178000   295.57763      0.037658231    18.949131      733.33625     -59.111946      674.2243     
   1179000   296.4416       0.037658231    16.436108      735.47979     -62.262732      673.21706    
   1180000   307.12646      0.037658231    23.13216       761.98921     -64.536249      697.45296    
   1181000   303.64939      0.037658231    10.424522      753.36252     -61.088591      692.27393    
   1182000   300.63519      0.037658231    33.805416      745.88421     -71.681284      674.20292    
   1183000   291.29505      0.037658231    15.329285      722.71104     -71.377155      651.33389    
   1184000   300.05804      0.037658231    14.355316      744.45228     -69.654471      674.79781    
   1185000   322.45357      0.037658231    27.384609      800.01621     -72.363038      727.65317    
   1186000   311.92502      0.037658231    34.787073      773.89457     -74.680974      699.21359    
   1187000   292.72339      0.037658231    17.747143      726.25481     -75.905143      650.34967    
   1188000   300.4123       0.037658231    19.871873      745.33119     -69.826596      675.50459    
   1189000   316.38188      0.037658231    19.959661      784.95216     -67.831523      717.12064    
   1190000   294.69312      0.037658231    17.877381      731.14176     -65.349572      665.79219    
   1191000   299.44278      0.037658231    18.390424      742.92579     -59.22457       683.70122    
   1192000   300.11321      0.037658231    14.913367      744.58914     -58.847944      685.7412     
   1193000   311.42311      0.037658231    18.381177      772.64931     -68.064199      704.58511    
   1194000   296.90469      0.037658231    22.925685      736.62872     -63.73157       672.89715    
   1195000   294.08911      0.037658231    18.401896      729.64318     -69.944114      659.69906    
   1196000   307.15444      0.037658231    23.645557      762.05863     -66.540101      695.51853    
   1197000   310.89378      0.037658231    19.904641      771.33603     -70.589745      700.74629    
   1198000   293.49761      0.037658231    17.933613      728.17567     -68.048816      660.12685    
   1199000   306.06701      0.037658231    19.122536      759.36068     -65.694317      693.66636    
   1200000   300.12729      0.037658231    20.424058      744.62407     -63.423117      681.20095    
   1201000   303.17563      0.037658231    21.30991       752.18709     -68.142413      684.04467    
   1202000   297.40735      0.037658231    14.976738      737.87585     -72.437296      665.43855    
   1203000   300.0173       0.037658231    20.723372      744.35119     -74.016348      670.33485    
   1204000   307.12862      0.037658231    17.650691      761.99458     -66.623326      695.37125    
   1205000   297.97403      0.037658231    18.302968      739.28178     -69.403143      669.87864    
   1206000   299.30544      0.037658231    16.977276      742.58504     -69.83109       672.75396    
   1207000   304.6874       0.037658231    22.836403      755.93783     -59.937284      696.00054    
   1208000   305.46942      0.037658231    20.310397      757.87805     -64.545639      693.33241    
   1209000   300.02708      0.037658231    18.031783      744.37545     -62.111447      682.264      
   1210000   301.72274      0.037658231    19.497304      748.58244     -61.764986      686.81745    
   1211000   290.00175      0.037658231    16.954886      719.50233     -62.662738      656.83959    
   1212000   288.41432      0.037658231    22.344291      715.56388     -57.856385      657.7075     
   1213000   303.69098      0.037658231    19.431627      753.46569     -61.072144      692.39355    
   1214000   304.71473      0.037658231    21.23472       756.00565     -59.063253      696.9424     
   1215000   296.16236      0.037658231    9.6483011      734.78698     -65.322923      669.46405    
   1216000   296.632        0.037658231    24.725222      735.95216     -64.402983      671.54918    
   1217000   306.52023      0.037658231    17.964735      760.48515     -66.398355      694.0868     
   1218000   284.4373       0.037658231    11.526879      705.69678     -63.180142      642.51664    
   1219000   295.20299      0.037658231    23.244019      732.40675     -57.976368      674.43038    
   1220000   315.32338      0.037658231    14.73493       782.32599     -65.154229      717.17176    
   1221000   304.91124      0.037658231    16.346874      756.4932      -66.941984      689.55121    
   1222000   295.75265      0.037658231    17.382985      733.77047     -61.9087        671.86177    
   1223000   302.65621      0.037658231    11.850839      750.8984      -60.031042      690.86736    
   1224000   304.17178      0.037658231    19.975674      754.65856     -67.728653      686.92991    
   1225000   314.05647      0.037658231    17.946085      779.18277     -62.198578      716.98419    
   1226000   292.57975      0.037658231    13.558574      725.89842     -64.529591      661.36883    
   1227000   295.22768      0.037658231    11.93324       732.46801     -60.721533      671.74647    
   1228000   300.10985      0.037658231    27.034011      744.58082     -69.853965      674.72685    
   1229000   322.5673       0.037658231    21.645164      800.29836     -62.822544      737.47582    
   1230000   299.57658      0.037658231    17.255118      743.25775     -59.979879      683.27787    
   1231000   276.96272      0.037658231    12.405146      687.15213     -69.37873       617.7734     
   1232000   306.17933      0.037658231    17.556502      759.63935     -59.3223        700.31705    
   1233000   301.74658      0.037658231    20.616161      748.64159     -65.55535       683.08624    
   1234000   290.73         0.037658231    12.470798      721.30914     -67.877162      653.43198    
   1235000   303.91914      0.037658231    20.489572      754.03177     -66.795681      687.23609    
   1236000   306.79313      0.037658231    20.059978      761.16221     -71.452548      689.70966    
   1237000   299.00795      0.037658231    17.303777      741.84696     -67.078678      674.76829    
   1238000   291.44899      0.037658231    20.370659      723.09298     -62.85741       660.23557    
   1239000   308.43454      0.037658231    20.384615      765.23459     -67.016269      698.21832    
   1240000   303.73015      0.037658231    20.632933      753.56289     -65.637492      687.92539    
   1241000   283.43982      0.037658231    16.837052      703.22201     -67.731966      635.49004    
   1242000   301.93771      0.037658231    14.81739       749.11577     -69.109749      680.00602    
   1243000   307.45838      0.037658231    16.564522      762.81271     -62.73277       700.07994    
   1244000   304.29104      0.037658231    20.682864      754.95445     -62.264596      692.68985    
   1245000   294.62061      0.037658231    21.0167        730.96185     -54.414342      676.54751    
   1246000   299.30703      0.037658231    21.704121      742.58898     -56.099076      686.48991    
   1247000   307.52248      0.037658231    21.706195      762.97175     -54.560286      708.41146    
   1248000   307.01807      0.037658231    16.37984       761.7203      -54.82593       706.89437    
   1249000   292.37739      0.037658231    18.305514      725.39636     -59.313702      666.08266    
   1250000   301.57759      0.037658231    18.520154      748.22233     -60.976043      687.24628    
   1251000   314.71254      0.037658231    20.273982      780.81049     -55.745953      725.06453    
   1252000   307.39663      0.037658231    18.66582       762.6595      -59.763006      702.8965     
   1253000   294.4623       0.037658231    21.417107      730.56908     -63.078567      667.49051    
   1254000   307.81174      0.037658231    23.441872      763.68942     -58.722876      704.96654    
   1255000   300.67562      0.037658231    18.837997      745.9845      -58.856481      687.12802    
   1256000   288.69485      0.037658231    20.322683      716.25987     -54.873298      661.38658    
   1257000   306.72268      0.037658231    21.595833      760.98741     -59.352878      701.63453    
   1258000   302.04232      0.037658231    21.075918      749.37532     -58.561773      690.81355    
   1259000   301.53362      0.037658231    21.373097      748.11322     -63.197726      684.91549    
   1260000   288.81605      0.037658231    18.713117      716.56058     -59.77237       656.78821    
   1261000   309.34631      0.037658231    18.469022      767.49671     -63.054099      704.44262    
   1262000   294.02434      0.037658231    21.263863      729.4825      -63.33576       666.14674    
   1263000   290.33574      0.037658231    18.428231      720.33098     -65.71293       654.61805    
   1264000   307.81837      0.037658231    23.550463      763.70585     -66.90304       696.80281    
   1265000   309.00457      0.037658231    18.388386      766.64887     -70.348455      696.30041    
   1266000   298.33212      0.037658231    12.52928       740.17021     -65.820007      674.3502     
   1267000   273.05506      0.037658231    16.083032      677.45714     -72.629432      604.82771    
   1268000   292.49765      0.037658231    16.416859      725.69474     -65.735195      659.95954    
   1269000   308.95404      0.037658231    17.975536      766.52348     -64.107768      702.41572    
   1270000   319.37496      0.037658231    18.067552      792.37808     -66.087481      726.2906     
   1271000   301.09391      0.037658231    18.029266      747.0223      -63.940526      683.08177    
   1272000   296.75939      0.037658231    17.451478      736.26822     -66.404891      669.86333    
   1273000   308.8599       0.037658231    26.129054      766.28992     -61.633201      704.65672    
   1274000   309.15465      0.037658231    5.6709908      767.02122     -60.198039      706.82318    
   1275000   283.56744      0.037658231    36.05948       703.53862     -64.814656      638.72397    
   1276000   302.23023      0.037658231    20.706806      749.84154     -66.465229      683.37631    
   1277000   301.54831      0.037658231    18.561068      748.14968     -69.092005      679.05767    
   1278000   290.72133      0.037658231    19.192028      721.28764     -68.865262      652.42238    
   1279000   295.94235      0.037658231    35.343114      734.24114     -62.903803      671.33733    
   1280000   305.82178      0.037658231    17.665867      758.75226     -61.694714      697.05754    
   1281000   308.15189      0.037658231    23.426284      764.53334     -55.172735      709.36061    
   1282000   288.87955      0.037658231    3.5878139      716.71813     -57.345918      659.37222    
   1283000   298.13085      0.037658231    23.72296       739.67086     -67.836316      671.83455    
   1284000   308.84577      0.037658231    21.331224      766.25487     -68.131019      698.12385    
   1285000   301.47632      0.037658231    1.408213       747.97105     -62.47585       685.4952     
   1286000   291.40776      0.037658231    17.936588      722.99069     -61.888524      661.10216    
   1287000   295.91352      0.037658231    22.653827      734.1696      -68.224152      665.94545    
   1288000   296.21713      0.037658231    25.841697      734.92286     -72.337452      662.5854     
   1289000   314.63162      0.037658231    16.220141      780.60973     -66.19923       714.4105     
   1290000   295.28814      0.037658231    19.902684      732.61802     -56.752867      675.86516    
   1291000   295.51674      0.037658231    23.40908       733.18517     -57.260979      675.92419    
   1292000   317.72943      0.037658231    25.669758      788.29549     -56.008278      732.28721    
   1293000   300.74768      0.037658231    14.670639      746.16328     -58.640799      687.52248    
   1294000   285.27343      0.037658231    8.9173274      707.77125     -63.986799      643.78445    
   1295000   297.97912      0.037658231    21.133923      739.2944      -59.898314      679.39609    
   1296000   310.05621      0.037658231    10.903615      769.258       -58.813081      710.44492    
   1297000   307.82232      0.037658231    8.9055283      763.71567     -57.659449      706.05622    
   1298000   285.20575      0.037658231    17.57195       707.60332     -57.387463      650.21586    
   1299000   307.08262      0.037658231    24.802138      761.88046     -49.586343      712.29411    
   1300000   321.35512      0.037658231    18.859984      797.29092     -50.79285       746.49807    
   1301000   297.00058      0.037658231    18.546007      736.86661     -50.397792      686.46882    
   1302000   300.51269      0.037658231    18.644395      745.58026     -51.228288      694.35197    
   1303000   305.90936      0.037658231    14.924303      758.96955     -48.256839      710.71271    
   1304000   305.07543      0.037658231    19.907418      756.90055     -52.271753      704.62879    
   1305000   307.72635      0.037658231    18.652784      763.47757     -57.882592      705.59498    
   1306000   300.9765       0.037658231    19.525331      746.73099     -54.432586      692.2984     
   1307000   292.77583      0.037658231    20.14793       726.38491     -59.557656      666.82725    
   1308000   292.15561      0.037658231    21.19237       724.84613     -54.268849      670.57728    
   1309000   310.05707      0.037658231    21.133019      769.26014     -58.257862      711.00228    
   1310000   302.6269       0.037658231    16.840683      750.82569     -59.01504       691.81065    
   1311000   294.53809      0.037658231    18.88115       730.75712     -64.047765      666.70936    
   1312000   303.23662      0.037658231    12.529706      752.33841     -59.692699      692.64571    
   1313000   307.60463      0.037658231    25.061318      763.17557     -58.525221      704.65035    
   1314000   297.47022      0.037658231    16.38599       738.03181     -60.080405      677.95141    
   1315000   302.28304      0.037658231    21.564395      749.97255     -60.080013      689.89254    
   1316000   309.10377      0.037658231    19.429497      766.89497     -65.253247      701.64173    
   1317000   297.49213      0.037658231    22.121101      738.08617     -58.063464      680.02271    
   1318000   295.27997      0.037658231    14.719174      732.59774     -56.302177      676.29556    
   1319000   301.06743      0.037658231    13.442828      746.95659     -51.250329      695.70626    
   1320000   290.83018      0.037658231    24.939505      721.55769     -52.193151      669.36454    
   1321000   296.97168      0.037658231    18.508982      736.79492     -57.211588      679.58334    
   1322000   309.3813       0.037658231    19.589781      767.58354     -54.731442      712.8521     
   1323000   289.93565      0.037658231    20.002976      719.33834     -61.815057      657.52328    
   1324000   304.82465      0.037658231    16.063392      756.27837     -58.260006      698.01836    
   1325000   304.98045      0.037658231    18.217897      756.66489     -52.001238      704.66365    
   1326000   292.87468      0.037658231    18.071734      726.63015     -60.756762      665.87339    
   1327000   300.96715      0.037658231    25.523581      746.70779     -55.73665       690.97114    
   1328000   294.74536      0.037658231    21.610545      731.27136     -58.565981      672.70538    
   1329000   291.1574       0.037658231    16.869032      722.36952     -56.640387      665.72914    
   1330000   291.7252       0.037658231    16.83979       723.77827     -56.652465      667.12581    
   1331000   311.24405      0.037658231    20.069764      772.20507     -57.330553      714.87452    
   1332000   316.29898      0.037658231    21.367108      784.74649     -62.63652       722.10997    
   1333000   296.13197      0.037658231    16.458551      734.71158     -60.090513      674.62107    
   1334000   288.16393      0.037658231    20.13251       714.94265     -61.118198      653.82446    
   1335000   314.3896       0.037658231    21.834504      780.00927     -62.568854      717.44042    
   1336000   306.2469       0.037658231    18.922833      759.80701     -56.801542      703.00547    
   1337000   292.23515      0.037658231    16.200415      725.04346     -62.390988      662.65247    
   1338000   295.17553      0.037658231    19.397521      732.33863     -56.998331      675.3403     
   1339000   324.40311      0.037658231    17.845354      804.85306     -59.138314      745.71474    
   1340000   303.36337      0.037658231    24.065084      752.65289     -65.886671      686.76622    
   1341000   298.74968      0.037658231    20.46286       741.20619     -59.804446      681.40174    
   1342000   291.64708      0.037658231    10.476076      723.58445     -52.822665      670.76178    
   1343000   308.20152      0.037658231    18.439028      764.65648     -59.090267      705.56621    
   1344000   306.61761      0.037658231    23.255109      760.72674     -55.424366      705.30237    
   1345000   285.60251      0.037658231    19.160891      708.58771     -54.665244      653.92246    
   1346000   296.77423      0.037658231    16.195992      736.30505     -58.990011      677.31504    
   1347000   311.80299      0.037658231    22.209575      773.59182     -50.794432      722.79738    
   1348000   299.30868      0.037658231    16.575057      742.5931      -61.154675      681.43842    
   1349000   298.97817      0.037658231    17.864978      741.77309     -59.59459       682.1785     
   1350000   309.09651      0.037658231    21.959523      766.87697     -61.02889       705.84808    
   1351000   299.1318       0.037658231    17.295593      742.15423     -58.88884       683.26539    
   1352000   295.54895      0.037658231    21.283803      733.2651      -57.735174      675.52993    
   1353000   292.15939      0.037658231    22.88683       724.8555      -59.322284      665.53321    
   1354000   296.94789      0.037658231    22.806393      736.73589     -58.66253       678.07336    
   1355000   309.70103      0.037658231    20.030247      768.3768      -59.520687      708.85611    
   1356000   305.36894      0.037658231    14.026166      757.62875     -55.859342      701.76941    
   1357000   299.9661       0.037658231    22.858025      744.22416     -56.915001      687.30916    
   1358000   297.68035      0.037658231    19.062634      738.55314     -54.307796      684.24535    
   1359000   289.62488      0.037658231   -5.9666854      718.56732     -58.038139      660.52918    
   1360000   300.70294      0.037658231    22.756722      746.05227     -62.341371      683.7109     
   1361000   301.18276      0.037658231    23.63102       747.24273     -59.152974      688.08975    
   1362000   290.21073      0.037658231   -5.1029242      720.02081     -51.384067      668.63675    
   1363000   303.1323       0.037658231    21.020611      752.07959     -58.901932      693.17766    
   1364000   304.35335      0.037658231    31.672139      755.10906     -63.359814      691.74925    
   1365000   295.37723      0.037658231    18.754787      732.83905     -68.078741      664.76031    
   1366000   288.08564      0.037658231    11.428816      714.74841     -66.903751      647.84466    
   1367000   293.91339      0.037658231    22.962728      729.20723     -61.883951      667.32328    
   1368000   316.67269      0.037658231    18.45892       785.67367     -61.381076      724.29259    
   1369000   296.88167      0.037658231    10.869563      736.57161     -58.14233       678.42928    
   1370000   289.83782      0.037658231    15.212756      719.09562     -59.05456       660.04106    
   1371000   286.35715      0.037658231    13.976275      710.45997     -66.98122       643.47875    
   1372000   310.8593       0.037658231    23.024157      771.25049     -62.149257      709.10123    
   1373000   300.96317      0.037658231    7.8151592      746.69792     -63.564682      683.13324    
   1374000   281.12527      0.037658231    17.083849      697.47955     -61.47709       636.00246    
   1375000   295.13108      0.037658231    28.814296      732.22835     -66.472167      665.75618    
   1376000   310.80695      0.037658231    31.574814      771.12061     -66.523366      704.59724    
   1377000   300.81845      0.037658231    11.492993      746.33887     -66.250773      680.0881     
   1378000   287.32958      0.037658231    21.413313      712.87261     -63.799307      649.0733     
   1379000   297.03012      0.037658231    22.890022      736.93991     -68.437079      668.50283    
   1380000   299.87902      0.037658231    25.382485      744.00811     -64.587636      679.42047    
   1381000   318.34924      0.037658231    15.325693      789.83324     -56.411872      733.42136    
   1382000   297.43915      0.037658231    14.804735      737.95473     -54.925366      683.02936    
   1383000   291.86024      0.037658231    31.078377      724.11331     -53.483377      670.62994    
   1384000   309.56981      0.037658231    45.521472      768.05122     -52.372631      715.67859    
   1385000   305.6136       0.037658231    7.019422       758.23577     -47.658032      710.57774    
   1386000   309.48161      0.037658231    2.8174253      767.83241     -47.684219      720.14819    
   1387000   290.96366      0.037658231    19.943095      721.88885     -47.289168      674.59968    
   1388000   304.34546      0.037658231    28.184038      755.08948     -51.043799      704.04568    
   1389000   308.72836      0.037658231    18.4696        765.96358     -59.97284       705.99074    
   1390000   293.37221      0.037658231    13.397156      727.86455     -61.651858      666.21269    
   1391000   309.57271      0.037658231    20.940694      768.05842     -57.389079      710.66934    
   1392000   310.90326      0.037658231    19.325968      771.35956     -62.251805      709.10775    
   1393000   293.44143      0.037658231    18.780886      728.03629     -54.675564      673.36072    
   1394000   306.47019      0.037658231    19.085892      760.36098     -59.202602      701.15838    
   1395000   303.22965      0.037658231    25.332905      752.32112     -61.558439      690.76268    
   1396000   301.51305      0.037658231    22.949792      748.0622      -62.070923      685.99127    
   1397000   302.46538      0.037658231    18.015941      750.42494     -58.120414      692.30452    
   1398000   309.53027      0.037658231    18.327824      767.95313     -56.486892      711.46624    
   1399000   289.5219       0.037658231    26.272509      718.31182     -61.338994      656.97283    
   1400000   301.22866      0.037658231    16.006718      747.3566      -61.78424       685.57236    
   1401000   320.36397      0.037658231    14.498524      794.83185     -62.089597      732.74225    
   1402000   300.08172      0.037658231    20.644837      744.51103     -59.445776      685.06525    
   1403000   302.65109      0.037658231    20.275297      750.88569     -57.592366      693.29332    
   1404000   295.64741      0.037658231    22.598507      733.50938     -56.439626      677.06975    
   1405000   285.02191      0.037658231    23.144047      707.14721     -61.579033      645.56818    
   1406000   297.71088      0.037658231    15.508393      738.62889     -60.405314      678.22357    
   1407000   306.90076      0.037658231    19.11186       761.42923     -66.551012      694.87822    
   1408000   306.50048      0.037658231    17.670622      760.43613     -61.957198      698.47893    
   1409000   296.86032      0.037658231    17.578212      736.51864     -58.789286      677.72936    
   1410000   292.6744       0.037658231    20.470688      726.13326     -47.861713      678.27154    
   1411000   300.0673       0.037658231    24.329109      744.47524     -49.143865      695.33138    
   1412000   302.85724      0.037658231    17.276         751.39716     -53.676587      697.72057    
   1413000   284.30369      0.037658231    19.966739      705.3653      -52.178935      653.18636    
   1414000   303.0658       0.037658231    18.35412       751.91461     -57.536369      694.37824    
   1415000   300.42972      0.037658231    15.979377      745.37441     -60.303364      685.07105    
   1416000   298.96156      0.037658231    21.957929      741.73188     -64.186947      677.54493    
   1417000   294.34855      0.037658231    20.620594      730.28686     -62.687045      667.59982    
   1418000   300.52421      0.037658231    19.012125      745.60885     -66.310772      679.29807    
   1419000   298.12108      0.037658231    18.034158      739.64662     -66.318252      673.32836    
   1420000   298.95956      0.037658231    17.883383      741.72691     -62.926497      678.80042    
   1421000   296.86622      0.037658231    23.560474      736.53327     -64.216241      672.31703    
   1422000   293.89693      0.037658231    18.253763      729.16638     -67.823021      661.34336    
   1423000   310.05304      0.037658231    14.362346      769.25014     -64.519254      704.73089    
   1424000   302.27026      0.037658231    20.842371      749.94085     -61.352788      688.58806    
   1425000   288.02084      0.037658231    14.888402      714.58765     -57.474076      657.11357    
   1426000   297.32001      0.037658231    18.352709      737.65914     -57.388776      680.27037    
   1427000   304.02384      0.037658231    22.344606      754.29152     -59.082661      695.20886    
   1428000   308.60014      0.037658231    20.64221       765.64545     -59.09434       706.55111    
   1429000   295.11923      0.037658231    14.858839      732.19895     -60.021703      672.17724    
   1430000   294.66395      0.037658231    19.110474      731.06937     -59.292484      671.77689    
   1431000   292.06739      0.037658231    21.013588      724.62724     -57.219287      667.40795    
   1432000   293.23025      0.037658231    18.394198      727.51232     -56.857265      670.65506    
   1433000   300.13316      0.037658231    20.930363      744.63865     -56.458052      688.1806     
   1434000   300.42923      0.037658231    20.696891      745.37321     -56.198124      689.17509    
   1435000   304.76565      0.037658231    9.6705941      756.13197     -52.732607      703.39936    
   1436000   297.58335      0.037658231    14.384069      738.31249     -55.921228      682.39127    
   1437000   292.84697      0.037658231    23.691243      726.56141     -57.133032      669.42838    
   1438000   297.591        0.037658231    19.045953      738.33146     -62.831967      675.4995     
   1439000   302.71231      0.037658231    18.457243      751.03758     -60.009791      691.02779    
   1440000   300.871        0.037658231    23.330614      746.46924     -58.345473      688.12377    
   1441000   293.53674      0.037658231    18.886487      728.27273     -59.300971      668.97176    
   1442000   303.9254       0.037658231    24.185209      754.04731     -56.519265      697.52804    
   1443000   282.83426      0.037658231    18.811736      701.71961     -67.982751      633.73686    
   1444000   300.31378      0.037658231    21.988803      745.08676     -60.206852      684.8799     
   1445000   310.78376      0.037658231    19.694468      771.06307     -64.649963      706.41311    
   1446000   299.86949      0.037658231    20.309919      743.98448     -60.336187      683.64829    
   1447000   284.92858      0.037658231    17.295977      706.91567     -56.236076      650.6796     
   1448000   302.11227      0.037658231    20.956765      749.54888     -58.360953      691.18792    
   1449000   317.56809      0.037658231    20.92951       787.89518     -59.351378      728.5438     
   1450000   294.87791      0.037658231    17.996767      731.60021     -63.385183      668.21503    
   1451000   294.20684      0.037658231    18.771704      729.93527     -60.839858      669.09542    
   1452000   303.79644      0.037658231    20.438497      753.72735     -63.44631       690.28104    
   1453000   304.089        0.037658231    17.62157       754.45319     -63.54741       690.90578    
   1454000   295.95637      0.037658231    18.794151      734.27591     -62.723097      671.55281    
   1455000   289.64886      0.037658231    15.475518      718.62681     -62.535855      656.09095    
   1456000   296.5128       0.037658231    16.562754      735.65642     -61.759741      673.89668    
   1457000   311.95134      0.037658231    27.188529      773.95988     -60.722025      713.23785    
   1458000   300.01482      0.037658231    18.089507      744.34504     -63.263804      681.08124    
   1459000   285.24981      0.037658231    15.470103      707.71264     -61.703877      646.00876    
   1460000   294.21704      0.037658231    22.356689      729.96058     -59.798084      670.16249    
   1461000   309.6361       0.037658231    21.793167      768.21569     -59.006643      709.20905    
   1462000   301.78792      0.037658231    15.552768      748.74414     -59.126523      689.61761    
   1463000   298.27604      0.037658231    18.201929      740.03108     -64.912842      675.11824    
   1464000   296.11068      0.037658231    23.48677       734.65876     -59.344762      675.314      
   1465000   302.88596      0.037658231    15.000958      751.46842     -54.237135      697.23128    
   1466000   290.42378      0.037658231    18.694159      720.5494      -60.869333      659.68007    
   1467000   301.30063      0.037658231    24.547474      747.53517     -57.368054      690.16711    
   1468000   303.88156      0.037658231    18.984005      753.93852     -59.712867      694.22565    
   1469000   299.57444      0.037658231    15.990419      743.25243     -59.386882      683.86555    
   1470000   292.07025      0.037658231    8.6335592      724.63435     -65.203841      659.43051    
   1471000   300.0623       0.037658231    21.28825       744.46283     -58.683618      685.77921    
   1472000   313.34864      0.037658231    22.355648      777.4266      -59.554763      717.87184    
   1473000   318.09704      0.037658231    24.256648      789.20752     -58.172618      731.0349     
   1474000   297.19053      0.037658231    16.649234      737.33788     -65.921626      671.41626    
   1475000   296.1279       0.037658231    22.301309      734.70148     -58.167605      676.53387    
   1476000   304.0319       0.037658231    20.673577      754.31152     -60.174664      694.13686    
   1477000   293.13096      0.037658231    14.620248      727.26598     -56.774019      670.49196    
   1478000   300.3559       0.037658231    17.361764      745.19126     -61.602181      683.58908    
   1479000   311.93851      0.037658231    24.02472       773.92804     -52.241703      721.68634    
   1480000   291.57418      0.037658231    19.516703      723.40357     -52.744124      670.65945    
   1481000   312.65625      0.037658231    11.771051      775.70877     -50.584017      725.12475    
   1482000   305.21454      0.037658231    20.429743      757.24568     -51.794766      705.45092    
   1483000   289.61924      0.037658231    20.179376      718.55331     -54.941493      663.61182    
   1484000   294.88056      0.037658231    17.526277      731.60681     -54.558425      677.04838    
   1485000   305.3508       0.037658231    21.299159      757.58374     -58.655693      698.92805    
   1486000   302.76417      0.037658231    22.032004      751.16625     -52.811261      698.35499    
   1487000   289.56815      0.037658231    4.5218889      718.42656     -58.621483      659.80508    
   1488000   306.12929      0.037658231    24.841018      759.5152      -58.909436      700.60577    
   1489000   307.1236       0.037658231    25.206337      761.98211     -62.236594      699.74552    
   1490000   303.99872      0.037658231    21.198049      754.22921     -58.059091      696.17012    
   1491000   297.33608      0.037658231    16.89958       737.69901     -57.501689      680.19732    
   1492000   304.26272      0.037658231    25.598247      754.88419     -64.940568      689.94362    
   1493000   298.97492      0.037658231    24.489095      741.76501     -65.084196      676.68081    
   1494000   296.18233      0.037658231    16.37446       734.83652     -66.381956      668.45456    
   1495000   298.88836      0.037658231    26.008645      741.55025     -63.915485      677.63477    
   1496000   294.85285      0.037658231    26.923853      731.53804     -57.703302      673.83474    
   1497000   302.37603      0.037658231    17.305921      750.20326     -61.224379      688.97889    
   1498000   300.23086      0.037658231    11.7097        744.88104     -61.92857       682.95247    
   1499000   298.28958      0.037658231    19.684786      740.06468     -61.45939       678.60529    
   1500000   304.932        0.037658231    17.421901      756.54469     -54.987907      701.55678    
   1501000   298.8743       0.037658231    12.1553        741.51536     -54.055747      687.45962    
   1502000   298.10533      0.037658231    18.5158        739.60754     -55.857676      683.74987    
   1503000   302.72715      0.037658231    26.153484      751.07441     -53.320109      697.7543     
   1504000   307.39726      0.037658231    17.865016      762.66108     -55.950885      706.71019    
   1505000   299.88376      0.037658231    19.431849      744.01987     -58.970542      685.04933    
   1506000   296.53924      0.037658231    18.685344      735.72203     -65.658209      670.06382    
   1507000   289.92288      0.037658231    15.04774       719.30665     -58.199064      661.10758    
   1508000   305.64578      0.037658231    18.746716      758.31562     -55.730415      702.5852     
   1509000   305.41824      0.037658231    24.684311      757.75107     -60.012623      697.73845    
   1510000   301.96131      0.037658231    21.969918      749.17434     -53.97327       695.20107    
   1511000   286.72897      0.037658231    16.404911      711.38249     -58.885888      652.4966     
   1512000   300.54602      0.037658231    18.06742       745.66296     -58.786831      686.87613    
   1513000   312.27857      0.037658231    20.171255      774.77173     -59.604855      715.16687    
   1514000   291.13735      0.037658231    29.166481      722.31979     -59.692081      662.62771    
   1515000   294.04823      0.037658231    17.369863      729.54176     -63.823353      665.7184     
   1516000   304.60575      0.037658231    18.531844      755.73526     -69.884571      685.85069    
   1517000   295.83603      0.037658231    21.384332      733.97735     -62.093974      671.88337    
   1518000   286.43267      0.037658231    18.237005      710.64735     -72.003431      638.64392    
   1519000   307.84577      0.037658231    27.309832      763.77384     -68.27365       695.50019    
   1520000   296.30145      0.037658231    14.48147       735.13207     -73.085686      662.04638    
   1521000   312.62533      0.037658231    19.180986      775.63205     -66.139586      709.49247    
   1522000   293.01014      0.037658231    20.874814      726.96624     -59.766704      667.19953    
   1523000   290.67406      0.037658231    17.580933      721.17036     -62.106353      659.064      
   1524000   300.1423       0.037658231    13.594307      744.66132     -64.369072      680.29224    
   1525000   318.58866      0.037658231    22.05631       790.42726     -63.047012      727.38025    
   1526000   289.44995      0.037658231    16.805259      718.1333      -69.996463      648.13684    
   1527000   291.22335      0.037658231    19.295314      722.53317     -68.840723      653.69245    
   1528000   303.43393      0.037658231    21.58582       752.82796     -68.012674      684.81528    
   1529000   311.07945      0.037658231    15.923004      771.79669     -63.803621      707.99307    
   1530000   297.68032      0.037658231    18.201149      738.55307     -60.566412      677.98666    
   1531000   284.7547       0.037658231    19.56996       706.48426     -63.390461      643.0938     
   1532000   307.99575      0.037658231    21.753912      764.14595     -60.164838      703.98112    
   1533000   316.2348       0.037658231    17.914808      784.58726     -63.417274      721.16999    
   1534000   287.08188      0.037658231    12.268429      712.25805     -57.988406      654.26964    
   1535000   287.89291      0.037658231    24.389397      714.27025     -56.884016      657.38623    
   1536000   316.96222      0.037658231    17.382583      786.392       -57.98946       728.40254    
   1537000   302.7715       0.037658231    17.673131      751.18443     -57.274867      693.90956    
   1538000   282.03639      0.037658231    21.024119      699.74007     -60.170458      639.56961    
   1539000   300.2082       0.037658231    14.405424      744.82482     -59.707772      685.11705    
   1540000   307.50442      0.037658231    18.254721      762.92693     -55.657956      707.26898    
   1541000   290.86443      0.037658231    22.196171      721.64267     -55.896926      665.74574    
   1542000   279.68924      0.037658231    20.015804      693.91671     -55.675409      638.2413     
   1543000   292.59228      0.037658231    19.002718      725.92951     -56.828604      669.10091    
   1544000   308.41853      0.037658231    9.1402561      765.19487     -59.938624      705.25625    
   1545000   303.77977      0.037658231    23.476614      753.68599     -52.469019      701.21697    
   1546000   275.24097      0.037658231    19.919181      682.88042     -56.219382      626.66104    
   1547000   300.20641      0.037658231    22.549407      744.82038     -63.686522      681.13386    
   1548000   310.32837      0.037658231    20.859843      769.93324     -63.731466      706.20177    
   1549000   285.87821      0.037658231    19.972896      709.27173     -65.297177      643.97455    
   1550000   302.74483      0.037658231    15.889446      751.11828     -69.839642      681.27863    
   1551000   308.76906      0.037658231    23.291513      766.06456     -67.952914      698.11165    
   1552000   299.00613      0.037658231    25.850719      741.84246     -61.895886      679.94658    
   1553000   290.46813      0.037658231    1.5983317      720.65944     -61.028507      659.63093    
   1554000   300.01127      0.037658231    17.329855      744.33623     -58.577911      685.75832    
   1555000   308.23975      0.037658231    20.812664      764.7513      -55.648386      709.10292    
   1556000   302.1606       0.037658231    18.002331      749.66878     -62.614232      687.05455    
   1557000   302.7315       0.037658231    22.81614       751.0852      -62.544165      688.54104    
   1558000   289.59494      0.037658231    24.49233       718.49303     -59.672054      658.82098    
   1559000   290.2309       0.037658231    17.568847      720.07086     -61.444249      658.62661    
   1560000   303.23593      0.037658231    5.4952747      752.33671     -63.082724      689.25398    
   1561000   304.8544       0.037658231    35.952415      756.35217     -61.936368      694.41581    
   1562000   304.64755      0.037658231    24.829658      755.83896     -56.546007      699.29295    
   1563000   299.72737      0.037658231    20.63756       743.63187     -56.243697      687.38817    
   1564000   306.02941      0.037658231    19.713729      759.2674      -54.369714      704.89769    
   1565000   305.58719      0.037658231    21.454495      758.17023     -55.759834      702.4104     
   1566000   291.13939      0.037658231    19.365347      722.32485     -60.505288      661.81956    
   1567000   309.24835      0.037658231    20.630394      767.25368     -56.258792      710.99489    
   1568000   303.82668      0.037658231    17.614247      753.80237     -58.304519      695.49785    
   1569000   295.28449      0.037658231    16.855262      732.60895     -56.942227      675.66673    
   1570000   290.47811      0.037658231    14.824353      720.6842      -60.50114       660.18306    
   1571000   299.22532      0.037658231    16.353535      742.38628     -58.97446       683.41182    
   1572000   305.92068      0.037658231    11.191461      758.99763     -60.032363      698.96527    
   1573000   314.45974      0.037658231    19.893352      780.18328     -55.759245      724.42404    
   1574000   298.35302      0.037658231    22.48265       740.22207     -61.040187      679.18189    
   1575000   293.40419      0.037658231    17.768799      727.94388     -60.839548      667.10433    
   1576000   304.82593      0.037658231    19.42956       756.28154     -58.022614      698.25892    
   1577000   312.85761      0.037658231    6.4062199      776.20836     -60.845361      715.363      
   1578000   295.80208      0.037658231    18.409493      733.89311     -60.733419      673.15969    
   1579000   305.19792      0.037658231    20.306912      757.20446     -62.663464      694.541      
   1580000   303.98917      0.037658231    19.485114      754.20552     -65.285583      688.91994    
   1581000   293.89214      0.037658231    15.492632      729.15449     -63.497643      665.65685    
   1582000   291.92824      0.037658231    18.268494      724.282       -56.563849      667.71815    
   1583000   280.24935      0.037658231    15.883195      695.30636     -63.434554      631.8718     
   1584000   310.04223      0.037658231    19.008175      769.22332     -67.174921      702.0484     
   1585000   305.51607      0.037658231    21.133879      757.9938      -66.647398      691.3464     
   1586000   299.64383      0.037658231    16.845596      743.42459     -67.512382      675.91221    
   1587000   296.87173      0.037658231    21.840517      736.54695     -61.249128      675.29782    
   1588000   296.511        0.037658231    19.197537      735.65196     -64.784789      670.86717    
   1589000   296.05455      0.037658231    14.858764      734.5195      -63.315387      671.20411    
   1590000   289.72318      0.037658231    38.330961      718.8112      -60.498731      658.31247    
   1591000   301.18938      0.037658231    22.080099      747.25916     -65.578413      681.68075    
   1592000   299.81825      0.037658231    23.752898      743.85735     -66.294376      677.56297    
   1593000   308.00652      0.037658231    17.454414      764.17268     -64.491233      699.68144    
   1594000   304.24355      0.037658231    16.336732      754.83663     -68.722284      686.11435    
   1595000   303.98678      0.037658231    15.359567      754.19958     -70.138645      684.06094    
   1596000   296.90481      0.037658231    16.110172      736.62901     -64.752142      671.87687    
   1597000   298.29112      0.037658231    16.332841      740.06848     -62.02835       678.04013    
   1598000   305.7977       0.037658231    17.012716      758.69252     -59.350302      699.34222    
   1599000   288.08677      0.037658231    22.063496      714.75123     -60.159668      654.59156    
   1600000   308.96012      0.037658231    30.844037      766.53857     -59.941799      706.59677    
   1601000   297.02183      0.037658231    18.755379      736.91935     -59.257971      677.66138    
   1602000   305.86435      0.037658231    8.2291121      758.85789     -59.394415      699.46348    
   1603000   304.14077      0.037658231    22.62131       754.58163     -64.269435      690.3122     
   1604000   282.57183      0.037658231    11.498797      701.06851     -72.879068      628.18944    
   1605000   296.46029      0.037658231    18.507119      735.52614     -63.036064      672.49008    
   1606000   309.72446      0.037658231    24.384222      768.43492     -59.397133      709.03778    
   1607000   303.95567      0.037658231    22.973943      754.12238     -65.476914      688.64547    
   1608000   295.75589      0.037658231    17.440168      733.77851     -59.634338      674.14417    
   1609000   306.28787      0.037658231    10.254851      759.90865     -60.692505      699.21614    
   1610000   306.75459      0.037658231    22.723525      761.0666      -58.230524      702.83608    
   1611000   301.37792      0.037658231    22.081449      747.72693     -59.511436      688.21549    
   1612000   295.516        0.037658231    18.684549      733.18334     -60.91949       672.26385    
   1613000   305.90156      0.037658231    23.677579      758.9502      -58.08685       700.86335    
   1614000   300.34524      0.037658231    14.712912      745.16482     -62.021927      683.14289    
   1615000   307.72197      0.037658231    17.081972      763.46669     -61.331069      702.13563    
   1616000   295.58831      0.037658231    20.735779      733.36273     -63.556828      669.80591    
   1617000   280.48038      0.037658231    19.953477      695.87955     -61.081042      634.79851    
   1618000   305.34962      0.037658231    17.575533      757.58082     -65.393803      692.18701    
   1619000   309.93292      0.037658231    15.443496      768.95211     -68.880318      700.07179    
   1620000   298.75472      0.037658231    19.931918      741.2187      -69.47183       671.74687    
   1621000   302.36296      0.037658231    12.986233      750.17083     -68.189748      681.98108    
   1622000   307.26076      0.037658231    12.330937      762.32241     -65.299499      697.02291    
   1623000   292.65888      0.037658231    25.256629      726.09475     -65.068322      661.02643    
   1624000   280.65679      0.037658231    16.969611      696.31724     -67.850251      628.46699    
   1625000   309.39116      0.037658231    23.489371      767.608       -65.176362      702.43164    
   1626000   298.78329      0.037658231    16.066863      741.28958     -60.602245      680.68733    
   1627000   292.35163      0.037658231    7.4875451      725.33244     -60.64916       664.68328    
   1628000   299.01861      0.037658231    21.189481      741.8734      -66.589584      675.28382    
   1629000   317.52902      0.037658231    23.614198      787.79824     -66.965471      720.83277    
   1630000   296.63305      0.037658231    18.963278      735.95477     -66.432266      669.5225     
   1631000   299.70383      0.037658231    19.459239      743.57346     -65.268553      678.30491    
   1632000   307.61566      0.037658231    21.524777      763.20293     -68.413658      694.78927    
   1633000   298.36367      0.037658231    25.70104       740.24849     -66.127339      674.12115    
   1634000   301.56673      0.037658231    20.329394      748.19537     -66.089709      682.10566    
   1635000   299.66111      0.037658231    13.772265      743.46747     -70.214336      673.25313    
   1636000   286.79705      0.037658231    6.8891337      711.55138     -67.354494      644.19689    
   1637000   305.38314      0.037658231    32.500919      757.66398     -68.784727      688.87925    
   1638000   298.34829      0.037658231   -1.0567314      740.21032     -73.089798      667.12052    
   1639000   282.92129      0.037658231    8.2158559      701.93552     -62.274359      639.66116    
   1640000   312.39866      0.037658231    22.26998       775.06967     -61.818358      713.25132    
   1641000   295.52         0.037658231    12.51941       733.19326     -57.681987      675.51127    
   1642000   291.15181      0.037658231    26.105494      722.35566     -54.089101      668.26656    
   1643000   293.69865      0.037658231    26.866457      728.67444     -57.602141      671.0723     
   1644000   303.12737      0.037658231    17.654438      752.06736     -53.97444       698.09292    
   1645000   304.2883       0.037658231    1.3018178      754.94766     -52.579601      702.36806    
   1646000   308.05914      0.037658231    24.554311      764.30322     -51.67657       712.62665    
   1647000   298.11909      0.037658231    28.956334      739.64167     -55.492696      684.14897    
   1648000   301.97275      0.037658231    18.254532      749.20273     -50.756564      698.44616    
   1649000   295.8228       0.037658231    1.2294621      733.94452     -52.582373      681.36215    
   1650000   296.46846      0.037658231    27.479395      735.54642     -56.309978      679.23644    
   1651000   313.60601      0.037658231    23.430507      778.06515     -59.251449      718.8137     
   1652000   297.23211      0.037658231    11.600275      737.44107     -52.746997      684.69407    
   1653000   308.71302      0.037658231    19.899827      765.92551     -48.88129       717.04422    
   1654000   298.60202      0.037658231    28.639593      740.83984     -53.777929      687.06191    
   1655000   300.57612      0.037658231    18.90229       745.73764     -49.666792      696.07084    
   1656000   300.29175      0.037658231    13.008815      745.03211     -55.026894      690.00521    
   1657000   297.22742      0.037658231    34.845139      737.42941     -54.03578       683.39363    
   1658000   294.88468      0.037658231    17.38301       731.61702     -54.327243      677.28978    
   1659000   293.9977       0.037658231    18.570029      729.41641     -60.98368       668.43273    
   1660000   308.66803      0.037658231    30.930784      765.81389     -50.079904      715.73398    
   1661000   311.71124      0.037658231    21.254307      773.36419     -48.754882      724.60931    
   1662000   303.15956      0.037658231    7.949677       752.14724     -50.284906      701.86233    
   1663000   282.55235      0.037658231    24.53143       701.02016     -45.402947      655.61722    
   1664000   300.08215      0.037658231    17.724774      744.51208     -51.078439      693.43365    
   1665000   294.10768      0.037658231    14.442047      729.68925     -53.559326      676.12992    
   1666000   303.30427      0.037658231    23.587153      752.50624     -54.823868      697.68238    
   1667000   294.01643      0.037658231    15.992291      729.46286     -60.281212      669.18165    
   1668000   288.72572      0.037658231    15.04597       716.33647     -59.093         657.24347    
   1669000   280.96647      0.037658231    16.380021      697.08555     -59.365691      637.71986    
   1670000   285.77611      0.037658231   -9.5765441      709.01841     -62.85883       646.15958    
   1671000   309.57785      0.037658231    10.818247      768.07119     -62.069164      706.00202    
   1672000   303.56417      0.037658231    32.462334      753.15107     -63.924722      689.22635    
   1673000   300.1125       0.037658231    20.385183      744.58739     -60.217169      684.37022    
   1674000   289.36258      0.037658231    10.88696       717.91653     -62.823977      655.09255    
   1675000   317.38592      0.037658231    19.104549      787.44322     -61.17251       726.27071    
   1676000   298.14874      0.037658231    23.196812      739.71525     -66.232146      673.48311    
   1677000   289.56485      0.037658231    18.117913      718.41839     -63.34445       655.07394    
   1678000   309.59367      0.037658231    21.035105      768.11043     -59.422071      708.68836    
   1679000   303.75157      0.037658231    20.351875      753.61603     -60.730451      692.88557    
   1680000   280.06137      0.037658231    19.166701      694.83997     -56.061792      638.77818    
   1681000   298.8437       0.037658231    16.916664      741.43945     -62.603417      678.83604    
   1682000   311.19274      0.037658231    15.053793      772.07776     -58.913903      713.16385    
   1683000   309.70513      0.037658231    24.595189      768.38698     -59.692778      708.6942     
   1684000   283.23849      0.037658231    16.918606      702.72249     -59.73527       642.98722    
   1685000   305.21658      0.037658231    14.520257      757.25075     -59.253177      697.99757    
   1686000   305.37098      0.037658231    26.773688      757.63381     -62.079127      695.55469    
   1687000   293.24949      0.037658231    26.264051      727.56008     -56.708723      670.85135    
   1688000   297.92712      0.037658231    13.82391       739.16539     -57.944854      681.22053    
   1689000   299.94802      0.037658231    17.045934      744.1793      -64.166814      680.01248    
   1690000   309.06382      0.037658231    21.628893      766.79586     -58.263861      708.532      
   1691000   307.91677      0.037658231    18.931377      763.95        -62.953812      700.99619    
   1692000   296.54419      0.037658231    21.472246      735.7343      -62.517252      673.21705    
   1693000   300.92178      0.037658231    12.776428      746.59524     -57.091339      689.5039     
   1694000   307.68185      0.037658231    25.263923      763.36716     -61.093956      702.2732     
   1695000   302.99044      0.037658231    36.276603      751.72764     -53.712636      698.01501    
   1696000   293.30502      0.037658231    21.899621      727.69783     -50.104444      677.59339    
   1697000   295.16695      0.037658231    20.906322      732.31734     -54.662207      677.65513    
   1698000   307.86072      0.037658231    14.512183      763.81093     -56.08444       707.72649    
   1699000   309.11697      0.037658231    24.211024      766.92773     -57.739864      709.18786    
   1700000   287.60312      0.037658231    20.442226      713.55126     -58.358027      655.19324    
   1701000   291.28314      0.037658231    18.837819      722.68151     -59.411412      663.2701     
   1702000   306.24762      0.037658231    16.491344      759.80879     -60.652592      699.15619    
   1703000   314.33779      0.037658231    17.824743      779.88073     -53.047009      726.83372    
   1704000   311.08164      0.037658231    29.371632      771.80212     -53.810206      717.99191    
   1705000   286.56922      0.037658231    18.640586      710.98614     -64.496893      646.48924    
   1706000   289.13722      0.037658231    13.241436      717.35741     -66.258848      651.09856    
   1707000   313.64015      0.037658231    22.091151      778.14986     -69.8684        708.28146    
   1708000   298.95382      0.037658231    19.882955      741.71267     -75.878135      665.83453    
   1709000   282.80375      0.037658231    13.58621       701.6439      -68.931489      632.71241    
   1710000   304.58296      0.037658231    0.26466711     755.67872     -69.166323      686.5124     
   1711000   311.09427      0.037658231    24.003749      771.83347     -66.979805      704.85366    
   1712000   296.1428       0.037658231    16.943964      734.73846     -65.102436      669.63602    
   1713000   299.86417      0.037658231    12.784355      743.97128     -71.657946      672.31333    
   1714000   301.26124      0.037658231    20.976374      747.43744     -66.669601      680.76783    
   1715000   295.06598      0.037658231    20.059217      732.06683     -62.911513      669.15532    
   1716000   298.76145      0.037658231    20.331878      741.23539     -59.795129      681.44026    
   1717000   294.7089       0.037658231    27.10257       731.18091     -59.704736      671.47617    
   1718000   310.41744      0.037658231    18.288878      770.15421     -60.667028      709.48719    
   1719000   300.00722      0.037658231    4.1644954      744.32619     -57.501551      686.82464    
   1720000   300.2499       0.037658231    20.821571      744.92829     -64.226737      680.70155    
   1721000   292.03007      0.037658231    31.147051      724.53467     -62.480654      662.05401    
   1722000   293.95648      0.037658231    43.909112      729.31413     -64.7547        664.55943    
   1723000   319.62769      0.037658231    15.11301       793.00511     -63.342835      729.66228    
   1724000   294.21779      0.037658231    14.224072      729.96246     -63.763122      666.19934    
   1725000   296.09837      0.037658231    24.102805      734.62822     -62.204584      672.42363    
   1726000   310.49881      0.037658231    16.948227      770.35612     -63.696024      706.66009    
   1727000   293.23769      0.037658231    15.348673      727.53079     -66.250089      661.2807     
   1728000   302.99065      0.037658231    19.638753      751.72816     -70.341836      681.38633    
   1729000   293.54885      0.037658231    19.937958      728.3028      -72.864972      655.43783    
   1730000   296.93183      0.037658231    19.150937      736.69605     -71.923647      664.7724     
   1731000   295.77633      0.037658231    18.445968      733.82922     -65.64248       668.18674    
   1732000   303.70341      0.037658231    10.740309      753.49652     -69.412878      684.08364    
   1733000   304.88576      0.037658231    19.347862      756.42998     -65.147155      691.28282    
   1734000   298.93782      0.037658231    20.065443      741.67298     -71.228142      670.44484    
   1735000   307.78358      0.037658231    23.529942      763.61955     -63.483094      700.13646    
   1736000   298.57853      0.037658231    13.548082      740.78156     -69.945473      670.83609    
   1737000   284.93885      0.037658231    9.4348363      706.94115     -79.603992      627.33716    
   1738000   314.28244      0.037658231    18.81564       779.7434      -77.401852      702.34155    
   1739000   304.02719      0.037658231    25.541761      754.29983     -77.993445      676.30639    
   1740000   286.50669      0.037658231   -5.5172864      710.83099     -75.444272      635.38672    
   1741000   309.87416      0.037658231    14.835194      768.80633     -71.134707      697.67163    
   1742000   307.46508      0.037658231    24.139025      762.82934     -63.619188      699.21015    
   1743000   282.36925      0.037658231    24.337382      700.56591     -61.449663      639.11624    
   1744000   290.98836      0.037658231    20.084955      721.95013     -65.222245      656.72789    
   1745000   297.78414      0.037658231    17.070628      738.81067     -56.285506      682.52516    
   1746000   311.39474      0.037658231    23.173532      772.57894     -56.898772      715.68016    
   1747000   308.15827      0.037658231    19.296197      764.54916     -58.772537      705.77662    
   1748000   290.86254      0.037658231    22.241921      721.63799     -51.072939      670.56505    
   1749000   303.61072      0.037658231    15.826109      753.26656     -64.033679      689.23288    
   1750000   315.4352       0.037658231    19.25948       782.60344     -55.731678      726.87176    
   1751000   288.43288      0.037658231    14.81922       715.60993     -59.373756      656.23617    
   1752000   291.67531      0.037658231    24.002688      723.65449     -55.752566      667.90192    
   1753000   304.90162      0.037658231    8.2196724      756.46933     -56.18492       700.28441    
   1754000   297.73807      0.037658231    10.453377      738.69635     -58.642366      680.05398    
   1755000   284.91795      0.037658231    19.10177       706.88929     -69.546773      637.34251    
   1756000   298.72109      0.037658231    19.945942      741.13526     -67.146498      673.98876    
   1757000   309.44547      0.037658231    17.721766      767.74273     -66.140747      701.60198    
   1758000   293.49227      0.037658231   -3.8735119      728.16242     -65.687181      662.47524    
   1759000   289.08212      0.037658231    14.726175      717.2207      -71.419626      645.80108    
   1760000   296.84037      0.037658231    21.591098      736.46914     -66.941123      669.52801    
   1761000   312.84897      0.037658231    18.640378      776.18693     -73.864913      702.32201    
   1762000   305.09216      0.037658231    17.65509       756.94206     -67.673208      689.26885    
   1763000   289.47368      0.037658231    20.499848      718.19219     -65.637032      652.55516    
   1764000   304.04889      0.037658231    16.813934      754.35367     -59.584883      694.76878    
   1765000   308.63733      0.037658231    20.353825      765.73773     -66.707221      699.0305     
   1766000   286.18691      0.037658231    18.877956      710.03761     -62.846307      647.1913     
   1767000   293.68057      0.037658231    17.506408      728.6296      -55.935142      672.69446    
   1768000   310.65929      0.037658231    28.046483      770.75427     -62.808942      707.94533    
   1769000   317.80324      0.037658231    18.946794      788.47861     -69.509494      718.96911    
   1770000   309.01874      0.037658231    10.669964      766.684       -73.539904      693.1441     
   1771000   289.52459      0.037658231    17.960212      718.31849     -68.372495      649.94599    
   1772000   294.48709      0.037658231    28.79122       730.63058     -64.687388      665.94319    
   1773000   289.27022      0.037658231    12.808711      717.68738     -65.263824      652.42355    
   1774000   297.91543      0.037658231    21.173302      739.1364      -73.522925      665.61348    
   1775000   309.79422      0.037658231    20.304306      768.60799     -68.179815      700.42818    
   1776000   295.36461      0.037658231    6.4369959      732.80775     -72.628481      660.17927    
   1777000   298.25167      0.037658231    8.7368665      739.97062     -63.114654      676.85597    
   1778000   301.82217      0.037658231    19.231813      748.82912     -66.28543       682.54369    
   1779000   305.94918      0.037658231    28.512765      759.06835     -59.190425      699.87793    
   1780000   297.84223      0.037658231    18.194347      738.95478     -59.061086      679.89369    
   1781000   296.58841      0.037658231    17.158097      735.84403     -58.463229      677.3808     
   1782000   301.36091      0.037658231    22.107448      747.68471     -62.611021      685.07369    
   1783000   315.52167      0.037658231    15.394017      782.81795     -61.160114      721.65784    
   1784000   304.56953      0.037658231    19.281891      755.64539     -61.859787      693.7856     
   1785000   284.57909      0.037658231    16.968843      706.04856     -58.061854      647.9867     
   1786000   296.03311      0.037658231    19.61371       734.4663      -58.206668      676.25963    
   1787000   303.99802      0.037658231    19.148736      754.22747     -62.240389      691.98708    
   1788000   287.9408       0.037658231    15.414319      714.38906     -57.027993      657.36107    
   1789000   301.7725       0.037658231    18.503477      748.70589     -51.354148      697.35174    
   1790000   298.57908      0.037658231    23.137642      740.78293     -52.924536      687.8584     
   1791000   299.97813      0.037658231    6.5052556      744.25401     -54.259226      689.99479    
   1792000   311.97017      0.037658231    26.480123      774.0066      -49.67278       724.33382    
   1793000   306.44585      0.037658231    13.91016       760.3006      -59.010134      701.29046    
   1794000   286.39561      0.037658231    16.538378      710.55541     -54.480335      656.07508    
   1795000   294.70746      0.037658231    22.708804      731.17733     -57.805861      673.37147    
   1796000   302.94902      0.037658231    19.313695      751.62486     -57.97575       693.64911    
   1797000   296.12489      0.037658231    17.446959      734.694       -63.925648      670.76836    
   1798000   300.4898       0.037658231    15.303531      745.52348     -63.47917       682.04431    
   1799000   306.93438      0.037658231    19.414495      761.51267     -64.980437      696.53223    
   1800000   297.54655      0.037658231    17.298473      738.2212      -59.212749      679.00845    
   1801000   308.79703      0.037658231    23.02189       766.13395     -61.575072      704.55888    
   1802000   297.8699       0.037658231    19.137015      739.02342     -64.934588      674.08884    
   1803000   289.95978      0.037658231    15.995532      719.39821     -60.174874      659.22333    
   1804000   309.58844      0.037658231    18.741129      768.09744     -64.200658      703.89678    
   1805000   302.54998      0.037658231    22.554778      750.63485     -62.398181      688.23667    
   1806000   304.01794      0.037658231    20.350087      754.27688     -60.536164      693.74071    
   1807000   294.26279      0.037658231    23.4602        730.07408     -52.512653      677.56143    
   1808000   299.3247       0.037658231    4.8081396      742.63283     -52.580008      690.05282    
   1809000   318.85811      0.037658231    15.705464      791.09577     -55.727778      735.36799    
   1810000   292.12349      0.037658231    42.586563      724.76643     -59.816232      664.9502     
   1811000   288.73569      0.037658231    23.911819      716.36121     -56.740434      659.62077    
   1812000   300.15226      0.037658231    13.924988      744.68604     -58.141668      686.54437    
   1813000   305.02074      0.037658231    14.622543      756.76487     -57.021463      699.74341    
   1814000   302.09624      0.037658231    42.904723      749.50909     -60.565626      688.94347    
   1815000   272.06548      0.037658231    23.672313      675.00195     -53.994334      621.00762    
   1816000   295.23472      0.037658231    3.4595547      732.48548     -54.656597      677.82888    
   1817000   310.48872      0.037658231    6.4629519      770.33108     -61.08112       709.24996    
   1818000   314.1546       0.037658231    15.7822        779.42623     -57.856511      721.56971    
   1819000   292.76403      0.037658231    45.331796      726.35564     -56.734399      669.62124    
   1820000   299.22762      0.037658231    15.826213      742.39197     -55.631152      686.76082    
   1821000   308.88464      0.037658231    10.933516      766.35131     -63.023599      703.32771    
   1822000   297.79428      0.037658231    14.84455       738.83582     -58.715097      680.12072    
   1823000   302.93885      0.037658231    19.675851      751.59965     -52.235155      699.36449    
   1824000   300.80244      0.037658231    23.667052      746.29914     -56.631613      689.66753    
   1825000   298.44104      0.037658231    18.955175      740.44044     -53.277085      687.16336    
   1826000   302.50551      0.037658231    19.990261      750.52451     -49.754803      700.76971    
   1827000   300.83843      0.037658231    16.544819      746.38843     -55.850704      690.53773    
   1828000   293.79051      0.037658231    17.926789      728.90235     -55.029455      673.87289    
   1829000   293.34602      0.037658231    17.750419      727.79957     -56.524765      671.27481    
   1830000   301.04041      0.037658231    18.90292       746.88954     -61.148674      685.74087    
   1831000   302.35179      0.037658231    16.030395      750.14313     -64.157956      685.98517    
   1832000   312.70626      0.037658231    22.544504      775.83286     -57.934855      717.898      
   1833000   312.79103      0.037658231    21.680921      776.04317     -55.485709      720.55746    
   1834000   306.21727      0.037658231    16.055425      759.7335      -49.847685      709.88581    
   1835000   290.94789      0.037658231    20.251145      721.84972     -50.227865      671.62186    
   1836000   300.06745      0.037658231    18.624579      744.4756      -48.433974      696.04163    
   1837000   306.12801      0.037658231    23.087831      759.51202     -50.473269      709.03875    
   1838000   317.42277      0.037658231    17.782475      787.53465     -55.435517      732.09914    
   1839000   288.73976      0.037658231    17.910071      716.3713      -57.25181       659.11949    
   1840000   284.36736      0.037658231    18.051954      705.52325     -57.099156      648.4241     
   1841000   299.22695      0.037658231    17.219782      742.39032     -63.407332      678.98298    
   1842000   302.59711      0.037658231    22.08519       750.75176     -60.140649      690.61111    
   1843000   292.24899      0.037658231    17.355281      725.07781     -56.357572      668.72023    
   1844000   291.39182      0.037658231    9.4935252      722.95115     -54.282184      668.66896    
   1845000   295.40679      0.037658231    12.463814      732.9124      -57.06765       675.84475    
   1846000   301.24612      0.037658231    25.410938      747.39992     -58.582688      688.81723    
   1847000   295.42492      0.037658231    20.95285       732.95736     -55.022556      677.93481    
   1848000   285.28374      0.037658231    15.325313      707.79683     -58.844545      648.95229    
   1849000   306.4296       0.037658231    18.459424      760.26028     -57.475332      702.78494    
   1850000   306.42788      0.037658231    19.527983      760.25602     -58.186074      702.06995    
   1851000   305.35156      0.037658231    18.749776      757.58564     -58.457328      699.12832    
   1852000   300.21899      0.037658231    17.9926        744.8516      -58.648331      686.20327    
   1853000   304.8644       0.037658231    18.307007      756.37699     -56.566515      699.81048    
   1854000   299.35825      0.037658231    17.309603      742.71606     -59.125721      683.59034    
   1855000   302.5017       0.037658231    26.778918      750.51506     -60.784777      689.73029    
   1856000   303.82663      0.037658231    22.38645       753.80224     -57.979595      695.82264    
   1857000   295.2789       0.037658231    7.7894168      732.59509     -59.995824      672.59927    
   1858000   291.89503      0.037658231    22.141416      724.19961     -53.320403      670.87921    
   1859000   319.86044      0.037658231    23.337833      793.58256     -50.540717      743.04185    
   1860000   307.10889      0.037658231    5.127417       761.94562     -59.607802      702.33782    
   1861000   292.67436      0.037658231    1.4219709      726.13317     -60.107157      666.02601    
   1862000   293.34656      0.037658231    11.562093      727.8009      -57.490099      670.3108     
   1863000   301.41269      0.037658231    18.316555      747.8132      -62.744081      685.06912    
   1864000   305.34369      0.037658231    17.965597      757.56612     -62.403114      695.16301    
   1865000   303.35697      0.037658231    15.649368      752.637       -58.797186      693.83982    
   1866000   299.77181      0.037658231    19.145051      743.74212     -61.596992      682.14513    
   1867000   300.80121      0.037658231    19.016293      746.29611     -61.763626      684.53248    
   1868000   301.98844      0.037658231    19.374777      749.24164     -66.113555      683.12809    
   1869000   303.649        0.037658231    18.444583      753.36155     -63.689906      689.67164    
   1870000   299.01354      0.037658231    15.978271      741.86083     -58.158217      683.70261    
   1871000   294.27184      0.037658231    13.255985      730.09655     -61.802114      668.29444    
   1872000   301.16454      0.037658231    14.326086      747.19753     -61.181467      686.01606    
   1873000   300.70092      0.037658231    20.556752      746.04727     -59.073559      686.97371    
   1874000   306.14324      0.037658231    19.146894      759.54981     -59.284343      700.26547    
   1875000   295.38122      0.037658231    21.563043      732.84894     -54.461981      678.38696    
   1876000   306.39387      0.037658231    20.918678      760.17164     -59.411287      700.76035    
   1877000   299.87118      0.037658231    15.452906      743.98866     -60.491874      683.49679    
   1878000   304.26214      0.037658231    15.981116      754.88276     -50.733197      704.14957    
   1879000   292.04743      0.037658231    20.09797       724.57772     -58.901356      665.67636    
   1880000   302.41047      0.037658231    18.459672      750.28871     -63.087024      687.20169    
   1881000   303.09777      0.037658231    19.363704      751.99391     -64.426565      687.56735    
   1882000   295.88462      0.037658231    18.206005      734.09791     -69.54049       664.55742    
   1883000   299.63104      0.037658231    25.369318      743.39286     -60.815418      682.57744    
   1884000   301.99159      0.037658231    14.890664      749.24947     -59.298037      689.95143    
   1885000   309.48276      0.037658231    3.8839105      767.83526     -62.323037      705.51223    
   1886000   286.96963      0.037658231    18.519063      711.97957     -53.467332      658.51224    
   1887000   287.5466       0.037658231    21.538668      713.41103     -62.54436       650.86667    
   1888000   300.42502      0.037658231    17.933034      745.36277     -67.624994      677.73777    
   1889000   305.2482       0.037658231    10.984002      757.3292      -65.685292      691.64391    
   1890000   296.24073      0.037658231    20.091071      734.98143     -70.555323      664.4261     
   1891000   282.76677      0.037658231    19.573129      701.55216     -67.340398      634.21176    
   1892000   301.11019      0.037658231    24.733719      747.06267     -60.147162      686.91551    
   1893000   326.90177      0.037658231    23.720118      811.0523      -69.196387      741.85591    
   1894000   297.46462      0.037658231    8.7521116      738.01792     -67.024841      670.99308    
   1895000   293.52649      0.037658231    20.496608      728.24731     -66.357481      661.88983    
   1896000   301.02456      0.037658231    20.461537      746.85024     -65.336885      681.51335    
   1897000   312.11327      0.037658231    21.024621      774.36163     -62.036403      712.32523    
   1898000   299.01533      0.037658231    7.3701691      741.86527     -55.913243      685.95202    
   1899000   295.75369      0.037658231    33.796342      733.77305     -58.145529      675.62752    
   1900000   300.11918      0.037658231    23.387713      744.60395     -58.037886      686.56606    
   1901000   308.20217      0.037658231    13.877797      764.65809     -58.456292      706.20179    
   1902000   289.31379      0.037658231    19.028271      717.79548     -54.248169      663.54731    
   1903000   300.38275      0.037658231    31.134719      745.25789     -63.115857      682.14203    
   1904000   298.74291      0.037658231   -0.066129795    741.18939     -68.406653      672.78274    
   1905000   297.90649      0.037658231    20.579299      739.11421     -68.932265      670.18195    
   1906000   311.86012      0.037658231    59.680157      773.73355     -68.792225      704.94133    
   1907000   306.79326      0.037658231    27.50302       761.16255     -65.995774      695.16677    
   1908000   302.99339      0.037658231   -6.9605853      751.73495     -64.884622      686.85033    
   1909000   293.11487      0.037658231    22.439726      727.22606     -60.00721       667.21885    
   1910000   306.52464      0.037658231    28.74839       760.49608     -60.408896      700.08719    
   1911000   310.4986       0.037658231    20.218455      770.35559     -52.862733      717.49285    
   1912000   314.67858      0.037658231    0.0096596099   780.72624     -59.273269      721.45297    
   1913000   293.24596      0.037658231    23.598823      727.55132     -57.747268      669.80405    
   1914000   311.32423      0.037658231    34.238122      772.404       -57.743254      714.66075    
   1915000   306.05337      0.037658231    7.1215669      759.32685     -56.400162      702.92669    
   1916000   295.14696      0.037658231    19.866866      732.26775     -61.321368      670.94639    
   1917000   289.50926      0.037658231    75.216416      718.28045     -49.970587      668.30986    
   1918000   307.96111      0.037658231    35.213689      764.06        -67.803922      696.25608    
   1919000   313.06005      0.037658231    17.268043      776.71062     -66.12073       710.58989    
   1920000   289.49689      0.037658231    17.003489      718.24977     -66.097299      652.15247    
   1921000   294.67787      0.037658231    28.573876      731.10392     -60.952366      670.15155    
   1922000   323.02398      0.037658231    21.425828      801.4314      -61.2598        740.1716     
   1923000   303.38241      0.037658231    8.1677858      752.70012     -62.527761      690.17236    
   1924000   291.03757      0.037658231    14.164432      722.07224     -63.542691      658.52954    
   1925000   311.27791      0.037658231    35.293343      772.28908     -65.310976      706.9781     
   1926000   303.45745      0.037658231    16.60088       752.88629     -61.986139      690.90015    
   1927000   298.01795      0.037658231    6.5295262      739.39076     -61.210545      678.18021    
   1928000   290.02081      0.037658231    19.804912      719.54962     -63.259509      656.29011    
   1929000   315.96519      0.037658231    23.417871      783.91835     -70.86187       713.05648    
   1930000   298.524        0.037658231    18.797305      740.64628     -62.899979      677.7463     
   1931000   295.46521      0.037658231    16.220401      733.05734     -67.407403      665.64993    
   1932000   303.90766      0.037658231    31.428776      754.00328     -63.560045      690.44323    
   1933000   315.07932      0.037658231    22.442928      781.72048     -71.059624      710.66086    
   1934000   301.18607      0.037658231    0.61590416     747.25093     -68.751865      678.49907    
   1935000   286.15156      0.037658231    18.421798      709.94992     -68.361963      641.58796    
   1936000   316.86725      0.037658231    14.18791       786.15638     -61.798761      724.35761    
   1937000   300.28492      0.037658231    25.997519      745.01517     -64.427275      680.58789    
   1938000   293.2034       0.037658231    19.903941      727.44571     -59.001936      668.44377    
   1939000   301.45403      0.037658231    12.204003      747.91576     -67.514102      680.40166    
   1940000   308.51164      0.037658231    15.890689      765.42588     -65.973737      699.45214    
   1941000   300.11251      0.037658231    22.242965      744.58741     -72.608077      671.97934    
   1942000   292.57849      0.037658231    25.215581      725.8953      -69.346809      656.54849    
   1943000   293.70502      0.037658231    18.172684      728.69024     -68.925103      659.76514    
   1944000   304.24002      0.037658231    16.502241      754.82788     -74.297031      680.53085    
   1945000   300.35935      0.037658231    19.797358      745.19982     -70.852026      674.3478     
   1946000   305.8357       0.037658231    20.491112      758.78679     -67.7577        691.02909    
   1947000   289.19372      0.037658231    16.30877       717.49759     -66.714557      650.78304    
   1948000   281.42611      0.037658231    18.712071      698.22595     -71.969656      626.25629    
   1949000   302.24755      0.037658231    32.901263      749.8845      -69.11532       680.76918    
   1950000   315.37362      0.037658231    23.351239      782.45065     -71.552497      710.89815    
   1951000   302.64467      0.037658231    8.4810802      750.86976     -67.868885      683.00088    
   1952000   296.09792      0.037658231    15.259163      734.6271      -64.833077      669.79402    
   1953000   300.65986      0.037658231    23.588308      745.94541     -63.285226      682.66018    
   1954000   303.83793      0.037658231    15.033737      753.83028     -71.176965      682.65332    
   1955000   296.42144      0.037658231    22.228878      735.42976     -64.093726      671.33604    
   1956000   285.79873      0.037658231    15.55797       709.07452     -65.778216      643.29631    
   1957000   303.83182      0.037658231    19.074759      753.81513     -66.884129      686.931      
   1958000   297.38348      0.037658231    15.273922      737.81662     -68.143847      669.67277    
   1959000   288.59686      0.037658231    20.343367      716.01677     -63.687808      652.32896    
   1960000   319.16735      0.037658231    15.94254       791.863       -68.720173      723.14283    
   1961000   297.47514      0.037658231    15.641239      738.04402     -67.025518      671.0185     
   1962000   290.56446      0.037658231    16.79617       720.89843     -73.08962       647.80881    
   1963000   315.43693      0.037658231    25.22969       782.60773     -79.804299      702.80343    
   1964000   305.29899      0.037658231    15.731841      757.45521     -79.754264      677.70095    
   1965000   287.83837      0.037658231    10.850045      714.13494     -78.902735      635.2322     
   1966000   307.20712      0.037658231    21.042916      762.18933     -70.434461      691.75487    
   1967000   305.60003      0.037658231    18.329201      758.2021      -71.157212      687.04488    
   1968000   318.76465      0.037658231    20.83122       790.86388     -70.027321      720.83656    
   1969000   310.91664      0.037658231    19.107855      771.39277     -58.096061      713.2967     
   1970000   309.24893      0.037658231    19.464831      767.25512     -67.639161      699.61596    
   1971000   293.75272      0.037658231    19.443668      728.8086      -64.289582      664.51902    
   1972000   318.11438      0.037658231    21.66285       789.25055     -64.062648      725.18791    
   1973000   306.20359      0.037658231    17.762137      759.69955     -63.93077       695.76878    
   1974000   299.44569      0.037658231    22.557286      742.93301     -56.895028      686.03798    
   1975000   291.38583      0.037658231    19.650519      722.93628     -53.695684      669.2406     
   1976000   308.02357      0.037658231    18.658839      764.21496     -62.800873      701.41409    
   1977000   299.79413      0.037658231    18.754218      743.79751     -67.754663      676.04285    
   1978000   289.37823      0.037658231    25.357719      717.95537     -70.345917      647.60945    
   1979000   305.81032      0.037658231   -0.43688115     758.72384     -67.132653      691.59119    
   1980000   309.17969      0.037658231    6.8439596      767.08334     -69.787724      697.29561    
   1981000   300.65889      0.037658231    41.365448      745.94299     -73.15973       672.78326    
   1982000   286.54927      0.037658231    47.754319      710.93663     -67.029506      643.90713    
   1983000   300.94214      0.037658231    8.9537896      746.64576     -59.761251      686.88451    
   1984000   307.37715      0.037658231    9.0423687      762.61119     -60.393124      702.21807    
   1985000   317.76713      0.037658231    14.078099      788.38901     -58.710942      729.67806    
   1986000   304.90696      0.037658231    31.86268       756.48258     -60.63276       695.84982    
   1987000   292.4498       0.037658231    17.026831      725.57602     -63.314558      662.26146    
   1988000   297.7273       0.037658231    15.67136       738.66963     -59.855125      678.81451    
   1989000   303.94088      0.037658231    31.331356      754.08571     -65.919238      688.16647    
   1990000   296.50093      0.037658231    19.24751       735.62699     -66.404349      669.22264    
   1991000   296.83171      0.037658231    15.095489      736.44764     -61.533043      674.9146     
   1992000   293.11477      0.037658231    10.624486      727.22582     -70.076901      657.14892    
   1993000   305.42502      0.037658231    33.793631      757.76789     -71.360663      686.40722    
   1994000   300.30442      0.037658231    26.936744      745.06354     -70.622465      674.44107    
   1995000   289.90782      0.037658231    12.862467      719.26929     -76.166021      643.10327    
   1996000   311.42117      0.037658231    27.169515      772.6445      -72.788533      699.85597    
   1997000   307.52046      0.037658231    26.729626      762.96674     -68.728619      694.23812    
   1998000   295.96202      0.037658231    6.8482553      734.28993     -68.71918       665.57075    
   1999000   312.89021      0.037658231    17.868536      776.28923     -67.180794      709.10843    
   2000000   296.06143      0.037658231    25.966642      734.53657     -60.080969      674.4556     
   2001000   293.45443      0.037658231    18.662593      728.06852     -58.308998      669.75952    
   2002000   302.65959      0.037658231    33.695305      750.90679     -57.94527       692.96152    
   2003000   305.442        0.037658231    24.073884      757.81002     -66.423066      691.38695    
   2004000   301.80248      0.037658231    16.609472      748.78027     -73.028912      675.75136    
   2005000   311.27824      0.037658231    19.155504      772.28989     -64.616098      707.67379    
   2006000   316.72843      0.037658231    19.299935      785.81197     -70.991915      714.82005    
   2007000   299.60387      0.037658231    20.4683        743.32545     -60.935637      682.38981    
   2008000   300.10307      0.037658231    8.7055612      744.56399     -65.276214      679.28778    
   2009000   297.9024       0.037658231    26.442591      739.10407     -66.095751      673.00832    
   2010000   294.63489      0.037658231    15.34799       730.99729     -74.873561      656.12373    
   2011000   307.23931      0.037658231    18.476975      762.26918     -68.695721      693.57346    
   2012000   303.34976      0.037658231    19.936561      752.61912     -70.57814       682.04098    
   2013000   305.3966       0.037658231    22.107918      757.69738     -73.088734      684.60864    
   2014000   301.65982      0.037658231    19.97427       748.42633     -77.955303      670.47102    
   2015000   295.75613      0.037658231    18.663797      733.77912     -73.60335       660.17577    
   2016000   304.31746      0.037658231    17.971967      755.02        -73.730747      681.28925    
   2017000   305.82339      0.037658231    21.639009      758.75626     -71.996021      686.76024    
   2018000   303.61917      0.037658231    14.035861      753.28753     -71.674899      681.61263    
   2019000   289.03181      0.037658231    14.704692      717.0959      -69.199638      647.89626    
   2020000   307.33561      0.037658231    22.854773      762.50812     -78.783804      683.72431    
   2021000   308.34963      0.037658231    17.680685      765.02393     -69.897846      695.12608    
   2022000   299.76556      0.037658231    18.88678       743.72663     -66.998841      676.72778    
   2023000   293.98719      0.037658231    14.700364      729.39031     -67.697246      661.69307    
   2024000   301.04151      0.037658231    23.336073      746.89228     -60.333366      686.55892    
   2025000   301.17395      0.037658231    18.770228      747.22087     -68.663881      678.55699    
   2026000   285.0434       0.037658231    14.013058      707.20052     -66.525152      640.67537    
   2027000   313.47507      0.037658231    27.348259      777.74029     -67.467769      710.27252    
   2028000   317.7064       0.037658231    24.030532      788.23833     -63.718696      724.51963    
   2029000   285.4476       0.037658231    8.8998864      708.20335     -71.851215      636.35214    
   2030000   285.02553      0.037658231    18.074903      707.15619     -61.307617      645.84858    
   2031000   307.44177      0.037658231    28.345744      762.7715      -67.947064      694.82444    
   2032000   309.81353      0.037658231    15.833091      768.65591     -71.850945      696.80496    
   2033000   293.36763      0.037658231    6.1471245      727.85318     -66.88556       660.96762    
   2034000   291.8861       0.037658231    17.370707      724.17746     -65.335325      658.84213    
   2035000   289.82178      0.037658231    22.483842      719.05582     -65.528377      653.52744    
   2036000   316.81728      0.037658231    16.617235      786.0324      -66.323034      719.70937    
   2037000   310.14934      0.037658231    4.5700841      769.48906     -67.484271      702.00479    
   2038000   289.9238       0.037658231    17.979427      719.30893     -59.861308      659.44762    
   2039000   300.1279       0.037658231    29.797201      744.62559     -61.1077        683.51789    
   2040000   300.87138      0.037658231    8.2552407      746.47018     -59.359174      687.11101    
   2041000   298.26124      0.037658231    15.987368      739.99437     -57.982785      682.01158    
   2042000   298.97222      0.037658231    21.24852       741.75831     -58.3655        683.39281    
   2043000   287.41558      0.037658231    18.731743      713.08598     -63.532185      649.55379    
   2044000   309.14134      0.037658231    20.446161      766.98819     -62.910528      704.07766    
   2045000   306.41586      0.037658231    14.87891       760.2262      -62.692887      697.53332    
   2046000   289.44373      0.037658231    14.700625      718.11787     -59.248826      658.86905    
   2047000   297.0955       0.037658231    18.83859       737.10212     -58.582985      678.51914    
   2048000   303.54013      0.037658231    14.101903      753.09144     -61.017684      692.07376    
   2049000   300.17585      0.037658231    26.754861      744.74455     -61.980143      682.76441    
   2050000   298.01783      0.037658231    4.1412977      739.39046     -61.994208      677.39625    
   2051000   306.4392       0.037658231    13.217382      760.28411     -60.538149      699.74597    
   2052000   298.57064      0.037658231    42.057476      740.76198     -60.892754      679.86922    
   2053000   289.93033      0.037658231    15.590881      719.32515     -66.316147      653.009      
   2054000   316.19929      0.037658231    4.4539681      784.49915     -61.242114      723.25703    
   2055000   303.12464      0.037658231    42.408907      752.06058     -63.909139      688.15144    
   2056000   292.17014      0.037658231    19.461295      724.88217     -60.982006      663.90016    
   2057000   288.97531      0.037658231    17.029997      716.95571     -63.678742      653.27697    
   2058000   310.22355      0.037658231    14.24008       769.67317     -68.790561      700.88261    
   2059000   296.83288      0.037658231    30.306837      736.45056     -70.23902       666.21154    
   2060000   300.43697      0.037658231    18.459605      745.3924      -66.723029      678.66938    
   2061000   293.90591      0.037658231    23.41615       729.18866     -69.913722      659.27494    
   2062000   307.81077      0.037658231    11.195903      763.687       -67.253345      696.43366    
   2063000   313.29685      0.037658231    20.883844      777.29813     -68.572384      708.72575    
   2064000   320.70359      0.037658231    19.462488      795.67445     -64.771148      730.9033     
   2065000   281.51539      0.037658231    17.147489      698.44745     -70.227174      628.22028    
   2066000   301.49018      0.037658231    9.0715853      748.00544     -74.585686      673.41976    
   2067000   315.32917      0.037658231    13.540481      782.34035     -67.754918      714.58543    
   2068000   309.99605      0.037658231    24.56995       769.10875     -70.606521      698.50223    
   2069000   293.54145      0.037658231    20.219646      728.28442     -69.911013      658.37341    
   2070000   275.87155      0.037658231    14.602404      684.44492     -73.447556      610.99737    
   2071000   300.95758      0.037658231    19.899956      746.68404     -70.345551      676.33849    
   2072000   304.36549      0.037658231    19.99978       755.13918     -66.011279      689.1279     
   2073000   297.04335      0.037658231    18.680024      736.97274     -71.548041      665.42469    
   2074000   303.77622      0.037658231    17.824741      753.67717     -71.764827      681.91234    
   2075000   289.71895      0.037658231    16.711238      718.8007      -79.549415      639.25129    
   2076000   291.34218      0.037658231    22.530321      722.82798     -78.334911      644.49307    
   2077000   317.40396      0.037658231    21.167286      787.48797     -74.785932      712.70203    
   2078000   303.75118      0.037658231    16.1581        753.61504     -67.192362      686.42268    
   2079000   293.62176      0.037658231    12.764141      728.48367     -74.361117      654.12255    
   2080000   297.10884      0.037658231    6.3231473      737.13522     -68.398999      668.73622    
   2081000   311.59027      0.037658231    27.338408      773.06405     -68.308061      704.75599    
   2082000   303.2957       0.037658231    14.654399      752.485       -68.528048      683.95695    
   2083000   295.17655      0.037658231    15.40965       732.34116     -65.219808      667.12135    
   2084000   300.35923      0.037658231    24.811761      745.19952     -65.152528      680.04699    
   2085000   312.30236      0.037658231    25.395103      774.83077     -72.76165       702.06912    
   2086000   301.71436      0.037658231   -1.3707498      748.56163     -70.338804      678.22283    
   2087000   302.8787       0.037658231    14.329274      751.4504      -71.652561      679.79784    
   2088000   299.25646      0.037658231    37.051812      742.46352     -69.576875      672.88664    
   2089000   306.74631      0.037658231    22.762049      761.04605     -74.205362      686.84068    
   2090000   327.33886      0.037658231    17.594686      812.13672     -72.660834      739.47589    
   2091000   291.01936      0.037658231    3.9593055      722.02707     -74.866937      647.16013    
   2092000   294.04487      0.037658231    18.372869      729.53343     -76.028504      653.50493    
   2093000   295.77713      0.037658231    22.471151      733.8312      -73.834834      659.99637    
   2094000   303.41084      0.037658231    17.905434      752.77065     -67.172766      685.59788    
   2095000   301.72203      0.037658231    15.458098      748.58067     -66.168493      682.41218    
   2096000   298.85309      0.037658231    20.816004      741.46276     -63.088623      678.37414    
   2097000   297.41979      0.037658231    23.784226      737.90669     -62.11349       675.7932     
   2098000   305.55996      0.037658231    18.073873      758.10267     -65.406399      692.69628    
   2099000   306.33596      0.037658231    16.852414      760.02797     -62.140256      697.88771    
   2100000   297.76377      0.037658231    4.6673698      738.76012     -69.691012      669.0691     
   2101000   305.94109      0.037658231    17.874642      759.04829     -68.66188       690.38641    
   2102000   295.79436      0.037658231    30.766224      733.87395     -67.499968      666.37398    
   2103000   302.43599      0.037658231    43.291857      750.35202     -74.602628      675.74939    
   2104000   301.95928      0.037658231    1.4574526      749.16929     -74.338237      674.83105    
   2105000   292.19331      0.037658231    8.7200424      724.93966     -74.700313      650.23934    
   2106000   296.86798      0.037658231    31.630026      736.53765     -78.475422      658.06223    
   2107000   302.87098      0.037658231   -9.0133237      751.43125     -73.170691      678.26056    
   2108000   301.99486      0.037658231    16.053741      749.25757     -68.199734      681.05783    
   2109000   287.71276      0.037658231    28.791639      713.82328     -64.969141      648.85414    
   2110000   311.23617      0.037658231    23.702326      772.18551     -64.803075      707.38243    
   2111000   315.03799      0.037658231    14.093662      781.61794     -66.309683      715.30826    
   2112000   303.13654      0.037658231    4.9042882      752.0901      -63.968083      688.12202    
   2113000   307.58824      0.037658231    52.920642      763.13491     -62.023632      701.11128    
   2114000   303.76207      0.037658231    0.28394804     753.64206     -53.427537      700.21453    
   2115000   297.87326      0.037658231    15.241905      739.03177     -60.131116      678.90066    
   2116000   311.31152      0.037658231    26.579276      772.37245     -55.924949      716.44751    
   2117000   297.6281       0.037658231    29.842447      738.42351     -64.551304      673.87221    
   2118000   299.51207      0.037658231    32.290125      743.09771     -64.391929      678.70578    
   2119000   312.96795      0.037658231    2.6493259      776.48211     -64.678755      711.80336    
   2120000   291.05703      0.037658231    19.018405      722.12051     -65.205302      656.91521    
   2121000   295.97454      0.037658231    40.308873      734.32099     -65.89805       668.42294    
   2122000   307.56932      0.037658231    26.180858      763.08797     -65.815432      697.27254    
   2123000   318.69631      0.037658231    18.082086      790.69434     -62.048343      728.64599    
   2124000   293.84055      0.037658231    19.629724      729.02652     -59.546178      669.48034    
   2125000   294.79979      0.037658231    20.773042      731.40639     -64.32368       667.08271    
   2126000   303.39265      0.037658231    25.793395      752.72552     -59.814713      692.91081    
   2127000   301.77374      0.037658231    18.129479      748.70897     -63.129858      685.57911    
   2128000   285.45415      0.037658231    13.061009      708.2196      -62.65828       645.56132    
   2129000   292.75859      0.037658231    21.674175      726.34212     -67.345285      658.99684    
   2130000   307.01956      0.037658231    20.357483      761.72399     -62.917831      698.80616    
   2131000   281.19293      0.037658231    16.817399      697.64741     -68.496435      629.15098    
   2132000   310.77317      0.037658231    19.458888      771.0368      -67.198973      703.83783    
   2133000   314.00491      0.037658231    25.934977      779.05484     -71.805836      707.249      
   2134000   305.62313      0.037658231    9.1408533      758.25942     -67.780495      690.47892    
   2135000   298.89941      0.037658231    5.5282945      741.57768     -64.962372      676.61531    
   2136000   297.66876      0.037658231    22.345896      738.52439     -66.322934      672.20146    
   2137000   324.26085      0.037658231    36.393081      804.5001      -59.577245      744.92285    
   2138000   308.04695      0.037658231    22.831054      764.27298     -59.620504      704.65248    
   2139000   298.36784      0.037658231    19.198794      740.25884     -65.330196      674.92864    
   2140000   292.50307      0.037658231    8.8782529      725.70817     -63.204577      662.50359    
   2141000   302.51679      0.037658231    27.357125      750.5525      -62.34113       688.21137    
   2142000   298.47801      0.037658231    30.195858      740.53216     -65.805748      674.72641    
   2143000   301.1595       0.037658231    16.955329      747.18501     -65.510045      681.67496    
   2144000   306.28784      0.037658231    16.959         759.90858     -68.137867      691.77072    
   2145000   286.88328      0.037658231    18.202709      711.76533     -69.371887      642.39344    
   2146000   297.46521      0.037658231    19.454675      738.01938     -72.493626      665.52575    
   2147000   303.69848      0.037658231    19.001248      753.48429     -63.464449      690.01984    
   2148000   300.52411      0.037658231    20.946609      745.6086      -60.303239      685.30536    
   2149000   299.05088      0.037658231    17.711081      741.95349     -60.002006      681.95148    
   2150000   310.44408      0.037658231    23.22708       770.22031     -64.427261      705.79305    
   2151000   294.16648      0.037658231    22.434422      729.83515     -67.639145      662.196      
   2152000   297.73996      0.037658231    10.287353      738.70104     -71.812367      666.88867    
   2153000   286.73157      0.037658231    19.273875      711.38892     -67.085505      644.30341    
   2154000   298.85128      0.037658231    19.557014      741.45826     -69.347837      672.11042    
   2155000   292.79656      0.037658231    18.120032      726.43634     -65.828673      660.60767    
   2156000   289.1863       0.037658231    15.706734      717.47919     -65.613515      651.86568    
   2157000   313.01348      0.037658231    16.114976      776.59508     -59.337551      717.25753    
   2158000   312.78514      0.037658231    27.517275      776.02856     -63.662648      712.36591    
   2159000   293.17021      0.037658231    18.012545      727.36336     -60.020454      667.34291    
   2160000   297.57032      0.037658231   -6.4458673      738.28016     -57.436433      680.84373    
   2161000   311.46202      0.037658231    8.4617427      772.74586     -56.758504      715.98736    
   2162000   303.70471      0.037658231    33.905184      753.49976     -60.002222      693.49754    
   2163000   280.92985      0.037658231    29.35425       696.9947      -63.280725      633.71397    
   2164000   303.95384      0.037658231    5.3898362      754.11785     -60.294532      693.82332    
   2165000   321.01988      0.037658231    32.760894      796.45918     -59.721695      736.73748    
   2166000   294.64169      0.037658231    44.802486      731.01416     -63.042641      667.97152    
   2167000   298.28414      0.037658231    29.696229      740.05117     -68.259078      671.79209    
   2168000   291.347        0.037658231    15.990699      722.83994     -66.324019      656.51592    
   2169000   319.23666      0.037658231    14.619436      792.03495     -61.397007      730.63794    
   2170000   310.33335      0.037658231    30.11564       769.94559     -65.347864      704.59773    
   2171000   294.62359      0.037658231    18.106658      730.96924     -64.055632      666.91361    
   2172000   298.63382      0.037658231   -3.1345312      740.91874     -61.408133      679.51061    
   2173000   317.9967       0.037658231    15.445611      788.95857     -61.201237      727.75733    
   2174000   308.20156      0.037658231    22.803776      764.65657     -58.735318      705.92126    
   2175000   283.25307      0.037658231    18.33654       702.75867     -59.780756      642.97791    
   2176000   317.00571      0.037658231    15.140561      786.4999      -63.816113      722.68378    
   2177000   311.03275      0.037658231    17.291115      771.68082     -69.746188      701.93463    
   2178000   297.45584      0.037658231    19.359811      737.99614     -71.006681      666.98946    
   2179000   298.66507      0.037658231    32.202522      740.99627     -69.761322      671.23495    
   2180000   301.53047      0.037658231    14.798671      748.10541     -62.417307      685.6881     
   2181000   311.46964      0.037658231    15.390801      772.76475     -67.099779      705.66497    
   2182000   291.32562      0.037658231    21.07015       722.78689     -65.193394      657.5935     
   2183000   299.75935      0.037658231    27.123553      743.71121     -71.462506      672.24871    
   2184000   304.58118      0.037658231    11.68063       755.67431     -61.75909       693.91522    
   2185000   300.64987      0.037658231    10.186688      745.92062     -61.871435      684.04918    
   2186000   294.26611      0.037658231    26.275996      730.08232     -59.876383      670.20594    
   2187000   302.59775      0.037658231    21.568923      750.75335     -58.615307      692.13805    
   2188000   290.47231      0.037658231    18.292288      720.6698      -60.31366       660.35614    
   2189000   300.05361      0.037658231    18.405904      744.44127     -55.741599      688.69967    
   2190000   287.1867       0.037658231    18.654325      712.51811     -55.373466      657.14465    
   2191000   299.63681      0.037658231    20.328417      743.40719     -55.768642      687.63855    
   2192000   310.52094      0.037658231    19.138843      770.41102     -56.082373      714.32865    
   2193000   305.68056      0.037658231    10.686037      758.40191     -61.338177      697.06373    
   2194000   292.53703      0.037658231    21.623866      725.79243     -64.39945       661.39298    
   2195000   307.58044      0.037658231    18.631201      763.11555     -66.785847      696.3297     
   2196000   311.10736      0.037658231    17.69695       771.86593     -60.770756      711.09517    
   2197000   298.59295      0.037658231    19.733873      740.81734     -61.191656      679.62568    
   2198000   295.53015      0.037658231    19.848457      733.21844     -61.104096      672.11434    
   2199000   306.05274      0.037658231    20.717269      759.32528     -64.383391      694.94189    
   2200000   298.48806      0.037658231    19.902125      740.55711     -67.165329      673.39178    
   2201000   314.35916      0.037658231    18.572435      779.93375     -66.161655      713.7721     
   2202000   309.10564      0.037658231    20.664414      766.89962     -63.043613      703.85601    
   2203000   289.5895       0.037658231    23.85674       718.47954     -64.127646      654.35189    
   2204000   308.71424      0.037658231    19.316218      765.92854     -69.054352      696.87419    
   2205000   297.20421      0.037658231    16.659457      737.37184     -71.734818      665.63702    
   2206000   295.75182      0.037658231    21.461902      733.76841     -62.06407       671.70434    
   2207000   294.48277      0.037658231    19.789346      730.61987     -65.187023      665.43285    
   2208000   293.04667      0.037658231    12.774342      727.05686     -60.628518      666.42835    
   2209000   303.73639      0.037658231    4.8376294      753.57835     -57.837393      695.74096    
   2210000   303.53372      0.037658231    23.346561      753.07554     -55.679027      697.39651    
   2211000   291.31247      0.037658231    21.189231      722.75428     -57.517123      665.23715    
   2212000   303.57405      0.037658231    23.522098      753.17559     -62.101975      691.07361    
   2213000   293.45253      0.037658231    9.8693942      728.06383     -63.012039      665.05179    
   2214000   303.84846      0.037658231    14.121583      753.8564      -62.373258      691.48314    
   2215000   311.31309      0.037658231    25.176691      772.37636     -63.975414      708.40095    
   2216000   292.32916      0.037658231    16.336546      725.27671     -62.395283      662.88143    
   2217000   293.87958      0.037658231    15.72645       729.12334     -63.074621      666.04872    
   2218000   295.04365      0.037658231    33.573726      732.01142     -63.117428      668.89399    
   2219000   301.20713      0.037658231    18.556692      747.3032      -62.538267      684.76493    
   2220000   318.72582      0.037658231   -1.8381369      790.76754     -59.63241       731.13513    
   2221000   299.39916      0.037658231    26.811923      742.81756     -60.519849      682.29771    
   2222000   288.79648      0.037658231    24.392066      716.51202     -58.463669      658.04835    
   2223000   301.76211      0.037658231    1.4876061      748.6801      -57.798583      690.88152    
   2224000   317.06212      0.037658231    10.417271      786.63985     -58.019838      728.62002    
   2225000   305.97571      0.037658231    29.786052      759.13418     -65.096438      694.03774    
   2226000   292.72448      0.037658231    30.147948      726.25749     -61.911021      664.34647    
   2227000   295.7667       0.037658231    0.42079551     733.80534     -67.081395      666.72394    
   2228000   313.10598      0.037658231    19.938641      776.82458     -66.703967      710.12061    
   2229000   299.91699      0.037658231    24.595828      744.10232     -65.471627      678.6307     
   2230000   281.14754      0.037658231    18.49783       697.53481     -66.861963      630.67284    
   2231000   300.84863      0.037658231    19.10205       746.41375     -63.26843       683.14532    
   2232000   304.8396       0.037658231    18.056369      756.31544     -71.441052      684.87439    
   2233000   304.0868       0.037658231    20.316424      754.44774     -68.703793      685.74394    
   2234000   308.146        0.037658231    18.055529      764.51873     -67.758363      696.76036    
   2235000   299.17292      0.037658231    18.203802      742.25626     -74.761659      667.4946     
   2236000   287.50055      0.037658231    19.33814       713.29678     -70.208542      643.08824    
   2237000   307.09661      0.037658231    19.340614      761.91515     -77.426567      684.48859    
   2238000   296.4033       0.037658231    15.856452      735.38477     -70.546983      664.83778    
   2239000   303.58857      0.037658231    24.789999      753.21161     -70.387921      682.82369    
   2240000   286.50289      0.037658231    20.461673      710.82157     -69.19948       641.62209    
   2241000   310.2924       0.037658231    21.57274       769.844       -69.480432      700.36357    
   2242000   300.42191      0.037658231    14.661774      745.35503     -71.772553      673.58248    
   2243000   293.48338      0.037658231    14.030965      728.14036     -65.034497      663.10586    
   2244000   308.18441      0.037658231    27.531928      764.61402     -68.035331      696.57869    
   2245000   313.71307      0.037658231    11.552222      778.33077     -75.726783      702.60399    
   2246000   312.56651      0.037658231    18.326788      775.48612     -70.028881      705.45724    
   2247000   290.96384      0.037658231    13.492556      721.88931     -69.287633      652.60168    
   2248000   281.82722      0.037658231    17.88523       699.2211      -73.801966      625.41913    
   2249000   306.20232      0.037658231    23.713941      759.6964      -74.362716      685.33368    
   2250000   310.41261      0.037658231    35.881842      770.14223     -77.523455      692.61878    
   2251000   305.07125      0.037658231    18.839344      756.89018     -79.102433      677.78775    
   2252000   304.49004      0.037658231    4.5048937      755.44819     -78.759896      676.68829    
   2253000   300.52435      0.037658231    30.972858      745.6092      -75.940322      669.66888    
   2254000   302.13467      0.037658231   -2.1049905      749.60444     -75.22039       674.38405    
   2255000   300.2628       0.037658231    23.97285       744.96027     -67.654271      677.306      
   2256000   306.53882      0.037658231    44.261926      760.53126     -75.499212      685.03205    
   2257000   294.05481      0.037658231   -8.2486602      729.55809     -65.233645      664.32444    
   2258000   291.11013      0.037658231    16.533898      722.25225     -66.370617      655.88163    
   2259000   294.58461      0.037658231    23.5774        730.87254     -66.100259      664.77228    
   2260000   299.27911      0.037658231    0.8657401      742.51972     -60.855036      681.66468    
   2261000   296.49307      0.037658231    29.189093      735.60748     -65.288276      670.3192     
   2262000   291.74516      0.037658231    39.720457      723.82778     -65.361575      658.46621    
   2263000   299.28944      0.037658231    18.122408      742.54535     -68.892565      673.65278    
   2264000   305.40053      0.037658231    10.161649      757.70713     -70.75517       686.95196    
   2265000   299.32528      0.037658231    16.097942      742.63426     -63.154349      679.47991    
   2266000   307.85733      0.037658231    24.058039      763.80252     -62.429285      701.37324    
   2267000   304.98418      0.037658231    22.913295      756.67415     -63.033585      693.64057    
   2268000   308.7282       0.037658231    18.350044      765.96318     -67.07412       698.88906    
   2269000   295.52527      0.037658231    20.57022       733.20633     -72.985507      660.22082    
   2270000   297.80946      0.037658231    20.746141      738.87349     -68.990855      669.88264    
   2271000   310.09615      0.037658231    17.075552      769.35708     -69.564605      699.79248    
   2272000   300.03845      0.037658231    13.586935      744.40366     -63.535709      680.86795    
   2273000   304.51549      0.037658231    20.599963      755.51133     -66.85278       688.65855    
   2274000   304.47377      0.037658231    17.143106      755.40781     -67.423094      687.98471    
   2275000   311.58101      0.037658231    19.178783      773.04108     -70.643002      702.39807    
   2276000   323.56401      0.037658231    20.314845      802.77124     -68.31985       734.45139    
   2277000   298.48693      0.037658231    18.807628      740.5543      -65.513566      675.04073    
   2278000   289.75082      0.037658231    19.605473      718.87976     -70.466197      648.41357    
   2279000   316.03409      0.037658231    21.128429      784.08928     -67.589105      716.50018    
   2280000   297.06106      0.037658231    19.106939      737.01668     -66.452342      670.56434    
   2281000   289.74004      0.037658231    16.808479      718.85302     -68.624409      650.22861    
   2282000   292.50396      0.037658231    21.257398      725.71039     -64.012232      661.69816    
   2283000   315.14201      0.037658231    25.040106      781.87601     -63.811691      718.06431    
   2284000   306.14426      0.037658231    13.188883      759.55236     -72.672625      686.87973    
   2285000   292.3604       0.037658231    21.294582      725.35422     -71.456487      653.89773    
   2286000   300.6536       0.037658231    17.973524      745.92986     -67.544088      678.38577    
   2287000   303.79614      0.037658231    17.677491      753.72659     -74.383136      679.34345    
   2288000   302.46251      0.037658231    21.404603      750.41782     -75.225736      675.19209    
   2289000   293.72899      0.037658231    20.221052      728.74973     -72.633462      656.11627    
   2290000   312.87522      0.037658231    4.9799472      776.25203     -67.968892      708.28314    
   2291000   302.25674      0.037658231    18.836986      749.90731     -72.109138      677.79817    
   2292000   303.48499      0.037658231    23.416758      752.95464     -70.27946       682.67518    
   2293000   294.56259      0.037658231    18.976998      730.81791     -67.479802      663.33811    
   2294000   308.09275      0.037658231    11.581078      764.38661     -67.601455      696.78515    
   2295000   301.68153      0.037658231    19.134679      748.4802      -64.528897      683.9513     
   2296000   296.74125      0.037658231    20.43883       736.22323     -57.115895      679.10734    
   2297000   300.08628      0.037658231    16.266911      744.52234     -65.071109      679.45123    
   2298000   299.57728      0.037658231    15.781938      743.25949     -65.444921      677.81457    
   2299000   305.92483      0.037658231    22.771373      759.00793     -63.408097      695.59983    
   2300000   298.90008      0.037658231    18.673819      741.57933     -67.570153      674.00918    
   2301000   310.62606      0.037658231    22.708894      770.67182     -66.140509      704.53132    
   2302000   296.88173      0.037658231    24.216367      736.57176     -68.803641      667.76812    
   2303000   288.63684      0.037658231    17.346929      716.11595     -66.190648      649.9253     
   2304000   309.1022       0.037658231    21.691036      766.89107     -64.508145      702.38293    
   2305000   299.61507      0.037658231    18.006761      743.35324     -63.112339      680.2409     
   2306000   288.44995      0.037658231    16.848207      715.65227     -70.777612      644.87466    
   2307000   307.7019       0.037658231    22.510083      763.41691     -74.748133      688.66877    
   2308000   311.59456      0.037658231    17.8318        773.0747      -67.678143      705.39656    
   2309000   295.55967      0.037658231    20.472895      733.29168     -74.99319       658.29849    
   2310000   297.97935      0.037658231    19.35587       739.29499     -71.469787      667.8252     
   2311000   309.11949      0.037658231    21.605274      766.93399     -76.26488       690.66911    
   2312000   304.04631      0.037658231    21.646306      754.34729     -77.140334      677.20695    
   2313000   282.24853      0.037658231    18.496983      700.26639     -80.3272        619.93919    
   2314000   298.51767      0.037658231    14.512983      740.63057     -76.067487      664.56309    
   2315000   320.5268       0.037658231    19.630318      795.23582     -68.514518      726.7213     
   2316000   293.2211       0.037658231    13.746329      727.48964     -71.163968      656.32567    
   2317000   291.09129      0.037658231    21.104423      722.20551     -76.845595      645.35992    
   2318000   305.29873      0.037658231    19.789917      757.45456     -76.128098      681.32646    
   2319000   300.30448      0.037658231    18.077732      745.06369     -66.096776      678.96692    
   2320000   301.24328      0.037658231    19.3637        747.39289     -68.172066      679.22082    
   2321000   292.35471      0.037658231    21.31191       725.34009     -68.908259      656.43183    
   2322000   298.90052      0.037658231    18.74375       741.58043     -73.335906      668.24452    
   2323000   288.12296      0.037658231    16.400707      714.841       -71.54914       643.29186    
   2324000   305.66817      0.037658231    21.582114      758.37115     -74.017873      684.35328    
   2325000   296.09507      0.037658231    17.925336      734.62004     -77.460937      657.15911    
   2326000   308.19571      0.037658231    20.043931      764.64205     -78.253555      686.3885     
   2327000   294.14113      0.037658231    17.107335      729.77226     -80.341509      649.43075    
   2328000   292.44952      0.037658231    20.371686      725.57531     -75.934951      649.64036    
   2329000   307.76348      0.037658231    24.635661      763.56967     -77.158089      686.41158    
   2330000   312.20523      0.037658231    18.928094      774.58978     -78.200763      696.38902    
   2331000   286.54495      0.037658231    20.649232      710.92592     -76.108748      634.81717    
   2332000   303.28422      0.037658231    21.744406      752.4565      -69.710306      682.7462     
   2333000   312.23427      0.037658231    18.095627      774.66183     -73.759042      700.90279    
   2334000   289.20056      0.037658231    11.608211      717.51457     -62.571782      654.94279    
   2335000   291.29327      0.037658231    16.259189      722.70663     -70.885492      651.82113    
   2336000   304.4377       0.037658231    19.367681      755.31833     -62.071891      693.24644    
   2337000   295.81806      0.037658231    17.036583      733.93277     -64.942427      668.99034    
   2338000   289.5884       0.037658231    14.701297      718.47681     -66.726196      651.75062    
   2339000   304.82089      0.037658231    24.059825      756.26902     -59.594884      696.67414    
   2340000   311.66429      0.037658231    21.57574       773.24769     -65.714899      707.53279    
   2341000   291.43508      0.037658231    16.422181      723.05847     -63.921198      659.13727    
   2342000   286.11495      0.037658231    19.306499      709.85908     -57.767554      652.09153    
   2343000   303.83816      0.037658231    20.688218      753.83085     -60.868173      692.96268    
   2344000   304.38616      0.037658231    16.60439       755.19046     -61.701582      693.48888    
   2345000   285.8007       0.037658231    20.955114      709.07943     -57.113235      651.96619    
   2346000   305.70622      0.037658231    21.127858      758.46556     -62.896474      695.56909    
   2347000   304.78316      0.037658231    16.883536      756.17543     -58.040469      698.13496    
   2348000   296.45853      0.037658231    20.647495      735.52179     -56.537282      678.9845     
   2349000   299.93741      0.037658231    22.230867      744.15299     -66.988988      677.164      
   2350000   298.95785      0.037658231    20.543985      741.72267     -63.856636      677.86603    
   2351000   300.82837      0.037658231    18.558613      746.36347     -58.869065      687.49441    
   2352000   309.50123      0.037658231    17.718073      767.88108     -59.720703      708.16038    
   2353000   311.98667      0.037658231    19.323973      774.04753     -60.643909      713.40362    
   2354000   289.75277      0.037658231    21.994283      718.88462     -58.063706      660.82092    
   2355000   304.32975      0.037658231    20.438428      755.05049     -58.085227      696.96526    
   2356000   304.10644      0.037658231    15.277816      754.49646     -65.290724      689.20574    
   2357000   302.52398      0.037658231    23.368907      750.57032     -58.883563      691.68676    
   2358000   306.31676      0.037658231    15.942797      759.98033     -62.970533      697.00979    
   2359000   295.42011      0.037658231    23.199185      732.94544     -62.755038      670.1904     
   2360000   301.63711      0.037658231    23.477255      748.36999     -61.810064      686.55993    
   2361000   296.31711      0.037658231    16.603227      735.17093     -62.216013      672.95491    
   2362000   292.86717      0.037658231    17.13713       726.61152     -59.257784      667.35374    
   2363000   306.5954       0.037658231    21.484608      760.67164     -60.98221       699.68943    
   2364000   309.64597      0.037658231    28.061154      768.24019     -61.321531      706.91866    
   2365000   296.5883       0.037658231    11.733764      735.84375     -60.112657      675.73109    
   2366000   296.82382      0.037658231    18.617715      736.42808     -55.758055      680.67003    
   2367000   311.3164       0.037658231    28.166213      772.38457     -54.911651      717.47291    
   2368000   297.4022       0.037658231    18.712823      737.86305     -51.895512      685.96753    
   2369000   316.42309      0.037658231    19.986898      785.05442     -48.156574      736.89785    
   2370000   299.40089      0.037658231    19.252639      742.82186     -53.083735      689.73812    
   2371000   301.64925      0.037658231    23.662326      748.40011     -53.2152        695.18491    
   2372000   304.10725      0.037658231    17.441037      754.49846     -57.957412      696.54105    
   2373000   284.50852      0.037658231    16.508026      705.87349     -62.82469       643.0488     
   2374000   293.677        0.037658231    17.899111      728.62073     -58.958256      669.66247    
   2375000   295.94927      0.037658231    22.835577      734.25829     -63.548762      670.70953    
   2376000   297.11806      0.037658231    18.987202      737.1581      -64.693372      672.46473    
   2377000   284.59325      0.037658231    18.264334      706.0837      -62.122173      643.96152    
   2378000   297.33767      0.037658231    25.841992      737.70296     -52.34491       685.35805    
   2379000   316.14656      0.037658231    18.475478      784.36834     -52.428769      731.93957    
   2380000   313.85803      0.037658231    20.572095      778.69044     -53.251356      725.43908    
   2381000   296.32288      0.037658231    20.129514      735.18522     -58.309066      676.87616    
   2382000   286.05844      0.037658231    18.122462      709.71889     -59.84068       649.87821    
   2383000   300.22669      0.037658231    18.300829      744.8707      -57.300615      687.57009    
   2384000   310.28385      0.037658231    17.466178      769.82279     -63.792903      706.02989    
   2385000   293.53614      0.037658231    21.22994       728.27126     -61.987922      666.28334    
   2386000   303.32234      0.037658231    16.040621      752.55108     -64.775989      687.77509    
   2387000   313.01772      0.037658231    15.581011      776.60559     -58.478653      718.12694    
   2388000   295.03507      0.037658231    19.671774      731.99014     -59.751607      672.23854    
   2389000   291.44412      0.037658231    14.129304      723.0809      -51.470505      671.6104     
   2390000   300.85724      0.037658231    0.71836214     746.43511     -56.38668       690.04843    
   2391000   309.86025      0.037658231    28.551404      768.77181     -52.223653      716.54816    
   2392000   289.65783      0.037658231    23.907147      718.64905     -52.891928      665.75712    
   2393000   298.28478      0.037658231    25.519699      740.05276     -57.152977      682.89978    
   2394000   297.29437      0.037658231    10.335336      737.59552     -56.72539       680.87013    
   2395000   317.57883      0.037658231    28.01557       787.92183     -60.663204      727.25863    
   2396000   298.63575      0.037658231    18.352126      740.92352     -64.153762      676.76976    
   2397000   292.73322      0.037658231    14.85842       726.27919     -54.264828      672.01436    
   2398000   306.78872      0.037658231    8.2920848      761.15127     -56.872277      704.279      
   2399000   311.6358       0.037658231    21.697726      773.17701     -58.276081      714.90093    
   2400000   311.63807      0.037658231    29.690675      773.18264     -61.839079      711.34357    
   2401000   289.05191      0.037658231    16.667394      717.14576     -66.348132      650.79762    
   2402000   307.63849      0.037658231    12.103005      763.25957     -67.712296      695.54728    
   2403000   303.11957      0.037658231    21.376517      752.04801     -60.994529      691.05348    
   2404000   307.31661      0.037658231    24.357567      762.46097     -62.230197      700.23078    
   2405000   303.71335      0.037658231    19.896938      753.52119     -59.258867      694.26232    
   2406000   297.89202      0.037658231    21.300335      739.07832     -53.36778       685.71054    
   2407000   300.01237      0.037658231    20.857882      744.33896     -59.218332      685.12062    
   2408000   302.0652       0.037658231    16.259531      749.4321      -58.319164      691.11294    
   2409000   298.94703      0.037658231    14.525218      741.69582     -61.935253      679.76057    
   2410000   302.57346      0.037658231    19.982307      750.6931      -66.018771      684.67433    
   2411000   299.431        0.037658231    22.054923      742.89657     -57.340875      685.55569    
   2412000   305.77382      0.037658231    16.451655      758.63328     -54.415395      704.21788    
   2413000   295.88109      0.037658231    11.143403      734.08913     -60.947312      673.14182    
   2414000   287.6283       0.037658231    20.40748       713.61375     -56.735333      656.87842    
   2415000   290.20526      0.037658231    9.5286389      720.00724     -59.43657       660.57067    
   2416000   300.29351      0.037658231    19.391333      745.03648     -61.728384      683.3081     
   2417000   303.07843      0.037658231    21.137273      751.94593     -59.731973      692.21396    
   2418000   292.96525      0.037658231    16.165974      726.85486     -60.06132       666.79354    
   2419000   303.0858       0.037658231    22.261883      751.96422     -61.863843      690.10037    
   2420000   322.57459      0.037658231    22.07446       800.31644     -61.752907      738.56354    
   2421000   293.93206      0.037658231    19.861449      729.25354     -60.268094      668.98544    
   2422000   295.96407      0.037658231    18.108336      734.29502     -63.945159      670.34986    
   2423000   295.33097      0.037658231    21.655051      732.72428     -60.330267      672.39402    
   2424000   314.98703      0.037658231    20.297034      781.4915      -62.951297      718.5402     
   2425000   302.60516      0.037658231    20.509738      750.77174     -58.005078      692.76666    
   2426000   301.1237       0.037658231    16.468698      747.09621     -64.095648      683.00056    
   2427000   297.58837      0.037658231    21.013086      738.32495     -63.079515      675.24543    
   2428000   302.34985      0.037658231    20.733642      750.13832     -65.382517      684.7558     
   2429000   323.39946      0.037658231    22.010095      802.36297     -67.452669      734.9103     
   2430000   297.00478      0.037658231    17.464035      736.87704     -60.564266      676.31277    
   2431000   288.7248       0.037658231    23.739472      716.33419     -57.821867      658.51232    
   2432000   302.8571       0.037658231    27.459455      751.39683     -59.679671      691.71715    
   2433000   303.61619      0.037658231    15.901697      753.28014     -70.16683       683.11331    
   2434000   278.15042      0.037658231    14.494464      690.09887     -62.000821      628.09805    
   2435000   297.55581      0.037658231    19.302117      738.24418     -64.121447      674.12273    
   2436000   298.59767      0.037658231    23.526342      740.82906     -64.404973      676.42408    
   2437000   295.84402      0.037658231    19.068135      733.99717     -59.004424      674.99274    
   2438000   302.96646      0.037658231    16.461521      751.66813     -58.141658      693.52647    
   2439000   302.69458      0.037658231    19.031729      750.9936      -52.984581      698.00902    
   2440000   297.20274      0.037658231    14.31398       737.36818     -57.38513       679.98305    
   2441000   284.41759      0.037658231    18.093083      705.64787     -59.627902      646.01997    
   2442000   293.58177      0.037658231    15.685532      728.38446     -59.266323      669.11813    
   2443000   313.732        0.037658231    21.330882      778.37773     -64.163493      714.21424    
   2444000   293.08709      0.037658231    22.693718      727.15715     -58.037221      669.11993    
   2445000   283.68013      0.037658231    24.55008       703.81823     -65.216194      638.60203    
   2446000   307.8638       0.037658231    19.145608      763.81857     -56.106411      707.71216    
   2447000   304.2512       0.037658231    13.562561      754.85561     -53.169825      701.68579    
   2448000   291.80816      0.037658231    9.5071224      723.98408     -49.240874      674.74321    
   2449000   289.30426      0.037658231    20.928869      717.77185     -51.64825       666.1236     
   2450000   313.17384      0.037658231    23.10643       776.99294     -61.187386      715.80555    
   2451000   298.66231      0.037658231    18.913473      740.98942     -58.181955      682.80746    
   2452000   292.10123      0.037658231    19.43779       724.71121     -54.449166      670.26205    
   2453000   293.9563       0.037658231    19.807484      729.31369     -51.755529      677.55816    
   2454000   309.79513      0.037658231    24.514078      768.61026     -49.971982      718.63828    
   2455000   299.56348      0.037658231    16.11201       743.22525     -54.581514      688.64374    
   2456000   288.6444       0.037658231    10.555564      716.1347      -56.046971      660.08773    
   2457000   289.28462      0.037658231    23.699039      717.72312     -62.070616      655.6525     
   2458000   306.91745      0.037658231    30.851575      761.47065     -63.113266      698.35739    
   2459000   298.86542      0.037658231    14.911129      741.49334     -70.082117      671.41122    
   2460000   294.95026      0.037658231    16.364121      731.77971     -65.699238      666.08048    
   2461000   280.64834      0.037658231    13.672539      696.29626     -61.933202      634.36306    
   2462000   308.27757      0.037658231    27.273607      764.84516     -67.551223      697.29393    
   2463000   308.35195      0.037658231    5.8184598      765.02969     -60.760796      704.26889    
   2464000   291.77496      0.037658231    15.977641      723.90171     -56.922553      666.97916    
   2465000   313.47005      0.037658231    32.415359      777.72784     -65.511117      712.21673    
   2466000   304.20683      0.037658231    10.837587      754.74553     -63.721855      691.02367    
   2467000   283.2919       0.037658231    16.465459      702.85502     -61.172957      641.68206    
   2468000   285.7347       0.037658231    17.770683      708.91568     -65.996443      642.91923    
   2469000   308.63059      0.037658231    22.524552      765.721       -56.355363      709.36564    
   2470000   311.41228      0.037658231    14.488032      772.62244     -57.307556      715.31489    
   2471000   293.63295      0.037658231    18.855293      728.51144     -51.164148      677.3473     
   2472000   289.70485      0.037658231    20.179654      718.76571     -58.936542      659.82917    
   2473000   311.64083      0.037658231    20.021841      773.1895      -65.592383      707.59712    
   2474000   297.29553      0.037658231    16.40292       737.59841     -62.560506      675.0379     
   2475000   287.7459       0.037658231    19.414543      713.9055      -63.938777      649.96672    
   2476000   303.80146      0.037658231    24.654848      753.7398      -62.383624      691.35617    
   2477000   305.63018      0.037658231    21.618208      758.2769      -63.345969      694.93093    
   2478000   304.28523      0.037658231    20.255524      754.94004     -61.86187       693.07817    
   2479000   277.99575      0.037658231    23.069693      689.71512     -60.388443      629.32668    
   2480000   299.31862      0.037658231    18.424846      742.61773     -56.572093      686.04564    
   2481000   300.80638      0.037658231    18.213395      746.30891     -56.844469      689.46444    
   2482000   306.05374      0.037658231    29.863877      759.32776     -62.63778       696.68998    
   2483000   305.99194      0.037658231    15.635376      759.17444     -65.5281        693.64634    
   2484000   295.12545      0.037658231    4.1158504      732.21437     -68.583279      663.63109    
   2485000   298.49629      0.037658231    20.786715      740.57751     -70.23215       670.34536    
   2486000   299.75444      0.037658231    14.112249      743.69903     -68.918876      674.78015    
   2487000   304.89511      0.037658231    21.605905      756.45317     -61.464003      694.98917    
   2488000   301.08035      0.037658231    20.745263      746.98864     -68.773944      678.2147     
   2489000   279.58922      0.037658231    18.168904      693.66857     -62.971666      630.69691    
   2490000   306.35693      0.037658231   -0.58468753     760.07998     -61.316017      698.76397    
   2491000   303.95648      0.037658231    32.564522      754.1244      -65.168521      688.95588    
   2492000   291.21977      0.037658231    13.901829      722.52428     -60.901278      661.623      
   2493000   285.3655       0.037658231    11.607891      707.99968     -66.660426      641.33925    
   2494000   302.21089      0.037658231    13.321697      749.79354     -62.127273      687.66627    
   2495000   308.22566      0.037658231    22.162021      764.71635     -62.535924      702.18043    
   2496000   289.11211      0.037658231    36.379762      717.29512     -69.954923      647.3402     
   2497000   292.70428      0.037658231    16.566423      726.20737     -65.861322      660.34605    
   2498000   308.00125      0.037658231    12.06222       764.15959     -66.966004      697.19358    
   2499000   317.82542      0.037658231    8.2336191      788.53363     -66.237418      722.29622    
   2500000   289.865        0.037658231    36.220885      719.16305     -63.839317      655.32373    
   2501000   315.00961      0.037658231    13.129071      781.54751     -69.183314      712.3642     
   2502000   307.12289      0.037658231    60.530147      761.98036     -72.833602      689.14675    
   2503000   289.11777      0.037658231    8.2166366      717.30915     -69.30242       648.00673    
   2504000   316.26815      0.037658231   -0.7528053      784.67        -70.081107      714.58889    
   2505000   307.26758      0.037658231    16.116953      762.33933     -62.575337      699.764      
   2506000   295.16606      0.037658231    43.284399      732.31513     -62.405879      669.90925    
   2507000   296.66461      0.037658231    17.850279      736.03307     -54.837652      681.19541    
   2508000   322.84894      0.037658231   -8.7454917      800.99712     -58.147533      742.84959    
   2509000   296.77036      0.037658231    27.260554      736.29544     -55.491529      680.80391    
   2510000   282.01798      0.037658231    39.0134        699.69438     -62.044112      637.65027    
   2511000   303.20366      0.037658231    13.57779       752.25663     -61.62043       690.6362     
   2512000   305.53615      0.037658231    20.581941      758.04362     -67.25623       690.78739    
   2513000   298.09264      0.037658231    29.981142      739.57606     -62.267241      677.30882    
   2514000   286.67212      0.037658231    10.886639      711.24143     -62.124154      649.11727    
   2515000   317.87112      0.037658231    21.951774      788.64702     -59.441883      729.20514    
   2516000   298.76632      0.037658231    22.494921      741.24747     -67.825998      673.42147    
   2517000   287.20726      0.037658231    10.031411      712.56912     -69.146673      643.42245    
   2518000   315.55471      0.037658231    21.115042      782.89995     -67.954855      714.94509    
   2519000   302.03271      0.037658231    29.103294      749.35147     -67.452396      681.89908    
   2520000   289.69974      0.037658231    17.940375      718.75305     -64.730521      654.02253    
   2521000   285.60122      0.037658231    19.318069      708.5845      -62.738946      645.84555    
   2522000   306.95529      0.037658231    17.657189      761.56453     -59.468327      702.0962     
   2523000   312.93564      0.037658231    18.643011      776.40196     -64.432133      711.96982    
   2524000   294.01571      0.037658231    18.961309      729.46108     -66.1576        663.30348    
   2525000   287.49434      0.037658231    22.342939      713.28139     -65.98912       647.29227    
   2526000   305.61712      0.037658231    20.170824      758.24449     -66.472396      691.7721     
   2527000   300.54636      0.037658231    20.383352      745.66381     -67.738729      677.92508    
   2528000   291.23752      0.037658231    17.442041      722.56832     -64.529324      658.03899    
   2529000   302.14812      0.037658231    17.892398      749.63781     -66.62364       683.01417    
   2530000   298.49021      0.037658231    17.098419      740.56243     -69.341971      671.22046    
   2531000   288.3257       0.037658231    16.584422      715.34402     -64.009553      651.33446    
   2532000   294.34317      0.037658231    16.695723      730.27351     -64.272397      666.00111    
   2533000   308.90748      0.037658231    18.884471      766.40798     -70.476326      695.93166    
   2534000   296.26013      0.037658231    20.347495      735.02955     -75.888486      659.14107    
   2535000   295.99083      0.037658231    19.136801      734.36141     -73.681008      660.6804     
   2536000   304.98903      0.037658231    21.85973       756.68618     -69.704174      686.98201    
   2537000   316.47946      0.037658231    19.44301       785.19425     -90.208938      694.98532    
   2538000   294.26473      0.037658231    16.632465      730.0789      -75.493012      654.58589    
   2539000   293.53387      0.037658231    18.196123      728.26563     -79.425674      648.83995    
   2540000   313.29257      0.037658231    20.34444       777.2875      -76.301035      700.98646    
   2541000   302.63985      0.037658231    26.419368      750.85781     -76.698639      674.15918    
   2542000   290.56004      0.037658231    19.081797      720.88746     -74.158559      646.7289     
   2543000   301.24799      0.037658231    18.102421      747.40458     -82.61021       664.79437    
   2544000   306.27239      0.037658231    19.547174      759.87024     -70.940571      688.92967    
   2545000   300.11909      0.037658231    14.250507      744.60374     -67.824289      676.77945    
   2546000   308.06459      0.037658231    17.419208      764.31675     -72.997623      691.31913    
   2547000   297.01573      0.037658231    18.977119      736.9042      -68.363549      668.54065    
   2548000   311.37362      0.037658231    20.77148       772.52654     -72.486639      700.0399     
   2549000   305.30724      0.037658231    15.090123      757.47567     -75.493659      681.98201    
   2550000   303.80888      0.037658231    17.821095      753.7582      -75.057774      678.70042    
   2551000   301.25023      0.037658231    22.162397      747.41013     -77.829533      669.5806     
   2552000   314.58172      0.037658231    19.923792      780.48591     -71.353272      709.13264    
   2553000   304.80126      0.037658231    21.090844      756.22032     -61.380828      694.83949    
   2554000   303.53003      0.037658231    20.063865      753.06636     -62.160161      690.9062     
   2555000   299.07626      0.037658231    21.102365      742.01643     -74.03784       667.9786     
   2556000   291.16879      0.037658231    15.055938      722.39779     -66.205766      656.19202    
   2557000   293.01011      0.037658231    21.800323      726.96617     -74.718526      652.24764    
   2558000   312.26612      0.037658231    37.051322      774.74085     -65.631321      709.10953    
   2559000   305.85268      0.037658231    26.961863      758.82892     -62.417627      696.4113     
   2560000   304.44439      0.037658231    22.450272      755.33492     -67.481365      687.85356    
   2561000   296.87854      0.037658231    16.854204      736.56383     -71.658675      664.90516    
   2562000   293.96786      0.037658231    15.977413      729.34237     -75.288594      654.05378    
   2563000   305.43622      0.037658231    21.854746      757.79567     -67.159073      690.6366     
   2564000   301.88002      0.037658231    16.449946      748.97265     -75.211068      673.76159    
   2565000   291.44563      0.037658231    21.184038      723.08464     -75.829621      647.25502    
   2566000   313.81165      0.037658231    16.065428      778.57536     -69.152404      709.42296    
   2567000   306.05087      0.037658231    16.292265      759.32064     -72.310484      687.01015    
   2568000   289.54879      0.037658231    17.596477      718.37853     -64.17309       654.20544    
   2569000   292.6503       0.037658231    22.967265      726.07346     -65.654186      660.41928    
   2570000   294.6836       0.037658231    38.276802      731.11812     -58.785291      672.33283    
   2571000   321.07464      0.037658231    26.399583      796.59503     -64.877825      731.7172     
   2572000   291.32683      0.037658231    10.990043      722.78989     -60.240738      662.54915    
   2573000   298.63109      0.037658231    14.162411      740.91196     -67.248765      673.6632     
   2574000   295.24632      0.037658231    25.224802      732.51425     -63.543501      668.97075    
   2575000   306.84377      0.037658231    19.5498        761.28784     -64.138275      697.14957    
   2576000   291.70401      0.037658231    15.750326      723.7257      -63.113676      660.61202    
   2577000   293.4922       0.037658231    13.344396      728.16224     -69.670844      658.4914     
   2578000   309.6798       0.037658231    19.074525      768.32412     -69.561644      698.76247    
   2579000   295.71478      0.037658231    23.06317       733.67653     -69.822294      663.85424    
   2580000   305.83762      0.037658231    22.426714      758.79157     -66.132537      692.65903    
   2581000   299.89393      0.037658231    12.351264      744.04512     -70.443253      673.60186    
   2582000   291.54856      0.037658231    32.53746       723.34003     -67.828019      655.51201    
   2583000   309.12349      0.037658231    27.47103       766.94391     -76.349316      690.59459    
   2584000   300.42862      0.037658231   -21.470369      745.37168     -70.986163      674.38551    
   2585000   302.80684      0.037658231    16.926739      751.27213     -73.623258      677.64887    
   2586000   303.0797       0.037658231    17.280063      751.94909     -70.275898      681.67319    
   2587000   288.07376      0.037658231    24.584336      714.71893     -74.294812      640.42412    
   2588000   304.11178      0.037658231    22.145613      754.50971     -79.48034       675.02937    
   2589000   317.39743      0.037658231    18.516957      787.47178     -80.814137      706.65764    
   2590000   295.42095      0.037658231    15.515872      732.94751     -74.84737       658.10014    
   2591000   296.8689       0.037658231    14.738353      736.53992     -77.557714      658.98221    
   2592000   305.82586      0.037658231    20.816297      758.7624      -80.055508      678.70689    
   2593000   306.90505      0.037658231    19.206256      761.4399      -76.072826      685.36707    
   2594000   286.17065      0.037658231    17.541744      709.99728     -78.819415      631.17786    
   2595000   298.29639      0.037658231    20.10667       740.08158     -79.53133       660.55025    
   2596000   306.19202      0.037658231    12.463471      759.67083     -77.291967      682.37887    
   2597000   292.165        0.037658231    21.37275       724.86942     -71.427216      653.44221    
   2598000   290.57618      0.037658231    24.029963      720.92751     -80.005905      640.92161    
   2599000   303.24589      0.037658231    18.238173      752.3614      -84.624645      667.73676    
   2600000   310.56668      0.037658231    17.135107      770.52449     -73.994316      696.53017    
   2601000   279.60637      0.037658231    19.48247       693.71111     -77.318208      616.39291    
   2602000   309.37411      0.037658231    26.901599      767.5657      -73.108287      694.45742    
   2603000   305.84577      0.037658231    23.134275      758.81178     -75.173012      683.63877    
   2604000   297.24147      0.037658231   -24.567042      737.46428     -68.49356       668.97072    
   2605000   294.20844      0.037658231    19.381632      729.93925     -72.036414      657.90284    
   2606000   299.74349      0.037658231    23.660113      743.67187     -68.953286      674.71858    
   2607000   316.68968      0.037658231    16.809989      785.71582     -73.713248      712.00257    
   2608000   298.48758      0.037658231    0.32985601     740.55592     -71.293682      669.26224    
   2609000   295.76304      0.037658231    19.846594      733.79626     -73.186152      660.61011    
   2610000   303.35211      0.037658231    35.495825      752.62495     -71.161962      681.46299    
   2611000   315.93186      0.037658231    25.750208      783.83565     -73.037104      710.79854    
   2612000   323.50499      0.037658231    6.3973154      802.6248      -67.688045      734.93675    
   2613000   294.06364      0.037658231    21.22005       729.57999     -69.399627      660.18036    
   2614000   298.30192      0.037658231    26.003945      740.09528     -69.163178      670.9321     
   2615000   308.2182       0.037658231    15.32035       764.69784     -74.230739      690.46711    
   2616000   294.83865      0.037658231    15.974809      731.50281     -73.301286      658.20153    
   2617000   292.16184      0.037658231    24.079878      724.86157     -70.253377      654.60819    
   2618000   301.04001      0.037658231    26.16899       746.88856     -61.593981      685.29458    
   2619000   306.27182      0.037658231    16.077564      759.86883     -66.779958      693.08887    
   2620000   302.19409      0.037658231    17.065054      749.75187     -68.160463      681.59141    
   2621000   295.60458      0.037658231    16.108327      733.40311     -63.299721      670.10339    
   2622000   302.46928      0.037658231    23.497176      750.43463     -60.817929      689.6167     
   2623000   297.89085      0.037658231    19.984434      739.0754      -61.543402      677.532      
   2624000   309.25701      0.037658231    11.883082      767.27516     -60.067868      707.20729    
   2625000   300.43509      0.037658231    19.237473      745.38775     -63.884996      681.50275    
   2626000   302.95848      0.037658231    34.576828      751.64833     -62.529536      689.11879    
   2627000   299.926        0.037658231    17.575751      744.12468     -62.037116      682.08757    
   2628000   300.27066      0.037658231   -4.1164584      744.97979     -63.646432      681.33335    
   2629000   304.8881       0.037658231    18.135082      756.43578     -63.62124       692.81454    
   2630000   297.8173       0.037658231    21.095848      738.89293     -67.972962      670.91997    
   2631000   291.52566      0.037658231    18.535811      723.2832      -59.332633      663.95057    
   2632000   297.59288      0.037658231    15.096451      738.33615     -61.76181       676.57434    
   2633000   311.33465      0.037658231    18.409149      772.42984     -63.415369      709.01447    
   2634000   303.8936       0.037658231    27.775683      753.9684      -60.638456      693.32995    
   2635000   291.34564      0.037658231    23.028483      722.83657     -62.641607      660.19497    
   2636000   291.87659      0.037658231    15.924089      724.15386     -63.686218      660.46764    
   2637000   299.94969      0.037658231    18.197232      744.18344     -63.422204      680.76124    
   2638000   312.93369      0.037658231    20.538025      776.39712     -60.076617      716.32051    
   2639000   296.94197      0.037658231    23.474817      736.7212      -64.003357      672.71785    
   2640000   300.06452      0.037658231    18.402081      744.46834     -63.021454      681.44688    
   2641000   300.76864      0.037658231    19.459541      746.21529     -67.20888       679.00641    
   2642000   300.49034      0.037658231    21.861235      745.52482     -63.559884      681.96493    
   2643000   309.66679      0.037658231    22.311244      768.29185     -55.497095      712.79476    
   2644000   309.08263      0.037658231    14.654821      766.84252     -60.905831      705.93668    
   2645000   288.97842      0.037658231    17.542697      716.96343     -65.219031      651.7444     
   2646000   311.86982      0.037658231    20.170957      773.75761     -57.241193      716.51642    
   2647000   308.52701      0.037658231    21.011237      765.46402     -51.514393      713.94962    
   2648000   304.02497      0.037658231    17.23352       754.29432     -56.171683      698.12264    
   2649000   291.16949      0.037658231    18.167596      722.39954     -57.951352      664.44819    
   2650000   300.58787      0.037658231    19.373859      745.76679     -62.600827      683.16596    
   2651000   313.63851      0.037658231    21.266757      778.1458      -59.686086      718.45971    
   2652000   296.00615      0.037658231    19.122647      734.39941     -60.374031      674.02537    
   2653000   290.95759      0.037658231    18.560669      721.87381     -62.699381      659.17443    
   2654000   297.7898       0.037658231    20.639623      738.8247      -61.595241      677.22945    
   2655000   306.65909      0.037658231    19.691181      760.82966     -69.098082      691.73157    
   2656000   297.34845      0.037658231    21.602683      737.72971     -68.190799      669.53891    
   2657000   283.52355      0.037658231    13.273655      703.42974     -65.736655      637.69308    
   2658000   294.09624      0.037658231    12.181445      729.66087     -69.422455      660.23841    
   2659000   307.49841      0.037658231    19.554652      762.91204     -63.032887      699.87915    
   2660000   304.90936      0.037658231    19.719619      756.48853     -59.335258      697.15327    
   2661000   284.2279       0.037658231    21.854993      705.17727     -58.11075       647.06652    
   2662000   301.79122      0.037658231    4.0487417      748.75232     -64.134705      684.61762    
   2663000   303.73652      0.037658231    21.486606      753.57869     -62.519802      691.05889    
   2664000   300.23863      0.037658231    18.980265      744.90032     -70.585957      674.31436    
   2665000   299.84725      0.037658231    15.273555      743.92929     -61.127407      682.80188    
   2666000   308.83842      0.037658231    20.112633      766.23662     -62.492619      703.744      
   2667000   298.5878       0.037658231    26.051492      740.80457     -62.758824      678.04575    
   2668000   288.77059      0.037658231    17.958372      716.44779     -70.727534      645.72026    
   2669000   296.89183      0.037658231    18.760131      736.59681     -71.594387      665.00242    
   2670000   301.12571      0.037658231    20.169185      747.10118     -67.759918      679.34126    
   2671000   300.73464      0.037658231    19.122586      746.13093     -63.52257       682.60836    
   2672000   316.02687      0.037658231    19.150572      784.07138     -64.173747      719.89763    
   2673000   295.46719      0.037658231    16.903465      733.06223     -63.073457      669.98877    
   2674000   296.87545      0.037658231    23.411795      736.55618     -60.139418      676.41676    
   2675000   309.41655      0.037658231    24.084038      767.67099     -63.57635       704.09464    
   2676000   310.77872      0.037658231    12.026069      771.05057     -62.524784      708.52578    
   2677000   296.98136      0.037658231    12.600787      736.81893     -62.57649       674.24244    
   2678000   284.57032      0.037658231    14.453024      706.0268      -62.249135      643.77766    
   2679000   310.23206      0.037658231    33.005283      769.6943      -62.412408      707.28189    
   2680000   303.8206       0.037658231    22.81249       753.78727     -64.427285      689.35999    
   2681000   291.92463      0.037658231    12.017505      724.27304     -59.79902       664.47402    
   2682000   292.47154      0.037658231    25.89218       725.62995     -60.474091      665.15586    
   2683000   305.94202      0.037658231    19.934378      759.05058     -63.680621      695.36996    
   2684000   311.57825      0.037658231    21.885255      773.03422     -65.603353      707.43086    
   2685000   278.96643      0.037658231    16.878549      692.1234      -67.806654      624.31674    
   2686000   290.56775      0.037658231    19.403403      720.9066      -63.366999      657.5396     
   2687000   313.75518      0.037658231    26.515778      778.43526     -70.501656      707.93361    
   2688000   301.20355      0.037658231    15.509192      747.2943      -69.387372      677.90693    
   2689000   291.23418      0.037658231    15.859692      722.56002     -70.732847      651.82718    
   2690000   284.87024      0.037658231    21.299527      706.77092     -71.501285      635.26963    
   2691000   312.5127       0.037658231    21.748941      775.35263     -75.264367      700.08826    
   2692000   312.47481      0.037658231    22.019731      775.25861     -72.804734      702.45387    
   2693000   302.89111      0.037658231    17.550643      751.48119     -70.451788      681.0294     
   2694000   280.18759      0.037658231    19.338764      695.15314     -69.952594      625.20055    
   2695000   286.54836      0.037658231    25.312144      710.93439     -70.378594      640.5558     
   2696000   302.92035      0.037658231    20.711273      751.55373     -70.705399      680.84833    
   2697000   307.13754      0.037658231    17.92567       762.01671     -71.388911      690.6278     
   2698000   293.22236      0.037658231    13.106982      727.49277     -66.416132      661.07664    
   2699000   299.40227      0.037658231    18.086462      742.8253      -71.295659      671.52964    
   2700000   301.95         0.037658231    17.96935       749.14628     -74.540076      674.6062     
   2701000   296.64282      0.037658231    29.415346      735.979       -72.354345      663.62466    
   2702000   303.04599      0.037658231    22.3439        751.86545     -70.041841      681.82361    
   2703000   307.26275      0.037658231    18.310761      762.32735     -68.255743      694.07161    
   2704000   297.51694      0.037658231    13.969577      738.14773     -66.194717      671.95302    
   2705000   300.32149      0.037658231    14.411439      745.10588     -64.565608      680.54027    
   2706000   285.31384      0.037658231    32.055463      707.8715      -68.354887      639.51661    
   2707000   310.07065      0.037658231    21.341229      769.29384     -62.026254      707.26758    
   2708000   302.99929      0.037658231    18.817784      751.7496      -71.416144      680.33346    
   2709000   291.59028      0.037658231    18.435075      723.44351     -64.873963      658.56955    
   2710000   304.57571      0.037658231    18.974757      755.66073     -68.492124      687.16861    
   2711000   301.90362      0.037658231    19.882961      749.03119     -67.886351      681.14484    
   2712000   292.06837      0.037658231    19.258593      724.62967     -68.547554      656.08212    
   2713000   298.11679      0.037658231    17.670884      739.63598     -64.20456       675.43142    
   2714000   310.66219      0.037658231    18.76116       770.76145     -68.590665      702.17079    
   2715000   295.06352      0.037658231    20.590638      732.06072     -65.398968      666.66175    
   2716000   292.72531      0.037658231    24.996781      726.25957     -62.879209      663.38036    
   2717000   298.82663      0.037658231    16.581886      741.3971      -70.544095      670.85301    
   2718000   303.46444      0.037658231    18.619765      752.90364     -67.311468      685.59217    
   2719000   298.9451       0.037658231    19.535955      741.69102     -66.11227       675.57875    
   2720000   290.62597      0.037658231    20.35359       721.05105     -64.261554      656.7895     
   2721000   297.88899      0.037658231    16.683195      739.0708      -63.188145      675.88266    
   2722000   306.90512      0.037658231    19.662653      761.44005     -59.405732      702.03432    
   2723000   291.40529      0.037658231    23.966585      722.98456     -54.218176      668.76638    
   2724000   294.30674      0.037658231    17.700993      730.18313     -54.344079      675.83905    
   2725000   307.07078      0.037658231    23.318518      761.85108     -56.763233      705.08785    
   2726000   290.93374      0.037658231    20.914619      721.81463     -57.716388      664.09824    
   2727000   307.34501      0.037658231    17.814253      762.53143     -58.466178      704.06525    
   2728000   304.34928      0.037658231    17.354749      755.09896     -68.94832       686.15064    
   2729000   302.58878      0.037658231    20.947446      750.7311      -66.910742      683.82036    
   2730000   283.58814      0.037658231    19.21001       703.59        -72.850022      630.73997    
   2731000   298.06563      0.037658231    20.019483      739.50905     -66.164677      673.34438    
   2732000   306.21183      0.037658231    18.766545      759.71999     -67.434289      692.2857     
   2733000   303.77107      0.037658231    17.578218      753.66441     -60.189818      693.47459    
   2734000   293.89801      0.037658231    16.631292      729.16907     -63.417473      665.7516     
   2735000   294.77534      0.037658231    16.064708      731.34575     -66.849016      664.49673    
   2736000   296.10469      0.037658231    13.821386      734.64389     -67.271882      667.37201    
   2737000   302.94132      0.037658231    18.551085      751.60577     -65.84992       685.75585    
   2738000   291.06566      0.037658231    15.868496      722.14193     -58.54482       663.59711    
   2739000   297.09083      0.037658231    16.771867      737.09053     -63.573784      673.51675    
   2740000   301.17489      0.037658231    23.4197        747.22319     -62.622637      684.60056    
   2741000   305.35048      0.037658231    19.481887      757.58295     -56.085346      701.4976     
   2742000   294.35261      0.037658231    18.137471      730.29694     -53.635114      676.66183    
   2743000   286.61208      0.037658231    21.325049      711.09248     -49.742866      661.34961    
   2744000   308.6825       0.037658231    20.95392       765.84978     -52.474577      713.3752     
   2745000   298.80237      0.037658231    18.674604      741.33692     -51.643743      689.69318    
   2746000   285.98683      0.037658231    16.777349      709.54122     -50.239171      659.30205    
   2747000   309.39724      0.037658231    20.094568      767.62309     -56.797058      710.82603    
   2748000   308.47085      0.037658231    22.443803      765.32467     -56.698849      708.62582    
   2749000   291.4525       0.037658231    17.793302      723.10167     -57.697179      665.4045     
   2750000   293.07443      0.037658231    23.115426      727.12574     -60.070398      667.05534    
   2751000   319.97906      0.037658231    22.281022      793.87687     -66.232838      727.64403    
   2752000   303.55133      0.037658231    19.443165      753.11922     -67.399006      685.72022    
   2753000   290.23263      0.037658231    19.385442      720.07516     -65.325042      654.75012    
   2754000   286.14578      0.037658231    18.901052      709.93557     -72.643798      637.29177    
   2755000   303.36869      0.037658231    17.67123       752.66609     -72.471335      680.19476    
   2756000   294.15085      0.037658231    15.580683      729.79637     -72.094929      657.70144    
   2757000   304.89317      0.037658231    22.562031      756.44835     -68.194967      688.25338    
   2758000   309.20162      0.037658231    15.18536       767.13774     -74.60572       692.53202    
   2759000   292.7127       0.037658231    14.116623      726.22829     -79.577449      646.65084    
   2760000   295.31702      0.037658231    17.263623      732.68968     -69.804934      662.88474    
   2761000   295.47005      0.037658231    20.559579      733.06933     -59.841424      673.22791    
   2762000   315.25203      0.037658231    22.236406      782.14899     -65.220651      716.92834    
   2763000   308.2888       0.037658231    19.943695      764.87301     -63.944592      700.92842    
   2764000   293.12203      0.037658231    19.581581      727.24385     -65.858883      661.38496    
   2765000   306.85541      0.037658231    21.19682       761.31673     -69.294282      692.02245    
   2766000   300.57513      0.037658231    11.950596      745.73519     -69.075262      676.65993    
   2767000   292.24587      0.037658231    17.653592      725.07006     -66.605869      658.46419    
   2768000   294.18484      0.037658231    17.925954      729.8807      -65.850407      664.0303     
   2769000   292.64433      0.037658231    13.661006      726.05866     -73.077144      652.98151    
   2770000   309.56377      0.037658231    18.760613      768.03626     -66.009051      702.02721    
   2771000   285.58688      0.037658231    15.560962      708.54892     -64.747112      643.8018     
   2772000   294.09023      0.037658231    18.745086      729.64596     -67.909538      661.73642    
   2773000   321.68975      0.037658231    20.907051      798.12114     -66.486362      731.63478    
   2774000   308.54561      0.037658231    11.835791      765.51017     -69.593083      695.91708    
   2775000   285.71065      0.037658231    18.57146       708.856       -69.173413      639.68258    
   2776000   301.99727      0.037658231    26.789073      749.26354     -68.388711      680.87483    
   2777000   303.02833      0.037658231    25.071885      751.82163     -67.195179      684.62645    
   2778000   310.36128      0.037658231    19.015821      770.01488     -69.032299      700.98258    
   2779000   284.37489      0.037658231    17.825443      705.54194     -72.231138      633.3108     
   2780000   306.80097      0.037658231    29.491449      761.18166     -64.629954      696.5517     
   2781000   303.21954      0.037658231    20.225495      752.29605     -64.334756      687.96129    
   2782000   292.32223      0.037658231    18.680286      725.2595      -60.356334      664.90317    
   2783000   291.50684      0.037658231    17.080078      723.2365      -59.913245      663.32326    
   2784000   310.19028      0.037658231    21.979536      769.59062     -61.451453      708.13917    
   2785000   297.97003      0.037658231    16.49293       739.27185     -58.022934      681.24892    
   2786000   295.06642      0.037658231    13.602188      732.06792     -61.423737      670.64419    
   2787000   300.87066      0.037658231    20.41427       746.46839     -58.739421      687.72897    
   2788000   298.63239      0.037658231    19.728316      740.9152      -68.544973      672.37022    
   2789000   309.9809       0.037658231    22.892614      769.07115     -57.35299       711.71816    
   2790000   308.95042      0.037658231    20.738043      766.51452     -67.874014      698.6405     
   2791000   275.49821      0.037658231    25.205926      683.51865     -64.593793      618.92485    
   2792000   300.20708      0.037658231    16.409908      744.82204     -61.276473      683.54557    
   2793000   309.92264      0.037658231    12.524459      768.92662     -59.716338      709.21028    
   2794000   298.58547      0.037658231    22.686608      740.79878     -62.98717       677.81161    
   2795000   295.01172      0.037658231    19.597705      731.9322      -60.522298      671.40991    
   2796000   305.62784      0.037658231    15.698372      758.2711      -61.442251      696.82885    
   2797000   298.88385      0.037658231    19.911731      741.53907     -60.150037      681.38904    
   2798000   300.00749      0.037658231    24.821248      744.32686     -60.936375      683.39049    
   2799000   300.0321       0.037658231    18.189572      744.38792     -61.693401      682.69451    
   2800000   302.76712      0.037658231    17.655854      751.17357     -63.103544      688.07003    
   2801000   304.84367      0.037658231    24.303355      756.32555     -62.665032      693.66052    
   2802000   292.65369      0.037658231    22.138124      726.08187     -62.835995      663.24588    
   2803000   285.01324      0.037658231    13.798009      707.12569     -62.80684       644.31885    
   2804000   308.82615      0.037658231    16.36669       766.20619     -58.482891      707.7233     
   2805000   297.7974       0.037658231    20.795332      738.84357     -57.141071      681.7025     
   2806000   295.82486      0.037658231    25.249273      733.94964     -58.438032      675.51161    
   2807000   288.54188      0.037658231    16.04946       715.88036     -70.012938      645.86742    
   2808000   303.58576      0.037658231    19.125754      753.20464     -70.260801      682.94384    
   2809000   299.36975      0.037658231    23.241742      742.7446      -65.264653      677.47995    
   2810000   284.75403      0.037658231    16.941796      706.48261     -71.631567      634.85104    
   2811000   309.40282      0.037658231    18.680118      767.63693     -70.600593      697.03634    
   2812000   303.73103      0.037658231    19.340578      753.56507     -63.094994      690.47007    
   2813000   293.19937      0.037658231    16.250698      727.43572     -59.095037      668.34068    
   2814000   301.78993      0.037658231    26.447063      748.74914     -57.935703      690.81344    
   2815000   299.12858      0.037658231    16.551851      742.14625     -59.544756      682.6015     
   2816000   291.74666      0.037658231    20.539049      723.8315      -55.801635      668.02987    
   2817000   312.74272      0.037658231    21.627356      775.92331     -53.722408      722.2009     
   2818000   299.33297      0.037658231    19.68657       742.65335     -53.641031      689.01232    
   2819000   301.28595      0.037658231    8.4406128      747.49875     -59.863199      687.63555    
   2820000   312.96251      0.037658231    10.076101      776.46862     -56.430728      720.03789    
   2821000   305.53898      0.037658231    25.709973      758.05064     -65.394604      692.65604    
   2822000   308.3607       0.037658231    24.113514      765.05139     -64.466209      700.58518    
   2823000   299.14015      0.037658231    25.892593      742.17497     -67.292008      674.88296    
   2824000   297.39625      0.037658231    10.121371      737.8483      -66.00062       671.84768    
   2825000   298.24598      0.037658231    18.399751      739.9565      -65.751932      674.20457    
   2826000   298.7568       0.037658231    21.752859      741.22386     -74.094287      667.12958    
   2827000   303.60767      0.037658231    32.668683      753.25899     -70.003594      683.2554     
   2828000   290.62686      0.037658231    13.994812      721.05324     -78.713821      642.33942    
   2829000   318.14567      0.037658231    10.822895      789.32818     -80.080163      709.24802    
   2830000   289.87263      0.037658231    25.596371      719.18199     -77.270734      641.91126    
   2831000   286.46982      0.037658231    17.15541       710.73953     -67.279284      643.46024    
   2832000   302.65425      0.037658231    20.844721      750.89353     -67.601448      683.29208    
   2833000   300.57675      0.037658231    19.344949      745.7392      -67.579123      678.16008    
   2834000   291.81736      0.037658231    20.8939        724.0069      -60.066756      663.94015    
   2835000   299.66593      0.037658231    18.209474      743.47944     -62.041686      681.43775    
   2836000   300.3516       0.037658231    19.884285      745.18061     -63.990734      681.18987    
   2837000   301.57581      0.037658231    18.998164      748.2179      -63.622055      684.59584    
   2838000   299.38605      0.037658231    16.617331      742.78505     -64.207898      678.57715    
   2839000   299.99415      0.037658231    16.198128      744.29376     -61.384264      682.9095     
   2840000   293.49795      0.037658231    22.463154      728.1765      -61.361775      666.81472    
   2841000   304.09428      0.037658231    21.808587      754.46629     -67.069709      687.39659    
   2842000   308.12563      0.037658231    16.46636       764.46819     -69.058234      695.40996    
   2843000   303.17078      0.037658231    19.395551      752.17506     -65.018858      687.1562     
   2844000   305.50054      0.037658231    20.325596      757.95526     -62.212167      695.74309    
   2845000   306.02967      0.037658231    15.696575      759.26804     -64.611075      694.65697    
   2846000   298.93208      0.037658231    18.073653      741.65873     -61.171899      680.48683    
   2847000   300.59944      0.037658231    18.459434      745.7955      -63.47381       682.32169    
   2848000   301.55852      0.037658231    19.661839      748.17501     -60.610131      687.56488    
   2849000   316.74648      0.037658231    17.366181      785.85676     -60.866378      724.99038    
   2850000   286.60173      0.037658231    16.411642      711.0668      -67.255612      643.81118    
   2851000   300.34565      0.037658231    23.391087      745.16584     -71.178825      673.98702    
   2852000   307.84024      0.037658231    19.816359      763.76012     -59.943503      703.81662    
   2853000   293.00259      0.037658231    11.219521      726.9475      -65.292537      661.65496    
   2854000   297.5146       0.037658231    38.830647      738.14193     -69.166612      668.97532    
   2855000   305.05954      0.037658231    14.268121      756.86112     -71.100244      685.76087    
   2856000   291.79361      0.037658231    7.2436611      723.94799     -68.829977      655.11802    
   2857000   281.8649       0.037658231    26.920635      699.31457     -66.084925      633.22965    
   2858000   314.1372       0.037658231    42.393447      779.38305     -66.304681      713.07837    
   2859000   304.68073      0.037658231    17.409237      755.92128     -63.657493      692.26379    
   2860000   302.74023      0.037658231    7.5274621      751.10686     -62.654768      688.4521     
   2861000   296.86593      0.037658231    20.336041      736.53256     -67.467518      669.06504    
   2862000   298.58536      0.037658231    19.914288      740.7985      -71.278951      669.51955    
   2863000   307.84443      0.037658231    18.977263      763.77052     -65.579972      698.19055    
   2864000   298.81607      0.037658231    20.150885      741.3709      -69.630877      671.74002    
   2865000   299.53971      0.037658231    19.308336      743.16629     -67.467458      675.69883    
   2866000   311.47892      0.037658231    19.125714      772.78778     -62.60231       710.18547    
   2867000   299.11436      0.037658231    24.453196      742.11097     -59.055647      683.05532    
   2868000   296.40146      0.037658231    24.526557      735.3802      -57.767117      677.61308    
   2869000   304.72506      0.037658231    19.364583      756.03128     -62.674068      693.35722    
   2870000   307.16596      0.037658231    16.833173      762.08721     -69.40585       692.68136    
   2871000   295.93982      0.037658231    19.600946      734.23484     -64.314859      669.91998    
   2872000   290.3828       0.037658231    20.26223       720.44774     -65.316421      655.13132    
   2873000   307.4945       0.037658231    19.746473      762.90234     -58.026306      704.87603    
   2874000   306.46465      0.037658231    18.658325      760.34726     -58.988157      701.3591     
   2875000   294.66734      0.037658231    20.597136      731.0778      -59.514899      671.5629     
   2876000   295.15306      0.037658231    18.882961      732.28288     -62.802796      669.48009    
   2877000   304.75009      0.037658231    21.663121      756.09337     -53.353496      702.73987    
   2878000   314.65548      0.037658231    19.140466      780.66892     -57.803571      722.86535    
   2879000   295.85288      0.037658231    13.150279      734.01915     -62.118591      671.90056    
   2880000   289.54024      0.037658231    22.791783      718.35732     -61.520604      656.83672    
   2881000   304.14086      0.037658231    21.941493      754.58186     -65.775238      688.80662    
   2882000   304.24411      0.037658231    17.512032      754.83803     -66.260252      688.57778    
   2883000   291.58023      0.037658231    18.852896      723.41858     -66.405669      657.01291    
   2884000   290.70346      0.037658231    18.567359      721.2433      -66.470349      654.77295    
   2885000   306.9999       0.037658231    19.719796      761.67522     -65.094824      696.5804     
   2886000   307.31658      0.037658231    18.061597      762.4609      -65.712893      696.74801    
   2887000   302.56703      0.037658231    16.986106      750.67715     -69.240765      681.43638    
   2888000   298.77011      0.037658231    20.553816      741.25687     -62.957626      678.29924    
   2889000   295.71042      0.037658231    18.716219      733.6657      -66.292774      667.37292    
   2890000   298.70741      0.037658231    15.66859       741.10133     -66.580066      674.52126    
   2891000   300.60916      0.037658231    18.765594      745.81961     -68.162683      677.65692    
   2892000   296.87927      0.037658231    25.356195      736.56566     -73.307407      663.25825    
   2893000   283.88694      0.037658231    27.573329      704.33133     -70.464595      633.86674    
   2894000   299.02949      0.037658231    22.256849      741.9004      -67.999726      673.90067    
   2895000   300.68119      0.037658231    1.8615533      745.99832     -73.104234      672.89408    
   2896000   303.24969      0.037658231    18.313921      752.37085     -71.763522      680.60733    
   2897000   298.5799       0.037658231    21.171397      740.78496     -65.134825      675.65013    
   2898000   314.13217      0.037658231    16.938087      779.37058     -60.007594      719.36299    
   2899000   290.985        0.037658231    19.818668      721.94182     -64.129273      657.81254    
   2900000   294.05252      0.037658231    21.556759      729.55241     -63.952949      665.59946    
   2901000   297.20973      0.037658231    21.395125      737.38552     -65.025746      672.35978    
   2902000   310.72657      0.037658231    19.88102       770.92119     -61.262701      709.65849    
   2903000   319.15999      0.037658231    18.888538      791.84472     -56.153217      735.69151    
   2904000   285.35189      0.037658231    16.942265      707.9659      -55.025019      652.94088    
   2905000   286.96379      0.037658231    16.841037      711.96507     -58.880606      653.08447    
   2906000   310.33523      0.037658231    23.074335      769.95025     -59.791429      710.15882    
   2907000   305.08925      0.037658231    20.730248      756.93484     -54.455364      702.47948    
   2908000   293.8108       0.037658231    19.401096      728.95268     -53.500651      675.45203    
   2909000   291.50614      0.037658231    17.401844      723.23477     -52.228154      671.00662    
   2910000   301.30421      0.037658231    17.016498      747.54405     -56.086892      691.45715    
   2911000   292.97462      0.037658231    18.641352      726.8781      -56.047015      670.83108    
   2912000   302.87882      0.037658231    19.794744      751.4507      -52.450567      699.00014    
   2913000   314.5025       0.037658231    12.821124      780.28938     -54.010595      726.27879    
   2914000   292.20509      0.037658231    12.035871      724.96887     -58.485151      666.48372    
   2915000   289.39948      0.037658231    19.026207      718.0081      -54.295903      663.71219    
   2916000   304.53146      0.037658231    18.373133      755.55095     -53.923725      701.62722    
   2917000   292.0865       0.037658231    17.52882       724.67467     -53.990551      670.68412    
   2918000   300.13859      0.037658231    26.438096      744.65212     -49.393786      695.25833    
   2919000   307.56382      0.037658231    11.149261      763.07432     -57.267078      705.80724    
   2920000   293.18353      0.037658231    22.080372      727.39641     -49.384367      678.01204    
   2921000   293.89471      0.037658231    26.958391      729.16087     -56.959378      672.20149    
   2922000   312.95952      0.037658231    18.793006      776.46121     -51.399707      725.0615     
   2923000   297.36038      0.037658231    17.292615      737.7593      -56.730844      681.02845    
   2924000   291.99101      0.037658231    20.339236      724.43775     -56.523954      667.9138     
   2925000   302.05258      0.037658231    18.646129      749.40078     -57.717961      691.68282    
   2926000   303.99138      0.037658231    18.029502      754.21099     -56.86615       697.34484    
   2927000   308.74625      0.037658231    16.991869      766.00795     -56.859415      709.14854    
   2928000   305.67795      0.037658231    22.968252      758.39541     -65.261582      693.13383    
   2929000   289.14225      0.037658231    18.277181      717.36988     -63.934022      653.43586    
   2930000   301.46466      0.037658231    13.156777      747.94214     -68.445871      679.49626    
   2931000   311.75847      0.037658231    21.696323      773.48136     -63.24298       710.23838    
   2932000   297.41781      0.037658231    19.639985      737.90179     -59.644445      678.25735    
   2933000   298.24371      0.037658231    18.862122      739.95086     -60.794711      679.15615    
   2934000   311.81151      0.037658231    20.732357      773.61296     -63.420567      710.19239    
   2935000   303.37834      0.037658231    18.956851      752.69002     -60.695288      691.99473    
   2936000   298.59871      0.037658231    20.030314      740.83163     -62.469488      678.36215    
   2937000   301.93403      0.037658231    19.645883      749.10666     -64.235581      684.87108    
   2938000   300.64599      0.037658231    18.852775      745.91099     -55.729254      690.18174    
   2939000   287.04865      0.037658231    14.95998       712.17561     -49.377741      662.79787    
   2940000   296.53951      0.037658231    20.589685      735.72269     -45.96996       689.75273    
   2941000   307.73626      0.037658231    20.559844      763.50214     -47.564462      715.93767    
   2942000   300.35479      0.037658231    13.175686      745.18852     -51.569476      693.61905    
   2943000   306.3513       0.037658231    21.548868      760.06603     -51.193383      708.87264    
   2944000   314.47913      0.037658231    21.614883      780.23138     -50.865285      729.36609    
   2945000   287.8129       0.037658231    20.452258      714.07173     -55.241661      658.83007    
   2946000   289.76427      0.037658231    20.318565      718.91315     -54.342903      664.57025    
   2947000   310.97008      0.037658231    18.597973      771.52534     -54.229314      717.29603    
   2948000   288.53045      0.037658231    19.694554      715.85199     -59.32695       656.52504    
   2949000   302.0566       0.037658231    19.315928      749.41074     -56.662012      692.74873    
   2950000   313.60017      0.037658231    23.055922      778.05066     -60.35496       717.6957     
   2951000   292.07526      0.037658231    18.181283      724.64677     -60.288099      664.35867    
   2952000   292.44012      0.037658231    19.57579       725.552       -57.157132      668.39486    
   2953000   309.11232      0.037658231    20.3588        766.91618     -62.05422       704.86196    
   2954000   296.04044      0.037658231    17.302388      734.48448     -55.887956      678.59653    
   2955000   271.82687      0.037658231    21.431817      674.40997     -60.221618      614.18835    
   2956000   303.29639      0.037658231    20.08928       752.4867      -55.573039      696.91366    
   2957000   320.45482      0.037658231    20.872674      795.05724     -57.977169      737.08007    
   2958000   301.92392      0.037658231    21.072129      749.08156     -49.949         699.13256    
   2959000   295.37194      0.037658231    18.710912      732.82592     -55.779192      677.04672    
   2960000   301.99002      0.037658231    11.333049      749.24555     -50.750378      698.49517    
   2961000   317.16295      0.037658231    21.044387      786.89001     -61.032656      725.85735    
   2962000   296.18712      0.037658231    26.238435      734.84842     -66.422634      668.42578    
   2963000   298.14591      0.037658231    21.220023      739.70822     -53.352316      686.35591    
   2964000   294.50375      0.037658231    26.342441      730.67193     -52.933856      677.73807    
   2965000   298.08546      0.037658231    27.875611      739.55824     -57.253294      682.30495    
   2966000   296.30441      0.037658231    15.838483      735.13941     -60.952877      674.18653    
   2967000   304.83678      0.037658231    12.193753      756.30846     -59.007463      697.301      
   2968000   294.83963      0.037658231    35.645022      731.50525     -58.671974      672.83327    
   2969000   301.39688      0.037658231    17.664705      747.77397     -53.319126      694.45485    
   2970000   309.88478      0.037658231    18.600526      768.83269     -56.578268      712.25442    
   2971000   298.41341      0.037658231    24.901422      740.37189     -52.661451      687.71044    
   2972000   296.34864      0.037658231    19.073168      735.24914     -60.620165      674.62898    
   2973000   288.83427      0.037658231    23.387532      716.60579     -58.868166      657.73762    
   2974000   300.42828      0.037658231    18.023081      745.37084     -60.073595      685.29725    
   2975000   301.56071      0.037658231    19.741339      748.18044     -61.789317      686.39113    
   2976000   299.38294      0.037658231    18.252116      742.77732     -68.889243      673.88807    
   2977000   300.11562      0.037658231    18.583399      744.59513     -65.184381      679.41075    
   2978000   300.72687      0.037658231    20.246604      746.11167     -56.786766      689.3249     
   2979000   303.06995      0.037658231    16.016344      751.92491     -52.442518      699.48239    
   2980000   293.22417      0.037658231    19.36697       727.49725     -50.612689      676.88456    
   2981000   317.71886      0.037658231    22.451974      788.26925     -45.9251        742.34415    
   2982000   310.25947      0.037658231    18.973355      769.76231     -52.094832      717.66747    
   2983000   291.7732       0.037658231    18.361748      723.89736     -53.391881      670.50548    
   2984000   285.43397      0.037658231    17.690503      708.16955     -56.538512      651.63104    
   2985000   294.27518      0.037658231    21.758998      730.10483     -60.300186      669.80465    
   2986000   312.95686      0.037658231    21.5593        776.45459     -63.930437      712.52415    
   2987000   296.9905       0.037658231    17.853334      736.84161     -58.326386      678.51523    
   2988000   297.96952      0.037658231    30.922303      739.2706      -58.007379      681.26322    
   2989000   302.42401      0.037658231    29.03026       750.32231     -55.518563      694.80375    
   2990000   302.726        0.037658231    24.717286      751.07156     -59.259099      691.81246    
   2991000   311.80561      0.037658231    17.7975        773.59832     -54.181629      719.41669    
   2992000   294.92671      0.037658231    9.663648       731.72131     -51.616161      680.10515    
   2993000   289.40787      0.037658231    19.247545      718.02889     -54.095967      663.93293    
   2994000   300.78365      0.037658231    21.368428      746.25254     -57.339845      688.91269    
   2995000   307.5423       0.037658231    20.875421      763.02092     -60.997202      702.02372    
   2996000   296.61153      0.037658231    20.992526      735.90138     -51.203888      684.69749    
   2997000   302.69507      0.037658231    20.84117       750.9948      -56.927477      694.06732    
   2998000   298.67363      0.037658231    13.463936      741.01752     -57.312256      683.70526    
   2999000   298.82818      0.037658231    18.058669      741.40096     -59.069548      682.33141    
   3000000   303.1481       0.037658231    19.35885       752.11879     -54.679674      697.43912    
   3001000   297.00516      0.037658231    19.025493      736.87798     -57.320104      679.55788    
   3002000   295.59394      0.037658231    19.104765      733.37671     -59.960775      673.41594    
   3003000   306.99967      0.037658231    25.12196       761.67463     -55.031609      706.64302    
   3004000   296.66438      0.037658231    16.531402      736.03249     -64.928386      671.10411    
   3005000   292.18428      0.037658231    20.91176       724.91726     -64.549037      660.36823    
   3006000   297.63249      0.037658231    19.970359      738.43441     -70.935994      667.49842    
   3007000   302.03101      0.037658231    18.999564      749.34727     -63.3479        685.99937    
   3008000   301.77876      0.037658231    18.788685      748.72141     -60.892417      687.82899    
   3009000   299.29787      0.037658231    19.995574      742.56626     -53.882265      688.68399    
   3010000   307.39607      0.037658231    20.417229      762.65813     -55.968738      706.68939    
   3011000   303.06488      0.037658231    19.927552      751.91232     -50.255956      701.65636    
   3012000   303.58233      0.037658231    17.148069      753.19613     -57.245338      695.95079    
   3013000   298.27856      0.037658231    22.848752      740.03732     -60.433319      679.604      
   3014000   297.41361      0.037658231    17.704401      737.89138     -66.547664      671.34371    
   3015000   297.69182      0.037658231    17.733353      738.5816      -58.867159      679.71444    
   3016000   310.36387      0.037658231    47.397765      770.02131     -57.870428      712.15088    
   3017000   316.34624      0.037658231    28.459971      784.86375     -58.776046      726.0877     
   3018000   293.08328      0.037658231    12.776924      727.14768     -55.37628       671.7714     
   3019000   289.62338      0.037658231    19.884708      718.56358     -53.694039      664.86954    
   3020000   306.14897      0.037658231    17.915149      759.56403     -53.831088      705.73294    
   3021000   302.71652      0.037658231    21.635267      751.04803     -54.570869      696.47717    
   3022000   290.0519       0.037658231    17.051709      719.62676     -54.91022       664.71654    
   3023000   300.08457      0.037658231    20.193713      744.51808     -58.364067      686.15402    
   3024000   328.67489      0.037658231    19.801099      815.45147     -61.605669      753.8458     
   3025000   299.47091      0.037658231    14.001932      742.99559     -59.142493      683.8531     
   3026000   292.82666      0.037658231    25.378931      726.51102     -57.132451      669.37857    
   3027000   304.0992       0.037658231    16.293569      754.47849     -56.474784      698.00371    
   3028000   302.17365      0.037658231    13.862379      749.70115     -57.748805      691.95234    
   3029000   295.15126      0.037658231    25.521101      732.27842     -55.694642      676.58378    
   3030000   286.8225       0.037658231    28.477869      711.61454     -55.568366      656.04617    
   3031000   299.33663      0.037658231    23.268939      742.66244     -63.143948      679.51849    
   3032000   309.92149      0.037658231    23.528693      768.92375     -66.063885      702.85987    
   3033000   302.00747      0.037658231    16.935134      749.28886     -66.098828      683.19003    
   3034000   280.10424      0.037658231    19.770736      694.94635     -67.626115      627.32024    
   3035000   315.45154      0.037658231    21.588662      782.64397     -66.254684      716.38929    
   3036000   320.63751      0.037658231    4.428816       795.51051     -67.91508       727.59543    
   3037000   289.06825      0.037658231    11.726803      717.1863      -71.719339      645.46696    
   3038000   286.70008      0.037658231    23.908297      711.31081     -66.164061      645.14675    
   3039000   312.35213      0.037658231    11.996228      774.95424     -64.659507      710.29474    
   3040000   300.95438      0.037658231    17.71875       746.67611     -67.812613      678.86349    
   3041000   286.18797      0.037658231    25.129768      710.04025     -67.458652      642.5816     
   3042000   308.98837      0.037658231    21.838713      766.60866     -61.724124      704.88454    
   3043000   318.197        0.037658231    21.011281      789.45552     -62.336185      727.11933    
   3044000   306.75432      0.037658231    18.473543      761.06593     -62.130698      698.93524    
   3045000   294.43471      0.037658231    18.691725      730.50063     -62.917466      667.58316    
   3046000   299.85574      0.037658231    19.440148      743.95036     -57.457573      686.49278    
   3047000   309.64262      0.037658231    25.009569      768.23187     -60.603119      707.62875    
   3048000   310.48455      0.037658231    12.173965      770.32073     -62.716709      707.60402    
   3049000   294.97171      0.037658231    6.1717399      731.83294     -60.309232      671.52371    
   3050000   296.01716      0.037658231    28.290334      734.42673     -57.059628      677.36711    
   3051000   305.07304      0.037658231    27.534977      756.89461     -64.304204      692.59041    
   3052000   303.21573      0.037658231    16.56262       752.28659     -61.123087      691.16351    
   3053000   296.95678      0.037658231   -0.11483917     736.75795     -61.269801      675.48815    
   3054000   296.75574      0.037658231    20.131305      736.25918     -60.841788      675.41739    
   3055000   298.66914      0.037658231    13.842917      741.00638     -56.131533      684.87484    
   3056000   294.04454      0.037658231    11.853622      729.53262     -57.749744      671.78287    
   3057000   290.50154      0.037658231    31.528348      720.74233     -49.69558       671.04675    
   3058000   307.22039      0.037658231    30.183016      762.22225     -56.779395      705.44286    
   3059000   301.79231      0.037658231    9.7769612      748.75505     -56.993584      691.76146    
   3060000   287.13242      0.037658231    16.038541      712.38344     -56.901753      655.48169    
   3061000   311.82179      0.037658231    23.00064       773.63846     -58.170769      715.46769    
   3062000   301.12875      0.037658231    19.790836      747.10873     -55.586424      691.5223     
   3063000   296.41694      0.037658231    20.550041      735.41861     -59.605595      675.81301    
   3064000   289.44001      0.037658231    16.653745      718.10865     -50.86236       667.24629    
   3065000   309.63803      0.037658231    20.615966      768.22048     -55.314364      712.90612    
   3066000   303.92097      0.037658231    21.588273      754.03629     -52.606048      701.43025    
   3067000   295.82572      0.037658231    24.771964      733.95177     -52.407887      681.54388    
   3068000   295.24793      0.037658231    17.018144      732.51825     -54.791728      677.72652    
   3069000   303.53751      0.037658231    22.585513      753.08494     -67.689088      685.39585    
   3070000   300.56936      0.037658231    20.59005       745.72086     -70.730235      674.99062    
   3071000   299.48954      0.037658231    9.5367657      743.04181     -71.795529      671.24628    
   3072000   311.45779      0.037658231    16.770554      772.73535     -69.87371       702.86164    
   3073000   295.89337      0.037658231    28.818361      734.11961     -61.805674      672.31393    
   3074000   289.05459      0.037658231    19.469408      717.15241     -62.859778      654.29263    
   3075000   313.08965      0.037658231    19.142661      776.78404     -65.42645       711.35759    
   3076000   309.85742      0.037658231    26.947961      768.7648      -65.707084      703.05771    
   3077000   292.03692      0.037658231    28.832905      724.55164     -61.87999       662.67165    
   3078000   289.17714      0.037658231    19.272957      717.45645     -57.049151      660.4073     
   3079000   292.26502      0.037658231    18.867017      725.11758     -61.378506      663.73908    
   3080000   299.12393      0.037658231    12.307769      742.13472     -65.098408      677.03631    
   3081000   300.71929      0.037658231    26.663003      746.09285     -67.560476      678.53237    
   3082000   302.53518      0.037658231    24.913748      750.59811     -67.024297      683.57381    
   3083000   303.5817       0.037658231   -0.46952865     753.19458     -66.259738      686.93484    
   3084000   303.62451      0.037658231    21.977503      753.30078     -69.501323      683.79946    
   3085000   293.87699      0.037658231    16.502379      729.11691     -62.946213      666.17069    
   3086000   289.75326      0.037658231    18.923445      718.88583     -60.992821      657.89301    
   3087000   310.87452      0.037658231    21.440996      771.28825     -53.55289       717.73536    
   3088000   307.23799      0.037658231    16.086841      762.26593     -54.931312      707.33462    
   3089000   289.13742      0.037658231    18.703558      717.35792     -57.946641      659.41128    
   3090000   289.69421      0.037658231    18.067681      718.73931     -64.837687      653.90162    
   3091000   305.31497      0.037658231    24.781921      757.49486     -72.192632      685.30222    
   3092000   310.04143      0.037658231    19.041448      769.22133     -65.440411      703.78091    
   3093000   289.01774      0.037658231    17.749159      717.06097     -67.714666      649.3463     
   3094000   300.8381       0.037658231    20.626853      746.38763     -65.50268       680.88495    
   3095000   313.5943       0.037658231    16.621852      778.03609     -65.805564      712.23053    
   3096000   296.80622      0.037658231    14.742502      736.38442     -64.977572      671.40685    
   3097000   288.57588      0.037658231    18.708032      715.96471     -61.122606      654.8421     
   3098000   311.2316       0.037658231    18.985522      772.17419     -71.931726      700.24246    
   3099000   293.60789      0.037658231    14.224765      728.44927     -67.596383      660.85289    
   3100000   295.83826      0.037658231    32.956133      733.98289     -73.807022      660.17587    
   3101000   313.92344      0.037658231    17.715079      778.85272     -79.480921      699.3718     
   3102000   306.29462      0.037658231    17.038615      759.92538     -75.935985      683.9894     
   3103000   288.20623      0.037658231    20.037645      715.04761     -68.620475      646.42713    
   3104000   295.26366      0.037658231    17.182327      732.55727     -69.562079      662.99519    
   3105000   302.38573      0.037658231    32.040451      750.22734     -68.464082      681.76326    
   3106000   312.6366       0.037658231    30.880167      775.66003     -67.596549      708.06348    
   3107000   305.3925       0.037658231    9.1278018      757.6872      -72.66853       685.01867    
   3108000   285.61876      0.037658231    20.833536      708.62801     -62.977656      645.65035    
   3109000   302.05405      0.037658231    23.89633       749.40443     -57.500599      691.90383    
   3110000   309.19323      0.037658231    26.349398      767.11692     -57.370427      709.7465     
   3111000   304.17379      0.037658231    13.765936      754.66355     -55.128599      699.53496    
   3112000   288.89271      0.037658231    18.441228      716.75078     -59.866295      656.88449    
   3113000   302.73109      0.037658231    30.861906      751.08419     -58.219342      692.86484    
   3114000   319.26246      0.037658231    25.202322      792.09897     -54.63901       737.45996    
   3115000   292.25086      0.037658231    20.736974      725.08245     -55.7327        669.34975    
   3116000   295.02877      0.037658231    17.609381      731.97451     -55.684344      676.29016    
   3117000   295.64086      0.037658231    20.534063      733.49312     -46.25541       687.23771    
   3118000   292.29979      0.037658231    16.041771      725.20384     -48.682349      676.52149    
   3119000   307.93824      0.037658231    26.335569      764.00325     -50.439297      713.56396    
   3120000   301.59484      0.037658231    19.40982       748.26512     -52.099254      696.16587    
   3121000   302.93173      0.037658231    14.904739      751.58198     -46.305068      705.27691    
   3122000   311.71519      0.037658231    18.325139      773.37398     -47.660702      725.71328    
   3123000   297.57838      0.037658231    34.908101      738.30016     -48.155081      690.14508    
   3124000   291.82036      0.037658231    24.346339      724.01435     -52.608691      671.40566    
   3125000   294.38981      0.037658231    17.057975      730.38924     -58.87325       671.51599    
   3126000   305.66775      0.037658231    17.868908      758.37011     -56.722377      701.64774    
   3127000   296.42538      0.037658231    20.566155      735.43955     -54.934361      680.50519    
   3128000   294.22497      0.037658231    19.723019      729.98027     -55.593765      674.38651    
   3129000   299.65525      0.037658231    21.256618      743.45293     -64.302115      679.15082    
   3130000   313.44139      0.037658231    20.522118      777.65672     -66.290793      711.36592    
   3131000   292.55313      0.037658231    20.840098      725.83238     -70.944619      654.88776    
   3132000   299.55543      0.037658231    17.199297      743.20528     -56.723487      686.48179    
   3133000   306.02638      0.037658231    14.943981      759.25988     -61.366457      697.89343    
   3134000   303.70947      0.037658231    14.996771      753.51158     -61.122834      692.38874    
   3135000   300.93382      0.037658231    20.918962      746.62511     -59.399303      687.2258     
   3136000   293.58541      0.037658231    17.885486      728.3935      -59.81146       668.58204    
   3137000   301.69992      0.037658231    22.860364      748.52582     -62.03737       686.48845    
   3138000   304.90797      0.037658231    18.842373      756.48508     -68.865121      687.61996    
   3139000   300.38328      0.037658231    12.811144      745.25919     -65.754726      679.50447    
   3140000   283.8973       0.037658231    21.847609      704.35702     -72.061379      632.29564    
   3141000   300.62524      0.037658231    29.410666      745.8595      -65.856641      680.00286    
   3142000   311.74074      0.037658231    34.632531      773.43738     -62.68858       710.7488     
   3143000   311.03961      0.037658231    6.6366785      771.69784     -68.59113       703.10671    
   3144000   285.03414      0.037658231    13.821115      707.17757     -61.649122      645.52845    
   3145000   299.114        0.037658231    17.68008       742.11009     -67.71121       674.39888    
   3146000   301.21761      0.037658231    11.877286      747.3292      -66.572393      680.75681    
   3147000   300.3045       0.037658231    23.105442      745.06373     -60.610486      684.45325    
   3148000   302.47681      0.037658231    28.999309      750.45331     -56.038065      694.41524    
   3149000   301.69762      0.037658231    3.9936892      748.52011     -61.518382      687.00173    
   3150000   297.39129      0.037658231    9.6157331      737.836       -62.334741      675.50126    
   3151000   304.53251      0.037658231    32.919031      755.55354     -59.114589      696.43895    
   3152000   281.22614      0.037658231    16.633849      697.7298      -60.784055      636.94575    
   3153000   300.73875      0.037658231    20.419863      746.14112     -63.026619      683.1145     
   3154000   312.86998      0.037658231    29.057223      776.23906     -58.945459      717.2936     
   3155000   300.80613      0.037658231    20.060567      746.30829     -62.92272       683.38557    
   3156000   286.41627      0.037658231    15.82137       710.60665     -66.898679      643.70797    
   3157000   297.55059      0.037658231    15.890872      738.23121     -62.707892      675.52331    
   3158000   300.24053      0.037658231    15.288644      744.90504     -66.327317      678.57772    
   3159000   302.52487      0.037658231    20.043778      750.57255     -60.318876      690.25367    
   3160000   297.21491      0.037658231    20.896461      737.39838     -70.377746      667.02063    
   3161000   297.43617      0.037658231    19.665043      737.94734     -66.301817      671.64552    
   3162000   296.52326      0.037658231    15.758931      735.68238     -70.766244      664.91613    
   3163000   315.93993      0.037658231    21.599181      783.85568     -69.531259      714.32442    
   3164000   306.58025      0.037658231    19.598622      760.63405     -71.830409      688.80364    
   3165000   294.92086      0.037658231    17.040603      731.70678     -66.169388      665.53739    
   3166000   302.92036      0.037658231    17.725591      751.55375     -62.9126        688.64115    
   3167000   300.10976      0.037658231    21.512272      744.58058     -69.187167      675.39341    
   3168000   302.40704      0.037658231    18.479697      750.2802      -77.831632      672.44857    
   3169000   295.23083      0.037658231    18.58092       732.47583     -67.086309      665.38952    
   3170000   303.45974      0.037658231    19.263901      752.89198     -71.221039      681.67094    
   3171000   312.5006       0.037658231    24.043141      775.32261     -69.84417       705.47844    
   3172000   302.55797      0.037658231    24.42118       750.65465     -73.983455      676.6712     
   3173000   295.04277      0.037658231    20.484364      732.00923     -69.555415      662.45382    
   3174000   296.03497      0.037658231    18.320703      734.47093     -78.418907      656.05202    
   3175000   310.76664      0.037658231    18.095023      771.02061     -77.898235      693.12237    
   3176000   301.50873      0.037658231    39.821273      748.05146     -77.241466      670.81       
   3177000   291.61199      0.037658231    22.169537      723.49739     -73.603522      649.89387    
   3178000   297.7323       0.037658231    12.324474      738.68203     -72.670615      666.01142    
   3179000   313.22131      0.037658231    20.11766       777.1107      -73.749063      703.36164    
   3180000   295.7592       0.037658231    19.093973      733.78672     -82.89564       650.89108    
   3181000   292.8178       0.037658231    16.481408      726.48903     -78.049339      648.4397     
   3182000   304.02851      0.037658231    17.935489      754.30313     -71.345019      682.95811    
   3183000   302.52917      0.037658231    24.275192      750.5832      -74.295986      676.28721    
   3184000   295.39747      0.037658231    22.261685      732.88927     -70.873719      662.01555    
   3185000   296.63659      0.037658231    16.719896      735.96356     -75.523978      660.43958    
   3186000   309.20261      0.037658231    13.188637      767.14021     -71.238078      695.90213    
   3187000   309.72458      0.037658231    18.64782       768.43522     -75.051388      693.38383    
   3188000   299.34692      0.037658231    18.313645      742.68796     -75.035772      667.65219    
   3189000   284.71873      0.037658231    18.192345      706.39503     -75.212143      631.18288    
   3190000   306.00326      0.037658231    15.306082      759.20253     -75.953001      683.24953    
   3191000   303.59485      0.037658231    19.185796      753.22719     -77.440627      675.78657    
   3192000   286.48591      0.037658231    20.144368      710.77944     -75.072823      635.70661    
   3193000   307.08077      0.037658231    18.24082       761.87586     -70.20027       691.67559    
   3194000   303.17259      0.037658231    19.494721      752.17956     -64.932663      687.2469     
   3195000   293.25693      0.037658231    20.592241      727.57853     -66.662603      660.91593    
   3196000   304.53996      0.037658231    20.937265      755.57202     -75.332887      680.23914    
   3197000   313.75573      0.037658231    8.1454414      778.43662     -71.430367      707.00626    
   3198000   298.36737      0.037658231    18.675159      740.25766     -74.202792      666.05487    
   3199000   305.16019      0.037658231    36.471667      757.11085     -71.263837      685.84701    
   3200000   302.73653      0.037658231    16.570036      751.09767     -64.369344      686.72833    
   3201000   279.42611      0.037658231    11.331987      693.26388     -66.684705      626.57918    
   3202000   297.00405      0.037658231    21.901853      736.87523     -64.542747      672.33249    
   3203000   300.98916      0.037658231    20.564985      746.7624      -68.581496      678.18091    
   3204000   306.87122      0.037658231    22.455073      761.35596     -75.610624      685.74534    
   3205000   298.24765      0.037658231    19.57519       739.96065     -73.088924      666.87173    
   3206000   290.00009      0.037658231    18.682618      719.49821     -70.302277      649.19593    
   3207000   306.00828      0.037658231    19.504431      759.21498     -73.232678      685.9823     
   3208000   305.36856      0.037658231    18.847672      757.6278      -66.076608      691.5512     
   3209000   296.12726      0.037658231    18.890348      734.69989     -61.291496      673.4084     
   3210000   283.55449      0.037658231    18.572921      703.50651     -61.523044      641.98346    
   3211000   305.46512      0.037658231    19.103229      757.86737     -62.439057      695.42831    
   3212000   300.60681      0.037658231    18.271961      745.81379     -62.958446      682.85534    
   3213000   291.53866      0.037658231    15.72074       723.31546     -68.499318      654.81614    
   3214000   303.12232      0.037658231    21.134509      752.05484     -71.736132      680.31871    
   3215000   310.11923      0.037658231    19.550385      769.41435     -64.868263      704.54609    
   3216000   297.18772      0.037658231    18.17508       737.33094     -59.156658      678.17428    
   3217000   293.0417       0.037658231    16.909169      727.04454     -65.413456      661.63108    
   3218000   301.2063       0.037658231    19.423025      747.30113     -60.34813       686.953      
   3219000   306.06216      0.037658231    17.991822      759.34866     -62.354214      696.99445    
   3220000   302.70588      0.037658231    21.686214      751.02162     -65.516727      685.5049     
   3221000   283.89967      0.037658231    22.894359      704.36291     -65.203683      639.15923    
   3222000   290.51001      0.037658231    14.964425      720.76335     -68.018428      652.74492    
   3223000   314.36009      0.037658231    18.98366       779.93604     -72.678681      707.25736    
   3224000   308.22276      0.037658231    20.645138      764.70917     -65.516514      699.19265    
   3225000   289.55543      0.037658231    20.030953      718.39501     -70.178766      648.21624    
   3226000   298.55789      0.037658231    11.649545      740.73035     -70.73323       669.99712    
   3227000   301.71477      0.037658231    15.128197      748.56267     -66.735732      681.82694    
   3228000   298.58248      0.037658231    19.723306      740.79136     -74.211927      666.57943    
   3229000   297.23642      0.037658231    16.920777      737.45176     -71.857139      665.59462    
   3230000   308.3164       0.037658231    18.98329       764.9415      -73.652237      691.28926    
   3231000   304.25243      0.037658231    23.312172      754.85866     -76.865295      677.99336    
   3232000   300.19137      0.037658231    19.080645      744.78307     -81.035254      663.74782    
   3233000   307.18953      0.037658231    14.332022      762.14569     -79.817152      682.32854    
   3234000   302.05437      0.037658231    17.662716      749.40521     -79.417491      669.98772    
   3235000   295.64657      0.037658231    16.710619      733.50729     -75.523373      657.98392    
   3236000   295.47504      0.037658231    18.830824      733.08173     -73.412398      659.66933    
   3237000   306.40605      0.037658231    18.994802      760.20186     -66.55646       693.6454     
   3238000   302.21605      0.037658231    10.406088      749.80634     -65.850803      683.95554    
   3239000   289.1858       0.037658231    18.801931      717.47795     -62.459804      655.01814    
   3240000   301.55655      0.037658231    22.784195      748.17012     -61.180461      686.98965    
   3241000   317.74179      0.037658231    18.997056      788.32613     -58.916364      729.40977    
   3242000   314.14358      0.037658231    23.745877      779.39889     -71.506472      707.89241    
   3243000   293.3757       0.037658231    13.485855      727.8732      -74.46001       653.41319    
   3244000   300.77312      0.037658231    19.384247      746.22641     -64.909718      681.31669    
   3245000   307.42043      0.037658231    27.236498      762.71857     -64.347942      698.37063    
   3246000   299.12552      0.037658231    15.258063      742.13865     -62.938224      679.20043    
   3247000   299.9563       0.037658231   -2.463794       744.19984     -62.995932      681.20391    
   3248000   299.00323      0.037658231    26.465671      741.83527     -58.456656      683.37861    
   3249000   294.30038      0.037658231    27.392162      730.16736     -61.346126      668.82123    
   3250000   293.36718      0.037658231    17.455923      727.85206     -63.928054      663.92401    
   3251000   308.67914      0.037658231    13.728544      765.84146     -61.127324      704.71413    
   3252000   308.86822      0.037658231    20.15844       766.31056     -67.281342      699.02922    
   3253000   299.0768       0.037658231    21.345188      742.01779     -68.425102      673.59268    
   3254000   295.30622      0.037658231    18.220811      732.66287     -71.933264      660.72961    
   3255000   305.53585      0.037658231    12.63955       758.04288     -73.552154      684.49072    
   3256000   309.89657      0.037658231    20.34364       768.86193     -73.979372      694.88256    
   3257000   301.37928      0.037658231    19.301047      747.73031     -64.949786      682.78052    
   3258000   302.80067      0.037658231    28.115198      751.25682     -62.46337       688.79345    
   3259000   298.52932      0.037658231    20.239206      740.65947     -57.964425      682.69505    
   3260000   309.12035      0.037658231    15.627906      766.9361      -64.582527      702.35358    
   3261000   304.58453      0.037658231    27.340293      755.68262     -60.583731      695.09889    
   3262000   300.103        0.037658231    18.179407      744.56382     -54.858739      689.70508    
   3263000   315.28439      0.037658231    9.354102       782.22926     -54.08988       728.13937    
   3264000   306.72172      0.037658231    33.199424      760.98505     -52.402711      708.58234    
   3265000   303.95289      0.037658231    21.552675      754.11551     -54.015843      700.09967    
   3266000   299.37472      0.037658231    9.775685       742.75692     -57.915396      684.84152    
   3267000   293.79418      0.037658231    20.345003      728.91145     -53.557099      675.35435    
   3268000   307.49224      0.037658231    24.87457       762.89672     -60.327687      702.56903    
   3269000   286.12178      0.037658231    17.545291      709.87601     -67.777225      642.09879    
   3270000   311.58431      0.037658231    19.39214       773.04927     -63.782324      709.26694    
   3271000   301.34825      0.037658231    19.649275      747.65331     -61.165022      686.48829    
   3272000   295.88714      0.037658231    21.270496      734.10415     -61.282981      672.82117    
   3273000   291.51608      0.037658231    19.17057       723.25944     -57.214241      666.04519    
   3274000   322.24584      0.037658231    8.1237499      799.5008      -66.449801      733.051      
   3275000   318.67123      0.037658231    24.257606      790.6321      -69.974653      720.65745    
   3276000   289.98629      0.037658231    18.755542      719.46399     -72.946112      646.51787    
   3277000   301.81797      0.037658231    17.948888      748.81871     -70.741592      678.07712    
   3278000   312.55812      0.037658231    22.111042      775.46531     -62.396617      713.06869    
   3279000   294.87025      0.037658231    20.85205       731.58122     -65.137794      666.44343    
   3280000   294.24022      0.037658231    19.711053      730.0181      -64.056206      665.9619     
   3281000   291.39663      0.037658231    17.719222      722.96308     -70.007474      652.95561    
   3282000   310.90917      0.037658231    17.889765      771.37423     -67.677211      703.69702    
   3283000   300.63686      0.037658231    19.424724      745.88833     -71.355603      674.53273    
   3284000   293.41569      0.037658231    19.562637      727.97243     -69.188294      658.78413    
   3285000   298.9115       0.037658231    21.732672      741.60768     -70.231753      671.37593    
   3286000   302.83224      0.037658231    20.67223       751.33514     -66.970316      684.36483    
   3287000   290.4845       0.037658231    20.013625      720.70004     -63.001488      657.69855    
   3288000   320.7175       0.037658231    22.113498      795.70896     -64.731321      730.97764    
   3289000   302.84726      0.037658231    19.479538      751.37241     -61.589539      689.78287    
   3290000   298.09316      0.037658231    16.862086      739.57735     -60.484965      679.09239    
   3291000   292.14505      0.037658231    18.678205      724.81993     -58.761181      666.05875    
   3292000   304.24948      0.037658231    23.738839      754.85136     -61.086479      693.76488    
   3293000   298.72932      0.037658231    20.247963      741.15567     -60.893454      680.26222    
   3294000   303.85787      0.037658231    18.002087      753.87974     -64.56789       689.31185    
   3295000   297.10828      0.037658231    18.796521      737.13383     -62.671826      674.46201    
   3296000   300.35208      0.037658231    23.115946      745.18179     -74.015827      671.16596    
   3297000   301.47629      0.037658231    18.36198       747.97098     -68.543293      679.42769    
   3298000   285.87311      0.037658231    16.762562      709.25906     -67.658641      641.60042    
   3299000   298.83932      0.037658231    18.501319      741.42858     -60.536186      680.89239    
   3300000   300.67595      0.037658231    21.149909      745.98531     -55.581877      690.40344    
   3301000   306.37542      0.037658231    27.90045       760.12586     -57.21714       702.90872    
   3302000   304.87795      0.037658231    18.069623      756.4106      -56.702238      699.70836    
   3303000   309.26395      0.037658231    17.660835      767.29238     -53.801726      713.49066    
   3304000   297.01087      0.037658231    32.921118      736.89215     -57.56559       679.32656    
   3305000   300.86984      0.037658231    21.198549      746.46636     -54.602207      691.86415    
   3306000   306.24809      0.037658231    14.404769      759.80995     -60.539239      699.27071    
   3307000   278.04853      0.037658231    23.861522      689.84608     -59.276653      630.56943    
   3308000   296.63856      0.037658231    21.611918      735.96844     -57.231193      678.73725    
   3309000   315.46058      0.037658231    20.725052      782.66639     -52.191049      730.47534    
   3310000   302.92428      0.037658231    17.096577      751.56349     -54.247499      697.31599    
   3311000   295.3688       0.037658231    20.453072      732.81812     -48.994196      683.82393    
   3312000   297.50877      0.037658231    26.746279      738.12745     -47.863766      690.26369    
   3313000   307.47493      0.037658231    19.166895      762.85378     -51.313492      711.54028    
   3314000   309.52125      0.037658231    21.289925      767.93075     -55.510942      712.4198     
   3315000   305.77944      0.037658231    18.513359      758.64722     -54.302475      704.34475    
   3316000   293.80421      0.037658231    20.354275      728.93633     -51.758316      677.17802    
   3317000   290.95592      0.037658231    23.7661        721.86965     -52.939078      668.93057    
   3318000   327.43061      0.037658231    17.501309      812.36437     -54.195041      758.16933    
   3319000   310.03165      0.037658231    25.530434      769.19706     -46.435994      722.76107    
   3320000   286.8415       0.037658231    10.197765      711.66167     -56.124086      655.53758    
   3321000   300.50349      0.037658231    20.462035      745.55745     -54.136485      691.42096    
   3322000   314.16142      0.037658231    21.000761      779.44315     -60.355325      719.08783    
   3323000   292.66346      0.037658231    16.630879      726.1061      -58.208781      667.89732    
   3324000   292.72915      0.037658231    19.519031      726.26909     -63.954116      662.31498    
   3325000   302.51156      0.037658231    22.794722      750.53951     -62.324743      688.21477    
   3326000   301.95211      0.037658231    32.284943      749.15152     -56.261825      692.88969    
   3327000   297.68128      0.037658231    20.85986       738.55545     -54.450933      684.10452    
   3328000   288.71606      0.037658231    16.619642      716.31251     -61.308319      655.00419    
   3329000   301.01169      0.037658231    21.489871      746.81829     -57.787156      689.03114    
   3330000   305.14361      0.037658231    19.343556      757.06971     -64.603315      692.46639    
   3331000   295.47547      0.037658231    17.722694      733.08279     -62.868048      670.21474    
   3332000   289.63645      0.037658231    22.018301      718.59602     -62.190658      656.40536    
   3333000   299.82801      0.037658231    21.589573      743.88155     -64.010748      679.8708     
   3334000   298.0156       0.037658231    21.688046      739.38493     -67.547242      671.83769    
   3335000   311.12732      0.037658231    17.547452      771.91547     -68.452147      703.46332    
   3336000   302.85119      0.037658231    17.509385      751.38216     -67.912165      683.47       
   3337000   290.4994       0.037658231    11.346091      720.73701     -67.769956      652.96706    
   3338000   291.35944      0.037658231    0.68082888     722.8708      -68.294177      654.57663    
   3339000   328.82361      0.037658231    6.3235992      815.82043     -71.734227      744.0862     
   3340000   299.14364      0.037658231    22.159995      742.18361     -65.726266      676.45734    
   3341000   297.64377      0.037658231    23.962986      738.46239     -66.332526      672.12986    
   3342000   301.86258      0.037658231    31.664838      748.92938     -59.65292       689.27646    
   3343000   298.33858      0.037658231    20.144599      740.18624     -65.044881      675.14136    
   3344000   294.3134       0.037658231    6.8395054      730.19965     -63.513817      666.68583    
   3345000   303.42131      0.037658231    15.152156      752.79663     -63.389129      689.4075     
   3346000   304.78624      0.037658231    23.040737      756.18306     -64.795178      691.38788    
   3347000   284.584        0.037658231    32.813756      706.06075     -66.879796      639.18096    
   3348000   294.41293      0.037658231    11.948585      730.44659     -65.822245      664.62434    
   3349000   312.04684      0.037658231    14.632115      774.19681     -64.368523      709.82829    
   3350000   306.95303      0.037658231    23.645956      761.55892     -68.204811      693.35411    
   3351000   293.31727      0.037658231    18.654444      727.72823     -71.56865       656.15958    
   3352000   303.79818      0.037658231    6.001286       753.73165     -71.859181      681.87247    
   3353000   308.54155      0.037658231    15.348399      765.5001      -73.855236      691.64487    
   3354000   309.00036      0.037658231    22.898541      766.63841     -74.212009      692.4264     
   3355000   303.06191      0.037658231    17.788399      751.90496     -70.655031      681.24993    
   3356000   289.50572      0.037658231    22.121799      718.27167     -70.393968      647.8777     
   3357000   299.55206      0.037658231    21.040516      743.19691     -63.220304      679.9766     
   3358000   302.75794      0.037658231    15.376184      751.15081     -68.310349      682.84046    
   3359000   290.96457      0.037658231    31.141953      721.89112     -66.419746      655.47138    
   3360000   296.05237      0.037658231    22.141627      734.5141      -64.412574      670.10152    
   3361000   294.31683      0.037658231    16.014648      730.20816     -61.162868      669.04529    
   3362000   300.03074      0.037658231    12.478314      744.38453     -68.435895      675.94863    
   3363000   293.57926      0.037658231    20.173131      728.37823     -60.025325      668.3529     
   3364000   305.97858      0.037658231    19.627598      759.1413      -62.463445      696.67786    
   3365000   297.45774      0.037658231    18.355956      738.00086     -65.330027      672.67083    
   3366000   299.6448       0.037658231    20.385058      743.427       -69.271857      674.15514    
   3367000   304.53911      0.037658231    20.660137      755.56992     -61.117817      694.4521     
   3368000   306.51805      0.037658231    15.576293      760.47973     -56.845102      703.63463    
   3369000   282.9321       0.037658231    14.285309      701.96235     -56.364554      645.5978     
   3370000   282.1753       0.037658231    15.835477      700.0847      -61.199569      638.88513    
   3371000   312.38714      0.037658231    21.932416      775.04112     -58.849934      716.19118    
   3372000   301.09163      0.037658231    13.631856      747.01664     -55.478319      691.53832    
   3373000   286.93797      0.037658231    27.801212      711.90101     -56.238166      655.66284    
   3374000   301.20983      0.037658231    20.883596      747.3099      -58.891187      688.41871    
   3375000   310.13148      0.037658231    14.675222      769.44476     -55.908925      713.53583    
   3376000   290.769        0.037658231    14.613295      721.40591     -54.464735      666.94118    
   3377000   291.23889      0.037658231    7.798192       722.57171     -61.804521      660.76719    
   3378000   309.95841      0.037658231    20.39572       769.01535     -59.989897      709.02545    
   3379000   303.13377      0.037658231    20.394169      752.08324     -57.307719      694.77552    
   3380000   298.16907      0.037658231    11.082142      739.76568     -57.665213      682.10046    
   3381000   291.12567      0.037658231    19.942884      722.2908      -53.480345      668.81046    
   3382000   299.41367      0.037658231    20.00104       742.85357     -60.229652      682.62391    
   3383000   305.82896      0.037658231    20.635244      758.77008     -58.042413      700.72766    
   3384000   296.28616      0.037658231    12.671204      735.09412     -62.021628      673.07249    
   3385000   288.24736      0.037658231    17.831775      715.14965     -61.643819      653.50583    
   3386000   310.93676      0.037658231    23.598918      771.44267     -57.338422      714.10424    
   3387000   308.82574      0.037658231    18.973984      766.20517     -61.760054      704.44512    
   3388000   292.01127      0.037658231    19.857423      724.48802     -62.04324       662.44478    
   3389000   288.71717      0.037658231    13.727473      716.31525     -57.538751      658.77649    
   3390000   309.94145      0.037658231    18.339176      768.97328     -60.815212      708.15806    
   3391000   293.89267      0.037658231    20.273828      729.15581     -59.042783      670.11303    
   3392000   299.57868      0.037658231    12.935561      743.26296     -63.610751      679.6522     
   3393000   299.50544      0.037658231    20.458396      743.08126     -61.860257      681.22101    
   3394000   313.17146      0.037658231    20.251124      776.98702     -67.99508       708.99195    
   3395000   294.20901      0.037658231    17.877994      729.94066     -71.025362      658.91529    
   3396000   299.98562      0.037658231    17.533577      744.27258     -67.471386      676.8012     
   3397000   308.31957      0.037658231    17.706341      764.94934     -75.113063      689.83628    
   3398000   305.93894      0.037658231    21.003687      759.04294     -73.946888      685.09605    
   3399000   300.10725      0.037658231    18.255512      744.57436     -67.740192      676.83417    
   3400000   295.63726      0.037658231    17.552588      733.48419     -67.022443      666.46175    
   3401000   293.52066      0.037658231    15.421799      728.23285     -70.12415       658.1087     
   3402000   317.05708      0.037658231    16.8196        786.62736     -69.237919      717.38944    
   3403000   301.65426      0.037658231    22.14205       748.41253     -64.185613      684.22692    
   3404000   288.00034      0.037658231    18.274266      714.53679     -68.516389      646.02041    
   3405000   307.3717       0.037658231    23.378112      762.59766     -70.103252      692.4944     
   3406000   314.59209      0.037658231    17.290313      780.51164     -62.435748      718.07589    
   3407000   297.21772      0.037658231    13.678701      737.40537     -64.404614      673.00075    
   3408000   279.53916      0.037658231    19.960301      693.54437     -74.681728      618.86264    
   3409000   306.69306      0.037658231    20.826942      760.91393     -68.052956      692.86097    
   3410000   301.36925      0.037658231    7.8846988      747.70541     -71.50017       676.20524    
   3411000   283.21584      0.037658231    14.461533      702.66631     -60.655276      642.01103    
   3412000   300.95861      0.037658231    26.486106      746.6866      -60.415934      686.27066    
   3413000   317.48209      0.037658231    31.76251       787.68182     -63.585884      724.09593    
   3414000   316.35224      0.037658231    26.301018      784.87862     -57.534321      727.3443     
   3415000   296.75387      0.037658231    11.717459      736.25452     -57.254207      679.00031    
   3416000   295.06394      0.037658231    17.30717       732.06177     -58.05251       674.00926    
   3417000   307.0093       0.037658231    34.288073      761.69854     -58.758938      702.9396     
   3418000   306.71576      0.037658231    30.627438      760.97026     -55.267691      705.70257    
   3419000   296.64518      0.037658231    16.691295      735.98486     -56.138262      679.8466     
   3420000   291.78007      0.037658231    19.098922      723.91439     -58.168645      665.74574    
   3421000   300.67419      0.037658231    25.35142       745.98094     -61.057157      684.92378    
   3422000   300.23487      0.037658231    20.669308      744.89098     -57.80287       687.08811    
   3423000   296.00101      0.037658231    17.035026      734.38667     -61.107153      673.27951    
   3424000   297.74588      0.037658231    17.153001      738.71573     -67.180611      671.53512    
   3425000   296.02159      0.037658231    18.417113      734.43773     -69.772049      664.66568    
   3426000   299.14826      0.037658231    16.495711      742.19509     -73.51393       668.68116    
   3427000   300.88163      0.037658231    21.020363      746.49563     -67.260962      679.23466    
   3428000   307.06962      0.037658231    21.016009      761.84818     -63.78162       698.06656    
   3429000   293.73405      0.037658231    16.57914       728.76228     -62.244618      666.51766    
   3430000   296.28395      0.037658231    18.907215      735.08865     -65.542985      669.54567    
   3431000   301.05128      0.037658231    20.98737       746.91652     -60.745058      686.17146    
   3432000   312.63101      0.037658231    22.769814      775.64616     -60.395252      715.25091    
   3433000   296.29498      0.037658231    17.731827      735.11603     -64.854395      670.26163    
   3434000   293.16383      0.037658231    17.312656      727.34754     -63.618826      663.72871    
   3435000   303.30968      0.037658231    22.132612      752.51967     -64.186091      688.33358    
   3436000   302.11847      0.037658231    20.548943      749.56425     -69.220015      680.34424    
   3437000   297.56954      0.037658231    20.089685      738.27823     -63.171168      675.10706    
   3438000   293.14539      0.037658231    23.067437      727.30179     -62.811371      664.49042    
   3439000   284.17536      0.037658231    23.738225      705.04689     -59.155561      645.89133    
   3440000   301.12396      0.037658231    6.0202689      747.09685     -69.011034      678.08582    
   3441000   302.81492      0.037658231    11.029504      751.29217     -63.762633      687.52953    
   3442000   304.82488      0.037658231    25.800696      756.27892     -63.431537      692.84738    
   3443000   285.62161      0.037658231    20.699555      708.63508     -59.462783      649.17229    
   3444000   287.50885      0.037658231    10.788739      713.31737     -66.508481      646.80889    
   3445000   306.51966      0.037658231    17.049997      760.48371     -64.165344      696.31837    
   3446000   308.22066      0.037658231    21.166941      764.70395     -61.176592      703.52735    
   3447000   292.66702      0.037658231    17.223673      726.11495     -62.025729      664.08922    
   3448000   291.90821      0.037658231    18.586552      724.23232     -58.483667      665.74865    
   3449000   305.47526      0.037658231    12.260895      757.89254     -59.293031      698.59951    
   3450000   309.02577      0.037658231    23.07203       766.70144     -56.304381      710.39706    
   3451000   275.66604      0.037658231    18.818859      683.93505     -57.444156      626.49089    
   3452000   287.74405      0.037658231    18.106176      713.90092     -59.78008       654.12084    
   3453000   313.29682      0.037658231    19.079974      777.29804     -62.691871      714.60617    
   3454000   309.3885       0.037658231    25.625777      767.60139     -55.786692      711.8147     
   3455000   294.95837      0.037658231    34.790715      731.79984     -63.425974      668.37387    
   3456000   285.71263      0.037658231    17.655156      708.86091     -69.943261      638.91765    
   3457000   305.28694      0.037658231    11.084811      757.42531     -71.592846      685.83247    
   3458000   318.37611      0.037658231    12.798062      789.89991     -69.339629      720.56028    
   3459000   302.07939      0.037658231    23.619524      749.46729     -68.849202      680.61808    
   3460000   282.82064      0.037658231    24.214684      701.68581     -70.014387      631.67142    
   3461000   307.40342      0.037658231    13.291482      762.67636     -71.304817      691.37154    
   3462000   322.94528      0.037658231    19.82422       801.23614     -63.816633      737.4195     
   3463000   297.59574      0.037658231    22.088251      738.34325     -63.35275       674.9905     
   3464000   289.49843      0.037658231    17.14446       718.25358     -62.895068      655.35851    
   3465000   307.69592      0.037658231    15.882639      763.40205     -63.19664       700.20541    
   3466000   314.66463      0.037658231    20.589131      780.69163     -65.314301      715.37733    
   3467000   292.31523      0.037658231    18.692362      725.24215     -70.238726      655.00342    
   3468000   293.1504       0.037658231    23.235362      727.31422     -60.013402      667.30081    
   3469000   306.36032      0.037658231    20.053114      760.08839     -65.100626      694.98777    
   3470000   295.64416      0.037658231    18.451811      733.50131     -65.373004      668.12831    
   3471000   301.82569      0.037658231    12.403185      748.83787     -71.499237      677.33863    
   3472000   290.16068      0.037658231    23.256835      719.89665     -59.206626      660.69002    
   3473000   298.97661      0.037658231    27.731244      741.76922     -60.263484      681.50574    
   3474000   319.53739      0.037658231    13.186255      792.78106     -62.524616      730.25645    
   3475000   301.04828      0.037658231    13.601938      746.90908     -56.33947       690.56961    
   3476000   292.69152      0.037658231    34.971258      726.17572     -58.421858      667.75386    
   3477000   305.53797      0.037658231    19.185476      758.04814     -58.974528      699.07361    
   3478000   298.11801      0.037658231    15.801614      739.63901     -62.318015      677.321      
   3479000   299.71689      0.037658231    22.446436      743.60587     -64.34964       679.25623    
   3480000   304.92132      0.037658231    26.577702      756.5182      -61.673373      694.84483    
   3481000   293.68609      0.037658231    13.455197      728.64328     -61.545108      667.09817    
   3482000   300.89942      0.037658231    20.431665      746.53975     -51.180013      695.35974    
   3483000   309.02712      0.037658231    17.724288      766.70481     -59.26652       707.43829    
   3484000   296.01888      0.037658231    19.735928      734.43101     -55.781175      678.64984    
   3485000   298.0708       0.037658231    16.437811      739.52186     -67.653083      671.86878    
   3486000   300.13268      0.037658231    20.693969      744.63745     -63.178094      681.45936    
   3487000   301.55724      0.037658231    19.293694      748.17183     -66.900089      681.27174    
   3488000   297.49737      0.037658231    19.026875      738.09917     -64.666741      673.43243    
   3489000   293.64873      0.037658231    27.800497      728.5506      -58.926945      669.62365    
   3490000   318.96196      0.037658231    20.227832      791.35342     -61.387836      729.96559    
   3491000   287.73291      0.037658231    15.82407       713.87327     -60.986077      652.8872     
   3492000   297.08088      0.037658231    29.546718      737.06586     -55.645924      681.41994    
   3493000   306.60959      0.037658231    26.00943       760.70684     -61.121179      699.58566    
   3494000   307.04526      0.037658231    19.560581      761.78774     -54.704817      707.08293    
   3495000   282.6401       0.037658231    17.190895      701.23789     -53.644313      647.59357    
   3496000   302.33061      0.037658231    17.654341      750.09057     -55.431271      694.6593     
   3497000   321.51028      0.037658231    21.942692      797.67588     -55.598921      742.07696    
   3498000   297.88101      0.037658231    22.083591      739.05099     -53.169174      685.88182    
   3499000   295.08609      0.037658231    18.320066      732.11673     -54.978722      677.13801    
   3500000   302.94994      0.037658231    17.84511       751.62715     -54.261154      697.366      
   3501000   310.84643      0.037658231    18.972717      771.21857     -55.785139      715.43343    
   3502000   297.42383      0.037658231    14.801716      737.91673     -53.74528       684.17145    
   3503000   294.70109      0.037658231    17.544705      731.16154     -58.545518      672.61602    
   3504000   304.59489      0.037658231    21.896453      755.70831     -58.629394      697.07892    
   3505000   308.40026      0.037658231    27.877795      765.14954     -56.030539      709.119      
   3506000   294.55082      0.037658231    27.363         730.7887      -53.111212      677.67749    
   3507000   291.74896      0.037658231    17.19381       723.8372      -52.110989      671.72621    
   3508000   299.84458      0.037658231    16.154346      743.92266     -53.811823      690.11083    
   3509000   311.2522       0.037658231    19.227951      772.2253      -57.779708      714.44559    
   3510000   295.27881      0.037658231    22.64414       732.59487     -52.926345      679.66853    
   3511000   285.91154      0.037658231    9.8222289      709.35442     -53.687874      655.66655    
   3512000   310.59118      0.037658231    15.794245      770.58528     -56.222662      714.36261    
   3513000   298.24573      0.037658231    27.658175      739.95587     -55.038023      684.91785    
   3514000   301.03209      0.037658231    19.720842      746.8689      -47.808145      699.06076    
   3515000   308.91313      0.037658231    13.7198        766.42199     -47.196598      719.22539    
   3516000   304.44391      0.037658231    22.013557      755.33373     -44.654261      710.67947    
   3517000   294.99067      0.037658231    20.766285      731.87998     -51.885652      679.99433    
   3518000   301.49607      0.037658231    16.050791      748.02005     -51.701807      696.31825    
   3519000   309.8294       0.037658231    19.702841      768.69528     -53.273928      715.42135    
   3520000   305.05317      0.037658231    18.713257      756.84532     -53.305368      703.53995    
   3521000   290.18009      0.037658231    16.495633      719.9448      -52.433343      667.51146    
   3522000   317.12167      0.037658231    20.475382      786.7876      -56.565222      730.22238    
   3523000   308.55586      0.037658231    17.046453      765.53558     -60.330355      705.20523    
   3524000   298.27804      0.037658231    19.859055      740.03605     -56.291922      683.74412    
   3525000   294.45192      0.037658231    18.488383      730.54333     -59.779684      670.76365    
   3526000   305.96655      0.037658231    26.809644      759.11143     -55.19339       703.91804    
   3527000   310.20294      0.037658231    23.361056      769.62204     -59.997173      709.62486    
   3528000   310.68476      0.037658231    18.939183      770.81746     -63.559587      707.25787    
   3529000   287.20429      0.037658231    19.431813      712.56177     -66.758854      645.80291    
   3530000   300.55009      0.037658231    22.823781      745.67306     -73.601735      672.07132    
   3531000   306.27031      0.037658231    23.859548      759.86508     -61.919013      697.94607    
   3532000   295.54412      0.037658231    5.211252       733.25312     -56.569363      676.68375    
   3533000   295.98315      0.037658231    19.865121      734.34235     -61.485413      672.85693    
   3534000   311.80505      0.037658231    27.618492      773.59693     -58.533455      715.06347    
   3535000   296.17729      0.037658231    8.9888599      734.82403     -53.695968      681.12806    
   3536000   294.36474      0.037658231    18.31776       730.32703     -63.40177       666.92526    
   3537000   300.15651      0.037658231    19.427035      744.69657     -62.077026      682.61954    
   3538000   306.49786      0.037658231    21.377388      760.42965     -59.238958      701.19069    
   3539000   308.51165      0.037658231    18.861947      765.42591     -54.170855      711.25506    
   3540000   291.89249      0.037658231    19.495323      724.19331     -59.494506      664.6988     
   3541000   305.64208      0.037658231    18.200513      758.30642     -59.9824        698.32402    
   3542000   306.73349      0.037658231    19.0765        761.01425     -55.986101      705.02815    
   3543000   301.32642      0.037658231    22.26012       747.59915     -49.505742      698.09341    
   3544000   285.54986      0.037658231    26.914826      708.45709     -54.121455      654.33563    
   3545000   296.51682      0.037658231    24.400936      735.66641     -53.408715      682.2577     
   3546000   298.06234      0.037658231    6.0623544      739.50089     -55.005897      684.495      
   3547000   300.34307      0.037658231    19.732758      745.15942     -50.923807      694.23562    
   3548000   313.24831      0.037658231    20.707978      777.17769     -56.024378      721.15331    
   3549000   287.36005      0.037658231    27.450739      712.9482      -58.330268      654.61793    
   3550000   295.79765      0.037658231    14.010429      733.88213     -54.651044      679.23108    
   3551000   327.5974       0.037658231    25.24677       812.77818     -60.862679      751.9155     
   3552000   301.42904      0.037658231    25.23271       747.85376     -51.552697      696.30106    
   3553000   292.63651      0.037658231    17.212507      726.03926     -57.674857      668.3644     
   3554000   306.25409      0.037658231    11.860896      759.82483     -54.385669      705.43916    
   3555000   315.16981      0.037658231    18.072057      781.94498     -57.159336      724.78564    
   3556000   313.66887      0.037658231    21.439966      778.22111     -53.412397      724.80872    
   3557000   297.80821      0.037658231    22.011671      738.87038     -49.96963       688.90075    
   3558000   286.15259      0.037658231    17.177833      709.95247     -49.701058      660.25141    
   3559000   305.25019      0.037658231    18.936066      757.33415     -52.383606      704.95054    
   3560000   306.80207      0.037658231    21.557394      761.18439     -49.065364      712.11903    
   3561000   289.62983      0.037658231    24.43301       718.5796      -46.815304      671.7643     
   3562000   295.34074      0.037658231    17.051511      732.74852     -54.367225      678.38129    
   3563000   298.89508      0.037658231    23.132521      741.56694     -44.717651      696.84928    
   3564000   294.92884      0.037658231    17.026013      731.72658     -54.727805      676.99877    
   3565000   300.36985      0.037658231    10.476801      745.22587     -65.079605      680.14626    
   3566000   304.80975      0.037658231    20.681754      756.2414      -60.954625      695.28677    
   3567000   296.04003      0.037658231    21.105457      734.48347     -66.334384      668.14909    
   3568000   299.77424      0.037658231    18.170651      743.74816     -65.46855       678.27961    
   3569000   306.75486      0.037658231    19.707932      761.06726     -55.205925      705.86134    
   3570000   309.83225      0.037658231    21.225367      768.70235     -55.136007      713.56635    
   3571000   300.42798      0.037658231    10.043931      745.37009     -55.633436      689.73666    
   3572000   291.14524      0.037658231    18.190419      722.33936     -55.101494      667.23786    
   3573000   300.32891      0.037658231    20.634808      745.12431     -61.334268      683.79004    
   3574000   300.96715      0.037658231    33.061695      746.7078      -56.780331      689.92747    
   3575000   298.97096      0.037658231    8.0782275      741.7552      -56.312146      685.44306    
   3576000   294.79958      0.037658231    19.164323      731.40588     -49.759765      681.64611    
   3577000   320.77314      0.037658231    27.882378      795.84699     -55.989917      739.85708    
   3578000   303.19735      0.037658231    16.046959      752.24097     -54.972662      697.26831    
   3579000   289.00913      0.037658231    23.90517       717.03961     -58.360365      658.67925    
   3580000   301.56606      0.037658231    22.437958      748.1937      -61.50885       686.68485    
   3581000   288.91909      0.037658231    9.7929388      716.81623     -58.351411      658.46482    
   3582000   299.70473      0.037658231    20.60166       743.57569     -57.059212      686.51648    
   3583000   311.60903      0.037658231    37.59748       773.11059     -59.107827      714.00277    
   3584000   297.56357      0.037658231    19.693238      738.26343     -61.138876      677.12455    
   3585000   290.15088      0.037658231    12.503824      719.87234     -63.128418      656.74392    
   3586000   303.58306      0.037658231    14.800627      753.19793     -63.388327      689.80961    
   3587000   303.90722      0.037658231    33.628583      754.00218     -60.358767      693.64341    
   3588000   299.96235      0.037658231    15.997064      744.21485     -64.542216      679.67264    
   3589000   293.85018      0.037658231    15.920902      729.0504      -60.588155      668.46225    
   3590000   302.1821       0.037658231    17.511965      749.72213     -62.338429      687.3837     
   3591000   301.97872      0.037658231    18.985341      749.21752     -62.181889      687.03563    
   3592000   295.24664      0.037658231    31.725596      732.51505     -55.224713      677.29034    
   3593000   313.40444      0.037658231    21.070289      777.56507     -67.547804      710.01726    
   3594000   291.89397      0.037658231    12.208825      724.19698     -61.265538      662.93144    
   3595000   298.30658      0.037658231    21.053751      740.10685     -63.918344      676.18851    
   3596000   304.77338      0.037658231    24.395023      756.15115     -62.336368      693.81478    
   3597000   304.45072      0.037658231    18.052413      755.35062     -60.814612      694.53601    
   3598000   292.60443      0.037658231    14.883322      725.95965     -64.954104      661.00555    
   3599000   293.57881      0.037658231    17.976256      728.37712     -67.130761      661.24636    
   3600000   303.80755      0.037658231    17.964453      753.75491     -70.953807      682.8011     
   3601000   296.7697       0.037658231    22.691594      736.2938      -69.310616      666.98319    
   3602000   294.4489       0.037658231    17.490154      730.53583     -66.709777      663.82605    
   3603000   305.93131      0.037658231    16.687231      759.024       -64.245328      694.77868    
   3604000   304.34749      0.037658231    13.10699       755.09451     -66.493007      688.6015     
   3605000   303.04624      0.037658231    22.62287       751.86608     -61.899765      689.96632    
   3606000   300.38093      0.037658231    25.408812      745.25337     -59.606969      685.6464     
   3607000   297.4592       0.037658231    14.100774      738.00446     -72.172463      665.832      
   3608000   305.82509      0.037658231    15.851625      758.76047     -65.611204      693.14927    
   3609000   295.26381      0.037658231    22.849687      732.55766     -63.688245      668.86941    
   3610000   298.38201      0.037658231    27.783549      740.294       -63.060244      677.23376    
   3611000   291.5549       0.037658231    18.464963      723.35574     -69.706402      653.64934    
   3612000   283.33964      0.037658231    17.585223      702.97345     -67.601452      635.372      
   3613000   311.38309      0.037658231    22.132126      772.55004     -64.193162      708.35688    
   3614000   306.68456      0.037658231    18.511996      760.89284     -60.039227      700.85361    
   3615000   293.03969      0.037658231    13.521896      727.03955     -57.267263      669.77229    
   3616000   293.62977      0.037658231    18.565178      728.50354     -60.288307      668.21523    
   3617000   305.56678      0.037658231    20.758817      758.11961     -60.107947      698.01166    
   3618000   297.63575      0.037658231    28.250627      738.44249     -65.870334      672.57216    
   3619000   287.01461      0.037658231    16.713985      712.09116     -67.786065      644.3051     
   3620000   286.55258      0.037658231    23.515891      710.94485     -60.625331      650.31952    
   3621000   299.42417      0.037658231    7.9986238      742.87962     -60.711918      682.16771    
   3622000   311.72558      0.037658231    20.878558      773.39975     -59.740394      713.65935    
   3623000   299.23368      0.037658231    28.415146      742.40701     -58.259862      684.14715    
   3624000   290.54034      0.037658231    18.459499      720.83859     -59.649806      661.18879    
   3625000   304.12129      0.037658231    20.941159      754.53331     -53.351822      701.18149    
   3626000   307.84338      0.037658231    19.193674      763.76792     -57.221933      706.54598    
   3627000   281.89677      0.037658231    18.151634      699.39367     -61.756741      637.63692    
   3628000   297.81804      0.037658231    21.530836      738.89477     -62.674411      676.22036    
   3629000   313.28174      0.037658231    22.522039      777.26062     -62.828212      714.43241    
   3630000   311.2083       0.037658231    21.61468       772.11637     -56.667978      715.44839    
   3631000   290.89225      0.037658231    15.533969      721.71168     -60.650601      661.06108    
   3632000   286.63584      0.037658231    17.937653      711.15143     -62.414539      648.73689    
   3633000   308.07951      0.037658231    32.450949      764.35376     -58.830677      705.52308    
   3634000   307.82767      0.037658231    11.605914      763.72895     -57.296196      706.43275    
   3635000   299.90912      0.037658231    14.639277      744.0828      -57.203634      686.87917    
   3636000   296.74145      0.037658231    19.836809      736.22372     -61.64452       674.5792     
   3637000   300.55904      0.037658231    31.709829      745.69526     -62.357718      683.33755    
   3638000   318.09954      0.037658231    27.76924       789.21373     -62.781141      726.43259    
   3639000   315.64813      0.037658231    20.537289      783.13172     -61.393122      721.73859    
   3640000   294.58868      0.037658231    14.326092      730.88263     -60.89672       669.98591    
   3641000   290.50155      0.037658231    20.175021      720.74235     -60.906471      659.83588    
   3642000   303.1356       0.037658231    18.634523      752.08779     -67.833101      684.25469    
   3643000   303.25486      0.037658231    20.252815      752.38367     -65.463257      686.92041    
   3644000   301.84021      0.037658231    23.670757      748.87388     -60.693263      688.18062    
   3645000   295.09021      0.037658231    19.885449      732.12694     -58.284454      673.84249    
   3646000   296.33295      0.037658231    21.168363      735.21021     -54.637609      680.5726     
   3647000   303.06681      0.037658231    18.129024      751.9171      -64.978471      686.93863    
   3648000   298.06299      0.037658231    20.827136      739.50249     -60.291339      679.21115    
   3649000   302.88985      0.037658231    17.228153      751.47807     -59.639081      691.83899    
   3650000   284.12055      0.037658231    15.099646      704.91092     -63.1123        641.79862    
   3651000   305.52349      0.037658231    22.833992      758.01221     -68.099242      689.91297    
   3652000   304.89444      0.037658231    21.180245      756.45151     -53.303325      703.14818    
   3653000   298.88482      0.037658231    18.331513      741.54148     -58.273193      683.26829    
   3654000   285.48965      0.037658231    19.871837      708.30768     -59.849469      648.45821    
   3655000   310.85448      0.037658231    17.483635      771.23852     -58.425925      712.8126     
   3656000   313.76672      0.037658231    19.743926      778.46387     -61.121559      717.34231    
   3657000   290.13907      0.037658231    18.873386      719.84302     -60.857625      658.98539    
   3658000   301.34588      0.037658231    17.7825        747.64744     -64.891843      682.7556     
   3659000   309.4309       0.037658231    19.619427      767.70658     -56.886198      710.82038    
   3660000   300.70971      0.037658231    18.009465      746.06909     -61.683173      684.38592    
   3661000   299.23954      0.037658231    15.977318      742.42155     -65.055222      677.36633    
   3662000   300.2551       0.037658231    21.996133      744.94118     -64.409494      680.53168    
   3663000   303.53357      0.037658231    23.384769      753.07516     -65.123228      687.95193    
   3664000   313.38559      0.037658231    15.308725      777.51828     -57.915608      719.60268    
   3665000   297.2307       0.037658231    16.235597      737.43755     -58.334501      679.10305    
   3666000   284.61763      0.037658231    20.180922      706.14419     -53.959042      652.18515    
   3667000   303.41707      0.037658231    26.278523      752.78612     -59.005361      693.78076    
   3668000   313.12516      0.037658231    19.248159      776.87216     -60.425675      716.44649    
   3669000   306.64926      0.037658231    10.179235      760.80527     -63.677632      697.12764    
   3670000   289.53753      0.037658231    23.31164       718.3506      -63.634389      654.71621    
   3671000   307.96004      0.037658231    20.785664      764.05735     -70.28384       693.77351    
   3672000   300.16895      0.037658231    18.174842      744.72744     -63.688732      681.03871    
   3673000   295.49097      0.037658231    17.985397      733.12125     -62.47089       670.65036    
   3674000   297.57363      0.037658231    20.662852      738.28838     -63.240606      675.04778    
   3675000   309.6283       0.037658231    17.195585      768.19636     -62.748273      705.44808    
   3676000   299.27936      0.037658231    12.466092      742.52035     -57.156976      685.36338    
   3677000   292.91398      0.037658231    21.96519       726.72765     -64.90424       661.82341    
   3678000   316.85123      0.037658231    22.66629       786.11663     -65.419639      720.69699    
   3679000   304.82568      0.037658231    8.1432304      756.28091     -59.53672       696.74419    
   3680000   291.56214      0.037658231    16.034068      723.37371     -64.692252      658.68146    
   3681000   294.17051      0.037658231    29.833488      729.84515     -63.201916      666.64324    
   3682000   307.13656      0.037658231    24.375552      762.01426     -60.408851      701.60541    
   3683000   304.01575      0.037658231    13.34954       754.27145     -58.982989      695.28846    
   3684000   297.65432      0.037658231    24.831633      738.48857     -62.284831      676.20374    
   3685000   301.56284      0.037658231    20.847914      748.18572     -62.440475      685.74524    
   3686000   305.71842      0.037658231    17.9988        758.49582     -56.36955       702.12627    
   3687000   305.43606      0.037658231    0.16818884     757.79529     -57.345134      700.45016    
   3688000   295.19149      0.037658231    14.471626      732.37824     -54.016754      678.36148    
   3689000   296.95432      0.037658231    20.824137      736.75185     -53.165452      683.5864     
   3690000   306.67054      0.037658231    21.54208       760.85807     -56.00865       704.84942    
   3691000   321.43428      0.037658231    9.280338       797.4873      -57.068517      740.41878    
   3692000   293.47232      0.037658231    21.908841      728.11292     -54.844984      673.26794    
   3693000   298.89846      0.037658231    20.992476      741.57532     -57.066963      684.50835    
   3694000   294.31512      0.037658231    5.0457147      730.20393     -58.881027      671.3229     
   3695000   293.72359      0.037658231    26.487057      728.73633     -54.615253      674.12108    
   3696000   306.25848      0.037658231    32.174499      759.83574     -57.600766      702.23497    
   3697000   298.79995      0.037658231    19.740264      741.33091     -62.152854      679.17805    
   3698000   296.28655      0.037658231    9.9335976      735.0951      -57.200629      677.89447    
   3699000   291.79387      0.037658231    6.5767771      723.94863     -57.020281      666.92835    
   3700000   297.5274       0.037658231    21.567966      738.17369     -56.676091      681.49759    
   3701000   297.62644      0.037658231    27.072279      738.41941     -59.575024      678.84439    
   3702000   310.78441      0.037658231    22.25336       771.06469     -64.589114      706.47557    
   3703000   296.31065      0.037658231    20.379491      735.15489     -59.712015      675.44288    
   3704000   296.21943      0.037658231    22.843328      734.92858     -53.637522      681.29106    
   3705000   301.98855      0.037658231    7.4315314      749.24191     -65.34204       683.89987    
   3706000   301.42751      0.037658231    22.256293      747.84997     -62.959789      684.89018    
   3707000   286.42357      0.037658231    18.070129      710.62477     -59.588144      651.03662    
   3708000   308.91486      0.037658231    15.18698       766.42629     -55.92002       710.50627    
   3709000   311.32722      0.037658231    20.344209      772.41142     -58.815452      713.59597    
   3710000   303.7606       0.037658231    20.582605      753.63842     -65.900058      687.73837    
   3711000   295.44111      0.037658231    18.665492      732.99755     -63.800899      669.19665    
   3712000   299.19407      0.037658231    18.634657      742.30874     -60.049282      682.25945    
   3713000   298.79669      0.037658231    22.300437      741.32282     -59.59661       681.72622    
   3714000   312.60308      0.037658231    23.233251      775.57687     -66.403053      709.17381    
   3715000   300.06445      0.037658231    16.269696      744.46817     -66.93557       677.5326     
   3716000   287.941        0.037658231    18.669245      714.38956     -74.931627      639.45793    
   3717000   303.19667      0.037658231    23.003325      752.2393      -69.201727      683.03757    
   3718000   311.62465      0.037658231    18.89478       773.14935     -64.322245      708.82711    
   3719000   298.72571      0.037658231   -4.6531125      741.14672     -68.540126      672.6066     
   3720000   295.08049      0.037658231    18.457453      732.10283     -67.723966      664.37887    
   3721000   301.38902      0.037658231    23.926671      747.75446     -66.980902      680.77356    
   3722000   298.81941      0.037658231    17.693931      741.3792      -69.708319      671.67088    
   3723000   281.9509       0.037658231    20.204419      699.52795     -73.355412      626.17254    
   3724000   306.40055      0.037658231    29.318033      760.1882      -68.610649      691.57755    
   3725000   306.74797      0.037658231    24.970631      761.05018     -69.138306      691.91187    
   3726000   299.69113      0.037658231    15.417449      743.54194     -69.739863      673.80208    
   3727000   296.43416      0.037658231    18.537956      735.46133     -75.960353      659.50098    
   3728000   301.95834      0.037658231    22.755299      749.16697     -70.234346      678.93263    
   3729000   301.84248      0.037658231    20.810573      748.8795      -78.416547      670.46296    
   3730000   292.31042      0.037658231    23.210903      725.23021     -69.408214      655.82199    
   3731000   295.47514      0.037658231    20.860641      733.08196     -66.163184      666.91877    
   3732000   300.83126      0.037658231    15.086537      746.37064     -62.469773      683.90086    
   3733000   315.80771      0.037658231    23.304873      783.52763     -60.272209      723.25542    
   3734000   299.15812      0.037658231    29.781664      742.21955     -65.860846      676.3587     
   3735000   298.58979      0.037658231    8.9719607      740.80949     -68.313745      672.49574    
   3736000   299.67557      0.037658231    12.260613      743.50335     -60.677499      682.82585    
   3737000   294.8208       0.037658231    30.519427      731.45853     -61.856164      669.60236    
   3738000   301.53058      0.037658231    22.344913      748.10568     -67.037459      681.06822    
   3739000   311.06501      0.037658231    16.562249      771.76087     -75.531849      696.22902    
   3740000   300.11529      0.037658231    20.949119      744.5943      -75.5458        669.0485     
   3741000   306.30347      0.037658231    31.019049      759.94735     -72.45763       687.48972    
   3742000   297.01508      0.037658231    19.878518      736.9026      -68.497224      668.40538    
   3743000   289.39429      0.037658231    16.599966      717.9952      -72.05725       645.93795    
   3744000   308.83315      0.037658231    18.797243      766.22357     -70.160715      696.06285    
   3745000   294.3198       0.037658231    21.617714      730.21554     -64.425129      665.79041    
   3746000   299.78699      0.037658231    16.811426      743.77978     -67.11106       676.66872    
   3747000   298.20644      0.037658231    18.581403      739.85839     -64.916064      674.94233    
   3748000   289.13976      0.037658231    19.05714       717.36371     -74.170949      643.19276    
   3749000   300.73922      0.037658231    20.425059      746.1423      -72.813189      673.32911    
   3750000   307.44849      0.037658231    17.17995       762.78819     -75.755168      687.03302    
   3751000   298.46129      0.037658231    24.361762      740.49069     -72.253305      668.23738    
   3752000   285.85923      0.037658231    25.102307      709.22464     -70.356014      638.86862    
   3753000   301.06102      0.037658231    20.865731      746.94068     -65.183663      681.75702    
   3754000   319.20756      0.037658231    22.5406        791.96275     -69.564455      722.3983     
   3755000   285.45846      0.037658231    23.062652      708.2303      -64.994318      643.23598    
   3756000   301.06131      0.037658231    16.162518      746.9414      -62.70882       684.23258    
   3757000   313.00236      0.037658231    25.321572      776.56748     -60.259684      716.3078     
   3758000   306.3324       0.037658231    37.133959      760.01912     -64.823908      695.19521    
   3759000   291.22724      0.037658231    30.747889      722.54281     -62.1           660.44281    
   3760000   298.75425      0.037658231   -4.0533174      741.21753     -63.782768      677.43476    
   3761000   305.148        0.037658231    21.533481      757.08059     -62.817267      694.26332    
   3762000   300.20517      0.037658231    34.435978      744.81729     -65.277498      679.5398     
   3763000   291.20876      0.037658231    12.953822      722.49696     -76.286951      646.21001    
   3764000   301.24394      0.037658231    11.555012      747.39451     -76.913057      670.48145    
   3765000   300.00452      0.037658231    28.992088      744.31949     -66.95194       677.36755    
   3766000   300.72304      0.037658231    21.050466      746.10216     -63.926459      682.17571    
   3767000   301.16403      0.037658231    4.2917517      747.19625     -61.480789      685.71546    
   3768000   305.55939      0.037658231    25.856642      758.10127     -63.520839      694.58043    
   3769000   302.2947       0.037658231    19.102872      750.00148     -59.99524       690.00624    
   3770000   290.57899      0.037658231    17.438412      720.93448     -62.468718      658.46576    
   3771000   303.59864      0.037658231    17.740862      753.2366      -66.521826      686.71477    
   3772000   323.07022      0.037658231    20.707157      801.54612     -61.146127      740.39999    
   3773000   304.43458      0.037658231    20.617426      755.31058     -63.318041      691.99254    
   3774000   280.52259      0.037658231    18.800335      695.98429     -66.305195      629.67909    
   3775000   304.52295      0.037658231    19.713617      755.52983     -68.005606      687.52422    
   3776000   306.33788      0.037658231    22.847936      760.03273     -69.878171      690.15456    
   3777000   297.99082      0.037658231    19.312933      739.32345     -67.386384      671.93706    
   3778000   305.34447      0.037658231    19.851793      757.56805     -64.792841      692.77521    
   3779000   301.74143      0.037658231    17.823162      748.62881     -70.365347      678.26346    
   3780000   288.03317      0.037658231    21.649242      714.61824     -66.386645      648.2316     
   3781000   305.67541      0.037658231    18.764599      758.38911     -61.851897      696.53722    
   3782000   305.37069      0.037658231    7.6140704      757.63311     -65.515548      692.11756    
   3783000   295.7765       0.037658231    19.29996       733.82964     -58.917254      674.91239    
   3784000   297.25504      0.037658231    17.878386      737.49794     -61.92524       675.5727     
   3785000   294.85553      0.037658231    18.869502      731.54471     -62.39774       669.14697    
   3786000   305.70527      0.037658231    8.8642791      758.4632      -58.881882      699.58132    
   3787000   290.08899      0.037658231    18.113576      719.71878     -62.593716      657.12507    
   3788000   298.72511      0.037658231    34.673933      741.14524     -65.187861      675.95738    
   3789000   305.90869      0.037658231    32.041872      758.96788     -64.692638      694.27525    
   3790000   308.62897      0.037658231    21.978845      765.71698     -63.866341      701.85064    
   3791000   293.0042       0.037658231    10.467899      726.95149     -63.805696      663.1458     
   3792000   295.9213       0.037658231    19.217648      734.18889     -57.972283      676.21661    
   3793000   305.53676      0.037658231    26.546283      758.04511     -60.08849       697.95662    
   3794000   308.99602      0.037658231    17.740027      766.62763     -65.685051      700.94258    
   3795000   289.83896      0.037658231    16.848491      719.09844     -62.24196       656.85648    
   3796000   288.96556      0.037658231    18.557573      716.93151     -67.225519      649.70599    
   3797000   312.52026      0.037658231    23.686867      775.37139     -68.129443      707.24195    
   3798000   298.26077      0.037658231    9.301252       739.99319     -67.041631      672.95156    
   3799000   298.85921      0.037658231    21.361013      741.47793     -69.157254      672.32068    
   3800000   304.50868      0.037658231    20.015042      755.49444     -66.998146      688.49629    
   3801000   297.49901      0.037658231    13.547822      738.10325     -73.181212      664.92204    
   3802000   302.50107      0.037658231    20.535353      750.5135      -71.294152      679.21935    
   3803000   301.56789      0.037658231    19.689531      748.19825     -65.850194      682.34806    
   3804000   294.58626      0.037658231    18.525542      730.87662     -68.722561      662.15406    
   3805000   285.26693      0.037658231    10.823251      707.7551      -59.811054      647.94405    
   3806000   292.26714      0.037658231    22.836117      725.12284     -60.471442      664.6514     
   3807000   310.03976      0.037658231    25.038294      769.2172      -60.766398      708.4508     
   3808000   302.47884      0.037658231    19.859879      750.45833     -57.333103      693.12523    
   3809000   287.78805      0.037658231    14.30738       714.01008     -57.416448      656.59363    
   3810000   302.27362      0.037658231    25.880902      749.94918     -55.071057      694.87813    
   3811000   307.65749      0.037658231    18.297697      763.30671     -60.722035      702.58467    
   3812000   308.40709      0.037658231    2.1589414      765.16649     -56.605582      708.56091    
   3813000   303.13666      0.037658231    8.5011651      752.09041     -64.789168      687.30125    
   3814000   291.54704      0.037658231    25.310109      723.33623     -60.053138      663.2831     
   3815000   307.19544      0.037658231    32.975286      762.16036     -59.858678      702.30168    
   3816000   304.12349      0.037658231    7.4692629      754.53875     -59.739554      694.7992     
   3817000   299.01161      0.037658231    11.741555      741.85604     -59.568014      682.28803    
   3818000   288.86919      0.037658231    23.431171      716.69241     -59.207824      657.48459    
   3819000   325.85303      0.037658231    24.036183      808.45035     -61.049354      747.40099    
   3820000   301.7911       0.037658231    10.057796      748.75203     -55.238005      693.51402    
   3821000   290.61946      0.037658231    11.937359      721.0349      -55.086166      665.94873    
   3822000   304.3919       0.037658231    36.55921       755.20469     -48.26608       706.93861    
   3823000   312.67241      0.037658231    19.143572      775.74887     -50.79097       724.9579     
   3824000   285.25323      0.037658231    18.786605      707.72112     -55.964107      651.75702    
   3825000   286.91503      0.037658231    26.942292      711.84409     -63.281984      648.5621     
   3826000   309.53661      0.037658231    19.556231      767.96887     -62.581706      705.38716    
   3827000   301.98346      0.037658231    17.281768      749.22928     -58.792011      690.43727    
   3828000   296.30048      0.037658231    17.878548      735.12967     -65.909805      669.21986    
   3829000   303.72622      0.037658231    23.097233      753.55313     -62.96396       690.58917    
   3830000   302.98867      0.037658231    12.629196      751.72324     -62.684849      689.03839    
   3831000   292.57006      0.037658231    19.069779      725.87438     -65.925798      659.94858    
   3832000   308.5997       0.037658231    33.140379      765.64436     -69.789631      695.85473    
   3833000   306.11298      0.037658231    15.059388      759.47473     -71.618082      687.85665    
   3834000   289.4391       0.037658231    6.8658218      718.10639     -71.304579      646.80181    
   3835000   301.59835      0.037658231    19.771445      748.27382     -69.673337      678.60048    
   3836000   317.30414      0.037658231    31.675012      787.24032     -59.270253      727.97006    
   3837000   305.22237      0.037658231    17.362514      757.2651      -67.841767      689.42334    
   3838000   298.66089      0.037658231    20.5072        740.98589     -64.839306      676.14658    
   3839000   306.94604      0.037658231    19.073718      761.54158     -65.821121      695.72046    
   3840000   299.03904      0.037658231    14.618162      741.9241      -72.242312      669.68179    
   3841000   299.15502      0.037658231    17.65061       742.21184     -71.170321      671.04152    
   3842000   308.60989      0.037658231    20.776528      765.66965     -70.938409      694.73124    
   3843000   290.08278      0.037658231    15.512768      719.70336     -66.07583       653.62753    
   3844000   304.17469      0.037658231    12.071275      754.66578     -66.30447       688.36131    
   3845000   308.39871      0.037658231    22.209695      765.1457      -61.683357      703.46234    
   3846000   303.16446      0.037658231    29.634925      752.15939     -61.694284      690.46511    
   3847000   291.36523      0.037658231    21.52139       722.88517     -58.857272      664.0279     
   3848000   293.92867      0.037658231    8.813389       729.24514     -59.269664      669.97547    
   3849000   302.96232      0.037658231    22.994078      751.65786     -53.223521      698.43434    
   3850000   318.55421      0.037658231    36.439986      790.34179     -51.37006       738.97173    
   3851000   298.96412      0.037658231    18.365971      741.73822     -54.905024      686.83319    
   3852000   298.60529      0.037658231    2.0074612      740.84796     -59.134317      681.71365    
   3853000   305.92254      0.037658231    20.247935      759.00225     -58.097273      700.90498    
   3854000   307.46789      0.037658231    34.75193       762.83632     -64.606409      698.22991    
   3855000   297.44421      0.037658231    22.453162      737.96728     -62.098173      675.86911    
   3856000   294.44649      0.037658231    16.722591      730.52986     -64.826602      665.70326    
   3857000   304.02627      0.037658231    23.676167      754.29756     -58.528435      695.76912    
   3858000   299.97565      0.037658231    22.689329      744.24785     -61.693018      682.55483    
   3859000   293.5156       0.037658231    18.019779      728.2203      -65.526937      662.69336    
   3860000   307.44526      0.037658231    12.76957       762.78017     -57.219312      705.56086    
   3861000   301.9393       0.037658231    31.218036      749.11972     -58.263118      690.85661    
   3862000   292.56671      0.037658231    22.432108      725.86608     -54.99517       670.87091    
   3863000   307.50299      0.037658231   -4.1802824      762.9234      -54.755019      708.16838    
   3864000   295.95101      0.037658231    15.700783      734.26262     -59.981555      674.28107    
   3865000   295.68784      0.037658231    57.592921      733.60967     -64.177782      669.43189    
   3866000   309.61762      0.037658231    36.435249      768.16984     -69.693342      698.4765     
   3867000   302.04963      0.037658231    8.4030072      749.39345     -66.850359      682.54309    
   3868000   305.50027      0.037658231    6.0863639      757.9546      -57.474971      700.47963    
   3869000   300.93292      0.037658231    22.916013      746.62287     -64.491144      682.13172    
   3870000   300.66246      0.037658231    34.682166      745.95186     -62.679824      683.27203    
   3871000   293.61442      0.037658231    20.411219      728.46547     -65.915344      662.55013    
   3872000   296.97187      0.037658231    10.878955      736.7954      -58.844746      677.95066    
   3873000   312.83471      0.037658231    18.863048      776.15154     -63.49096       712.66058    
   3874000   299.96049      0.037658231    24.182744      744.21024     -73.432052      670.77819    
   3875000   292.83634      0.037658231    14.57386       726.53503     -74.402143      652.13288    
   3876000   317.01442      0.037658231    20.362218      786.52153     -73.360296      713.16123    
   3877000   295.01882      0.037658231    20.874276      731.94982     -75.371503      656.57832    
   3878000   289.01064      0.037658231    17.548952      717.04335     -73.497789      643.54557    
   3879000   299.08227      0.037658231    13.989845      742.03136     -70.166546      671.86481    
   3880000   309.40489      0.037658231    20.853878      767.64205     -72.808289      694.83376    
   3881000   307.74858      0.037658231    19.336963      763.53271     -72.853552      690.67916    
   3882000   300.8006       0.037658231    18.522357      746.29458     -68.459353      677.83523    
   3883000   286.30119      0.037658231    18.079177      710.32114     -71.803012      638.51813    
   3884000   299.71728      0.037658231    18.681119      743.60683     -68.213601      675.39323    
   3885000   304.60533      0.037658231    18.176404      755.73423     -69.128569      686.60566    
   3886000   322.00672      0.037658231    26.850837      798.90755     -71.875052      727.03249    
   3887000   304.63907      0.037658231    14.402428      755.81792     -71.201942      684.61598    
   3888000   287.71616      0.037658231    12.10921       713.83173     -63.020142      650.81159    
   3889000   293.1091       0.037658231    24.611395      727.21177     -64.093327      663.11844    
   3890000   310.97257      0.037658231    24.110327      771.53151     -63.13009       708.40142    
   3891000   309.46043      0.037658231    15.187809      767.77986     -59.356931      708.42293    
   3892000   298.91884      0.037658231    5.8569435      741.62587     -56.645302      684.98057    
   3893000   295.97854      0.037658231    19.670467      734.33091     -58.476841      675.85407    
   3894000   309.24338      0.037658231    22.0342        767.24136     -55.798927      711.44243    
   3895000   297.26126      0.037658231    19.689587      737.51337     -59.630165      677.88321    
   3896000   298.83289      0.037658231    21.964196      741.41264     -61.28072       680.13192    
   3897000   307.25289      0.037658231    22.726849      762.3029      -60.966538      701.33636    
   3898000   302.62218      0.037658231    23.893216      750.81398     -60.642198      690.17178    
   3899000   302.30194      0.037658231    18.312888      750.01944     -59.306596      690.71284    
   3900000   303.87322      0.037658231    18.021483      753.91784     -65.508399      688.40944    
   3901000   295.31992      0.037658231    12.794566      732.69687     -58.737762      673.9591     
   3902000   285.88712      0.037658231    20.058671      709.29382     -66.132732      643.16109    
   3903000   317.96287      0.037658231    21.934211      788.87463     -66.151885      722.72275    
   3904000   304.47883      0.037658231    14.279856      755.42036     -77.000105      678.42026    
   3905000   293.43677      0.037658231    13.059653      728.02472     -74.463556      653.56117    
   3906000   290.32962      0.037658231    18.519623      720.31579     -74.283612      646.03218    
   3907000   304.5185       0.037658231    21.076283      755.51879     -75.231272      680.28752    
   3908000   299.11253      0.037658231    19.325508      742.10643     -74.433716      667.67271    
   3909000   285.08891      0.037658231    15.990379      707.31343     -69.363864      637.94957    
   3910000   300.51386      0.037658231    31.809155      745.58316     -73.17171       672.41145    
   3911000   315.37522      0.037658231    14.611569      782.45462     -74.308177      708.14645    
   3912000   293.64644      0.037658231    14.354721      728.5449      -67.809887      660.73502    
   3913000   290.4274       0.037658231    38.309833      720.55838     -58.986927      661.57146    
   3914000   308.35213      0.037658231    31.661861      765.03012     -60.026836      705.00329    
   3915000   315.74382      0.037658231    5.6326881      783.36913     -58.134303      725.23482    
   3916000   300.90729      0.037658231   -10.504599      746.55928     -63.136003      683.42327    
   3917000   290.4697       0.037658231    26.148262      720.66334     -58.041465      662.62188    
   3918000   312.64613      0.037658231    30.875072      775.68366     -54.594452      721.08921    
   3919000   304.99259      0.037658231    7.3077496      756.69502     -58.805035      697.88998    
   3920000   296.26739      0.037658231    16.287495      735.04755     -58.678302      676.36925    
   3921000   290.83972      0.037658231    25.751318      721.58136     -56.116576      665.46478    
   3922000   308.37722      0.037658231    30.661691      765.09238     -59.161893      705.93049    
   3923000   306.94158      0.037658231    25.040743      761.53052     -56.238609      705.29191    
   3924000   302.736        0.037658231    18.223092      751.09637     -55.422435      695.67393    
   3925000   300.74113      0.037658231    15.25142       746.14703     -58.473566      687.67346    
   3926000   300.77397      0.037658231    23.495508      746.22852     -60.194579      686.03394    
   3927000   294.30672      0.037658231    24.999497      730.18309     -53.743751      676.43934    
   3928000   309.34656      0.037658231    3.2448592      767.49733     -57.780734      709.7166     
   3929000   302.28994      0.037658231   -6.4897255      749.98967     -66.78013       683.20954    
   3930000   293.16641      0.037658231    26.069512      727.35395     -64.636622      662.71733    
   3931000   310.24423      0.037658231    26.384622      769.72448     -62.960566      706.76391    
   3932000   313.9289       0.037658231    3.2570953      778.86626     -60.574162      718.2921     
   3933000   290.97919      0.037658231    21.812646      721.92738     -57.518084      664.4093     
   3934000   300.86532      0.037658231    27.162102      746.45514     -67.173854      679.28129    
   3935000   304.38644      0.037658231    5.4261034      755.19115     -67.540086      687.65106    
   3936000   310.47919      0.037658231   -10.257781      770.30743     -57.789342      712.51809    
   3937000   299.76778      0.037658231    3.4612197      743.73211     -63.077056      680.65506    
   3938000   295.79955      0.037658231    20.756982      733.88684     -62.5676        671.31924    
   3939000   308.19693      0.037658231    50.805571      764.64507     -59.073157      705.57191    
   3940000   303.75513      0.037658231    7.609543       753.62484     -60.491431      693.13341    
   3941000   300.56406      0.037658231    24.343246      745.70771     -60.755855      684.95185    
   3942000   306.94676      0.037658231    26.395749      761.54338     -62.326062      699.21731    
   3943000   312.50419      0.037658231    5.8140023      775.33151     -57.390511      717.941      
   3944000   289.35669      0.037658231    16.669273      717.90193     -60.896245      657.00568    
   3945000   301.87291      0.037658231    17.615489      748.95501     -58.483886      690.47112    
   3946000   294.70738      0.037658231    15.185451      731.17714     -65.591715      665.58542    
   3947000   318.75278      0.037658231    18.603632      790.83443     -63.076935      727.7575     
   3948000   311.0725       0.037658231    22.879061      771.77945     -62.497429      709.28202    
   3949000   291.61763      0.037658231    21.403366      723.51139     -68.150932      655.36046    
   3950000   292.4179       0.037658231    7.8704671      725.49686     -68.565177      656.93168    
   3951000   311.48643      0.037658231    0.51587339     772.80642     -68.554433      704.25198    
   3952000   298.98904      0.037658231    22.192187      741.80005     -67.226891      674.57316    
   3953000   302.73847      0.037658231    26.919818      751.10249     -68.055687      683.04681    
   3954000   295.50087      0.037658231   -0.4891838      733.14581     -67.429202      665.71661    
   3955000   299.8198       0.037658231   -9.3352264      743.8612      -66.107428      677.75377    
   3956000   299.66248      0.037658231    24.451457      743.47087     -62.784009      680.68686    
   3957000   287.21602      0.037658231    33.762408      712.59085     -64.292015      648.29884    
   3958000   304.32873      0.037658231    13.238546      755.04797     -68.56254       686.48543    
   3959000   292.23874      0.037658231    2.6623319      725.05237     -65.234824      659.81755    
   3960000   299.85497      0.037658231    31.641598      743.94846     -66.461431      677.48703    
   3961000   300.45266      0.037658231    30.017717      745.43134     -66.856835      678.57451    
   3962000   296.87599      0.037658231    9.8092318      736.55752     -64.922799      671.63472    
   3963000   294.56274      0.037658231    38.379321      730.81827     -58.18923       672.62904    
   3964000   304.91929      0.037658231    7.9215496      756.51316     -66.448251      690.06491    
   3965000   309.59918      0.037658231    15.851017      768.1241      -61.564954      706.55915    
   3966000   309.95896      0.037658231    25.880665      769.01672     -61.775477      707.24124    
   3967000   291.67286      0.037658231    23.75422       723.64842     -61.08106       662.56735    
   3968000   299.61924      0.037658231    15.66581       743.3636      -54.973776      688.38982    
   3969000   311.52977      0.037658231    19.710078      772.91395     -59.954631      712.95932    
   3970000   305.78481      0.037658231    22.85876       758.66054     -56.276439      702.3841     
   3971000   292.33837      0.037658231    21.408223      725.29954     -52.671058      672.62848    
   3972000   306.03988      0.037658231    16.486955      759.29339     -50.601452      708.69193    
   3973000   291.67724      0.037658231    14.069534      723.65927     -50.471052      673.18822    
   3974000   311.79828      0.037658231    22.997257      773.58012     -52.329171      721.25095    
   3975000   305.46425      0.037658231    23.509886      757.86523     -59.379538      698.48569    
   3976000   284.60736      0.037658231    20.885061      706.1187      -51.224815      654.89388    
   3977000   289.81262      0.037658231    18.509378      719.03311     -52.990107      666.043      
   3978000   305.15328      0.037658231    22.367709      757.0937      -50.743847      706.34985    
   3979000   295.28647      0.037658231    19.115705      732.61388     -53.914154      678.69972    
   3980000   297.08721      0.037658231    16.623904      737.08156     -58.103963      678.9776     
   3981000   306.5814       0.037658231    16.299423      760.63691     -56.535604      704.1013     
   3982000   306.01843      0.037658231    16.027324      759.24015     -59.323542      699.91661    
   3983000   299.8093       0.037658231    21.966284      743.83514     -59.954295      683.88085    
   3984000   296.70701      0.037658231    22.114174      736.13828     -54.547445      681.59084    
   3985000   299.20202      0.037658231    18.613283      742.32846     -56.888117      685.44034    
   3986000   303.18933      0.037658231    24.328617      752.2211      -53.837771      698.38332    
   3987000   304.09126      0.037658231    19.885335      754.45879     -56.372119      698.08667    
   3988000   311.28209      0.037658231    20.487667      772.29945     -48.023909      724.27554    
   3989000   308.45344      0.037658231    17.883448      765.28149     -59.076174      706.20532    
   3990000   298.29874      0.037658231    10.434723      740.0874      -55.476074      684.61132    
   3991000   296.48524      0.037658231    25.019795      735.58806     -59.226619      676.36144    
   3992000   305.80755      0.037658231    25.617869      758.71695     -69.663496      689.05346    
   3993000   307.78767      0.037658231    15.334319      763.62969     -60.868865      702.76082    
   3994000   294.25145      0.037658231    17.957059      730.04596     -67.19288       662.85308    
   3995000   296.69992      0.037658231    28.428693      736.12069     -63.2011        672.91959    
   3996000   304.70158      0.037658231    31.650606      755.97303     -59.221263      696.75176    
   3997000   297.91813      0.037658231    15.088952      739.14309     -66.710737      672.43235    
   3998000   314.002        0.037658231    37.855442      779.04761     -58.484074      720.56353    
   3999000   311.19766      0.037658231    10.108995      772.08998     -56.62838       715.4616     
   4000000   300.15924      0.037658231    11.255461      744.70335     -57.884891      686.81846    
Loop time of 7343.54 on 1 procs for 4000000 steps with 1500 atoms

Performance: 11.765 ns/day, 2.040 hours/ns, 544.697 timesteps/s, 817.045 katom-step/s
99.5% CPU use with 1 MPI tasks x 1 OpenMP threads

MPI task timing breakdown:
Section |  min time  |  avg time  |  max time  |%varavg| %total
---------------------------------------------------------------
Pair    | 629.9      | 629.9      | 629.9      |   0.0 |  8.58
Bond    | 183.64     | 183.64     | 183.64     |   0.0 |  2.50
Kspace  | 5674.2     | 5674.2     | 5674.2     |   0.0 | 77.27
Neigh   | 0.03689    | 0.03689    | 0.03689    |   0.0 |  0.00
Comm    | 30.94      | 30.94      | 30.94      |   0.0 |  0.42
Output  | 0.13655    | 0.13655    | 0.13655    |   0.0 |  0.00
Modify  | 805.77     | 805.77     | 805.77     |   0.0 | 10.97
Other   |            | 18.91      |            |       |  0.26

Nlocal:           1500 ave        1500 max        1500 min
Histogram: 1 0 0 0 0 0 0 0 0 0
Nghost:           1740 ave        1740 max        1740 min
Histogram: 1 0 0 0 0 0 0 0 0 0
Neighs:              0 ave           0 max           0 min
Histogram: 1 0 0 0 0 0 0 0 0 0

Total # of neighbors = 0
Ave neighs/atom = 0
Ave special neighs/atom = 2
Neighbor list builds = 15328
Dangerous builds = 0
write_data	last_conf.data pair ij
System init for write_data ...
PPPM initialization ...
  using 12-bit tables for long-range coulomb (src/kspace.cpp:342)
  G vector (1/distance) = 0.17633375
  grid = 24 24 24
  stencil order = 5
  estimated absolute RMS force accuracy = 0.029674313
  estimated relative force accuracy = 8.9363312e-05
  using double precision FFTW3
  3d grid and FFT values/proc = 24389 13824
Generated 1 of 1 mixed pair_coeff terms from arithmetic mixing rule
Total wall time: 2:02:23
