LAMMPS (29 Aug 2024 - Update 1)
  using 1 OpenMP thread(s) per MPI task
package gpu 1 gpuID 0
# GCMC for CO2 molecular fluid, rigid/small/nvt dynamics
# Rigid CO2 TraPPE model
# [Potoff and J.I. Siepmann, Vapor-liquid equilibria of
# mixtures containing alkanes, carbon dioxide and
# nitrogen AIChE J., 47,1676-1682 (2001)].

# global model settings

units           real
atom_style      full
boundary        p p p
pair_style      lj/cut/coul/long  12
pair_modify     mix arithmetic shift yes
kspace_style    pppm 1.0e-4
bond_style      harmonic
angle_style     harmonic
neigh_modify    one 4000

# box, start molecules on simple cubic lattice
region          mbox block 0 ${lbox} 0 ${lbox} 0 ${lbox} units box
region          mbox block 0 105 0 ${lbox} 0 ${lbox} units box
region          mbox block 0 105 0 105 0 ${lbox} units box
region          mbox block 0 105 0 105 0 105 units box
create_box      2 mbox                                       bond/types 1                                angle/types 1                               extra/bond/per/atom 2                       extra/angle/per/atom 1                      extra/special/per/atom 2
Created orthogonal box = (0 0 0) to (105 105 105)
  1 by 1 by 1 MPI processor grid
molecule        co2mol ../CO2.txt
Read molecule template co2mol:
# CO2 molecule file. TraPPE model.
  1 molecules
  0 fragments
  3 atoms with max type 2
  2 bonds with max type 1
  1 angles with max type 1
  0 dihedrals with max type 0
  0 impropers with max type 0
create_atoms   	0 random ${nmols} 34578 mbox mol co2mol 464563 overlap 1.2
create_atoms   	0 random 500 34578 mbox mol co2mol 464563 overlap 1.2
Created 1500 atoms
  using lattice units in orthogonal box = (0 0 0) to (105 105 105)
  create_atoms CPU = 0.014 seconds

# rigid CO2 TraPPE model

pair_coeff      1   1  0.053649   2.800
pair_coeff      2   2  0.156973   3.050
bond_coeff      1       0       1.16
angle_coeff     1       0       180

# masses

mass 1 12.0107
mass 2 15.9994

write_data init_conf.data  pair ij
System init for write_data ...
PPPM initialization ...
  using 12-bit tables for long-range coulomb (src/kspace.cpp:342)
  G vector (1/distance) = 0.17164655
  grid = 24 24 24
  stencil order = 5
  estimated absolute RMS force accuracy = 0.034360813
  estimated relative force accuracy = 0.00010347657
  using double precision FFTW3
  3d grid and FFT values/proc = 24389 13824
Generated 1 of 1 mixed pair_coeff terms from arithmetic mixing rule

# MD settings

group           co2 type 1 2
1500 atoms in group co2
velocity       	all create 300 54654
timestep        0.25

# rigid constraints with thermostat
fix             myrigidnvt co2 rigid/nvt molecule temp 300 300 $(100*dt)
fix             myrigidnvt co2 rigid/nvt molecule temp 300 300 25
  500 rigid bodies with 1500 atoms

thermo 1000
thermo_style custom step temp density press ke pe etotal


variable    mvol equal vol
variable    mden equal density
variable	mtmp equal temp
variable    mpre equal press

fix mydat all ave/time 1 4000 4000 v_mtmp v_mden v_mpre file statistics.dat ## every 1ps

run 4000000 ## 1ns

CITE-CITE-CITE-CITE-CITE-CITE-CITE-CITE-CITE-CITE-CITE-CITE-CITE

Your simulation uses code contributions which should be cited:

- GPU package (short-range, long-range and three-body potentials): doi:10.1016/j.cpc.2010.12.021, doi:10.1016/j.cpc.2011.10.012, doi:10.1016/j.cpc.2013.08.002, doi:10.1016/j.commatsci.2014.10.068, doi:10.1016/j.cpc.2016.10.020, doi:10.3233/APC200086

@Article{Brown11,
 author = {W. M. Brown and P. Wang and S. J. Plimpton and A. N. Tharrington},
 title = {Implementing Molecular Dynamics on Hybrid High Performance Computers---Short Range Forces},
 journal = {Comput.\ Phys.\ Commun.},
 year =    2011,
 volume =  182,
 pages =   {898--911},
 doi =     {10.1016/j.cpc.2010.12.021}
}

@Article{Brown12,
 author = {W. M. Brown and A. Kohlmeyer and S. J. Plimpton and A. N. Tharrington},
 title = {Implementing Molecular Dynamics on Hybrid High Performance Computers - Particle-Particle Particle-Mesh},
 journal = {Comput.\ Phys.\ Commun.},
 year =    2012,
 volume =  183,
 doi =     {10.1016/j.cpc.2011.10.012},
 pages =   {449--459}
}

@Article{Brown13,
 author = {W. M. Brown and Y. Masako},
 title = {Implementing Molecular Dynamics on Hybrid High Performance Computers---Three-Body Potentials},
 journal = {Comput.\ Phys.\ Commun.},
 year =    2013,
 volume =  184,
 pages =   {2785--2793},
 doi =     {10.1016/j.cpc.2013.08.002},
}

@Article{Trung15,
 author = {T. D. Nguyen and S. J. Plimpton},
 title = {Accelerating Dissipative Particle Dynamics Simulations for Soft Matter Systems},
 journal = {Comput.\ Mater.\ Sci.},
 year =    2015,
 doi =     {10.1016/j.commatsci.2014.10.068},
 volume =  100,
 pages =   {173--180}
}

@Article{Trung17,
 author = {T. D. Nguyen},
 title = {{GPU}-Accelerated {T}ersoff Potentials for Massively Parallel
    Molecular Dynamics Simulations},
 journal = {Comput.\ Phys.\ Commun.},
 year =    2017,
 doi =     {10.1016/j.cpc.2016.10.020},
 volume =  212,
 pages =   {113--122}
}

@inproceedings{Nikolskiy19,
 author = {V. Nikolskiy and V. Stegailov},
 title = {{GPU} Acceleration of Four-Site Water Models in {LAMMPS}},
 booktitle = {Proceedings of the International Conference on Parallel
    Computing (ParCo 2019), Prague, Czech Republic},
 doi =     {10.3233/APC200086},
 year =    2019
}

CITE-CITE-CITE-CITE-CITE-CITE-CITE-CITE-CITE-CITE-CITE-CITE-CITE

PPPM initialization ...
  using 12-bit tables for long-range coulomb (src/kspace.cpp:342)
  G vector (1/distance) = 0.17164655
  grid = 24 24 24
  stencil order = 5
  estimated absolute RMS force accuracy = 0.034360813
  estimated relative force accuracy = 0.00010347657
  using double precision FFTW3
  3d grid and FFT values/proc = 24389 13824
Generated 1 of 1 mixed pair_coeff terms from arithmetic mixing rule
Per MPI rank memory allocation (min/avg/max) = 9.599 | 9.599 | 9.599 Mbytes
   Step          Temp         Density         Press          KinEng         PotEng         TotEng    
         0   305.66621      0.031564405   -1112.3774      758.3663       6867.6268      7625.9931    
      1000   314.09665      0.031564405    31.754268      779.28244     -38.160088      741.12235    
      2000   299.4065       0.031564405    15.377208      742.83577     -53.029391      689.80638    
      3000   308.87223      0.031564405    21.449026      766.32051     -59.881166      706.43934    
      4000   301.92255      0.031564405    16.440348      749.07817     -69.430087      679.64808    
      5000   312.12677      0.031564405    13.477032      774.39513     -75.744708      698.65042    
      6000   293.89976      0.031564405    18.048341      729.17339     -70.819462      658.35393    
      7000   290.42481      0.031564405    18.309967      720.55196     -74.085406      646.46655    
      8000   311.95352      0.031564405    14.860038      773.96528     -79.922689      694.04259    
      9000   292.46575      0.031564405    15.562881      725.61559     -89.981267      635.63433    
     10000   290.40626      0.031564405    19.644546      720.50593     -91.307974      629.19796    
     11000   305.58352      0.031564405    18.271662      758.16115     -99.737404      658.42374    
     12000   299.74763      0.031564405    19.906939      743.68214     -94.125218      649.55692    
     13000   290.01211      0.031564405    6.1858996      719.52805     -106.26577      613.26228    
     14000   292.69509      0.031564405    11.216355      726.18459     -104.18903      621.99556    
     15000   299.85749      0.031564405    12.269496      743.95471     -103.06284      640.89186    
     16000   312.6562       0.031564405    22.844298      775.70865     -110.16107      665.54759    
     17000   306.84687      0.031564405    12.513775      761.29554     -114.30278      646.99276    
     18000   292.90816      0.031564405    9.5257578      726.71322     -106.89754      619.81568    
     19000   300.04718      0.031564405    14.53736       744.42532     -113.45666      630.96866    
     20000   288.95332      0.031564405    18.411856      716.90114     -105.32978      611.57136    
     21000   300.59685      0.031564405    16.502137      745.78907     -116.77912      629.00995    
     22000   294.62491      0.031564405    19.336344      730.97253     -122.91785      608.05468    
     23000   306.58978      0.031564405    11.427498      760.6577      -123.41465      637.24305    
     24000   294.41475      0.031564405    13.88911       730.4511      -118.58849      611.86261    
     25000   308.39475      0.031564405    23.46063       765.13588     -124.09196      641.04392    
     26000   293.45966      0.031564405    18.295506      728.08149     -113.9213       614.16019    
     27000   299.86115      0.031564405    12.386475      743.96377     -119.98213      623.98165    
     28000   305.97497      0.031564405    16.657147      759.13234     -117.20971      641.92262    
     29000   294.29172      0.031564405    19.06433       730.14588     -116.09363      614.05225    
     30000   306.18867      0.031564405    14.394542      759.66254     -119.08852      640.57402    
     31000   293.35351      0.031564405    14.61086       727.81813     -117.80458      610.01356    
     32000   297.57854      0.031564405    14.676541      738.30055     -124.78687      613.51368    
     33000   307.6923       0.031564405    18.432799      763.39308     -124.65453      638.73855    
     34000   299.03845      0.031564405    14.463055      741.92264     -120.61686      621.30578    
     35000   302.36764      0.031564405    15.859041      750.18246     -120.48498      629.69748    
     36000   295.59142      0.031564405    15.759253      733.37047     -121.49597      611.8745     
     37000   280.18032      0.031564405    27.912403      695.13509     -123.21075      571.92434    
     38000   305.60013      0.031564405    16.449848      758.20235     -123.82544      634.37692    
     39000   310.92103      0.031564405    11.788725      771.40366     -118.25136      653.1523     
     40000   289.29219      0.031564405    16.486378      717.74189     -116.12646      601.61544    
     41000   298.80054      0.031564405   -6.5598602      741.33237     -123.53439      617.79798    
     42000   305.09455      0.031564405    6.4389871      756.94799     -119.26874      637.67925    
     43000   296.22925      0.031564405    33.157462      734.95293     -121.14464      613.80829    
     44000   292.76331      0.031564405    29.667009      726.35383     -120.65417      605.69966    
     45000   306.1847       0.031564405    13.118005      759.65267     -112.68737      646.9653     
     46000   296.52962      0.031564405    11.683768      735.69816     -112.69802      623.00014    
     47000   301.87565      0.031564405    8.6007857      748.9618      -106.72166      642.24013    
     48000   305.68435      0.031564405    19.746083      758.41131     -107.21876      651.19254    
     49000   299.24205      0.031564405    18.515207      742.42776     -107.7632       634.66456    
     50000   287.08577      0.031564405   -3.9297475      712.2677      -114.21175      598.05595    
     51000   311.92544      0.031564405    10.466808      773.89562     -120.26169      653.63393    
     52000   314.65045      0.031564405    22.549915      780.65644     -119.63191      661.02453    
     53000   301.56061      0.031564405    23.373221      748.18017     -119.69737      628.48281    
     54000   288.95868      0.031564405    15.633238      716.91444     -116.68673      600.22772    
     55000   297.94367      0.031564405    1.2641514      739.20646     -120.8579       618.34856    
     56000   316.47055      0.031564405    15.43091       785.17216     -118.14601      667.02615    
     57000   308.62892      0.031564405    17.523055      765.71685     -118.55679      647.16006    
     58000   292.69422      0.031564405    11.749486      726.18242     -119.14828      607.03413    
     59000   290.79094      0.031564405    20.651506      721.46035     -87.118603      634.34174    
     60000   317.19573      0.031564405    17.739165      786.97135     -122.19499      664.77636    
     61000   302.14742      0.031564405    24.017671      749.63609     -125.30981      624.32628    
     62000   286.03779      0.031564405    12.705461      709.66765     -122.32354      587.34411    
     63000   296.13547      0.031564405   -0.51717349     734.72027     -116.06325      618.65701    
     64000   304.78151      0.031564405    18.543793      756.17132     -120.55852      635.6128     
     65000   308.72445      0.031564405    14.313024      765.95388     -112.03573      653.91815    
     66000   314.24939      0.031564405    19.481887      779.66141     -111.79938      667.86204    
     67000   290.00716      0.031564405    34.218813      719.51576     -115.57338      603.94238    
     68000   288.85573      0.031564405    18.567894      716.65902     -121.12801      595.53102    
     69000   302.98183      0.031564405   -1.6692398      751.70626     -119.67611      632.03015    
     70000   303.29602      0.031564405    18.77453       752.48578     -118.17757      634.30821    
     71000   304.20532      0.031564405    18.731169      754.7418      -116.04073      638.70106    
     72000   291.6516       0.031564405    16.580953      723.59565     -116.00861      607.58704    
     73000   302.18215      0.031564405    7.8506105      749.72224     -117.41469      632.30755    
     74000   301.8849       0.031564405    26.221014      748.98477     -116.56833      632.41644    
     75000   298.77172      0.031564405    14.041964      741.26086     -109.36648      631.89438    
     76000   305.76763      0.031564405    11.73929       758.61791     -122.28831      636.32959    
     77000   314.34191      0.031564405    15.207265      779.89094     -118.99929      660.89165    
     78000   307.84378      0.031564405    18.1635        763.7689      -115.64747      648.12143    
     79000   299.54223      0.031564405    15.459895      743.17252     -117.30614      625.86638    
     80000   287.80322      0.031564405    15.059378      714.04773     -117.33088      596.71684    
     81000   298.08193      0.031564405    16.2147        739.5495      -118.73741      620.81208    
     82000   300.46661      0.031564405    12.259893      745.46594     -123.04054      622.4254     
     83000   304.35013      0.031564405    15.481823      755.10105     -123.51639      631.58466    
     84000   304.67932      0.031564405    14.131516      755.91778     -120.90556      635.01222    
     85000   287.98577      0.031564405    26.270206      714.50063     -118.62171      595.87892    
     86000   292.33698      0.031564405    11.070377      725.2961      -121.72431      603.57179    
     87000   315.35522      0.031564405    21.450046      782.40499     -108.6588       673.74619    
     88000   292.83661      0.031564405    18.487608      726.53571     -111.58225      614.95346    
     89000   290.65282      0.031564405    29.291693      721.11766     -108.62335      612.49431    
     90000   305.92627      0.031564405    15.897189      759.01152     -115.30377      643.70774    
     91000   292.67967      0.031564405    14.987074      726.14634     -107.79855      618.34779    
     92000   288.81494      0.031564405    18.272561      716.55783     -110.7873       605.77052    
     93000   303.60804      0.031564405    16.899781      753.25991     -110.27712      642.98279    
     94000   301.62229      0.031564405    11.309035      748.33321     -106.83729      641.49592    
     95000   297.73578      0.031564405    16.320125      738.69067     -102.30939      636.38128    
     96000   300.72673      0.031564405    23.10431       746.11131     -98.222057      647.88925    
     97000   304.4253       0.031564405    22.059788      755.28755     -102.3589       652.92865    
     98000   312.81844      0.031564405    17.737017      776.11117     -107.12084      668.99033    
     99000   304.85966      0.031564405    12.418348      756.36522     -108.32456      648.04066    
    100000   285.56767      0.031564405    15.313435      708.50127     -105.83157      602.6697     
    101000   294.16656      0.031564405    12.262578      729.83535     -104.45107      625.38427    
    102000   314.3896       0.031564405    16.883597      780.00925     -95.900548      684.10871    
    103000   307.20516      0.031564405    19.062359      762.18447     -102.38387      659.80061    
    104000   292.90236      0.031564405    16.309345      726.69882     -102.34971      624.34911    
    105000   302.46392      0.031564405    15.791301      750.42132     -100.33697      650.08435    
    106000   306.88796      0.031564405    19.335087      761.39748     -99.806843      661.59064    
    107000   302.50377      0.031564405    17.113359      750.5202      -96.808623      653.71158    
    108000   299.39962      0.031564405    6.3590934      742.8187      -95.597405      647.2213     
    109000   302.37033      0.031564405    14.894063      750.18912     -93.88756       656.30156    
    110000   292.47139      0.031564405    15.906495      725.62957     -93.790561      631.83901    
    111000   293.86233      0.031564405    14.588677      729.08054     -97.248802      631.83174    
    112000   306.50027      0.031564405    15.438569      760.43562     -99.51588       660.91974    
    113000   288.20745      0.031564405    15.475117      715.05063     -97.709541      617.34109    
    114000   300.94513      0.031564405    16.280191      746.65317     -99.651257      647.00192    
    115000   307.59417      0.031564405    14.902373      763.14962     -98.968218      664.1814     
    116000   278.2891       0.031564405    14.362472      690.44292     -105.02039      585.42253    
    117000   294.19032      0.031564405    18.082825      729.8943      -102.47902      627.41528    
    118000   309.51501      0.031564405    13.36047       767.91527     -101.43416      666.48111    
    119000   299.47985      0.031564405    15.825163      743.01776     -96.764982      646.25278    
    120000   290.49301      0.031564405    14.407268      720.72118     -86.476424      634.24475    
    121000   313.93236      0.031564405    17.835511      778.87483     -92.444545      686.43029    
    122000   307.85652      0.031564405    16.585621      763.80051     -90.908417      672.89209    
    123000   290.20183      0.031564405    14.649737      719.99875     -97.459818      622.53893    
    124000   292.98787      0.031564405    14.831995      726.91099     -93.114466      633.79652    
    125000   317.05129      0.031564405    15.46856       786.61298     -96.284108      690.32888    
    126000   300.81253      0.031564405    13.787037      746.32418     -90.220828      656.10335    
    127000   295.209        0.031564405    14.729834      732.42166     -94.781201      637.64046    
    128000   309.80364      0.031564405    18.669728      768.63136     -96.612391      672.01897    
    129000   315.34609      0.031564405    15.142079      782.38235     -92.519342      689.86301    
    130000   298.44859      0.031564405    16.48171       740.45917     -90.026317      650.43285    
    131000   299.85674      0.031564405    15.30335       743.95284     -90.024069      653.92877    
    132000   304.12633      0.031564405    16.645312      754.54581     -89.183202      665.36261    
    133000   291.26615      0.031564405    16.785987      722.63935     -83.820528      638.81882    
    134000   309.19665      0.031564405    15.876593      767.12542     -86.696822      680.4286     
    135000   297.06114      0.031564405    11.81003       737.01689     -86.37225       650.64464    
    136000   288.44331      0.031564405    15.163285      715.6358      -86.137555      629.49824    
    137000   298.51547      0.031564405    14.514056      740.62511     -95.033898      645.59121    
    138000   322.82487      0.031564405    18.436234      800.93741     -89.757829      711.17958    
    139000   297.25718      0.031564405    5.3712954      737.50325     -97.780038      639.72322    
    140000   285.81557      0.031564405    13.660273      709.1163      -96.10603       613.01027    
    141000   311.46532      0.031564405    15.211584      772.75405     -93.405915      679.34813    
    142000   308.00945      0.031564405    14.492044      764.17993     -89.108256      675.07168    
    143000   293.84749      0.031564405    11.885885      729.04371     -87.710852      641.33286    
    144000   290.85084      0.031564405    20.197752      721.60896     -89.930227      631.67874    
    145000   312.18091      0.031564405    16.911376      774.52944     -94.24829       680.28115    
    146000   302.65883      0.031564405    11.737768      750.9049      -91.761051      659.14385    
    147000   282.061        0.031564405    19.99963       699.80112     -86.189842      613.61128    
    148000   307.82992      0.031564405    18.801736      763.73451     -87.256348      676.47816    
    149000   303.82665      0.031564405    21.91801       753.80228     -87.271781      666.5305     
    150000   286.14267      0.031564405    8.6441557      709.92785     -83.498632      626.42922    
    151000   292.11532      0.031564405    18.996723      724.74617     -87.463713      637.28245    
    152000   303.13396      0.031564405    16.813152      752.08371     -84.788814      667.2949     
    153000   303.81489      0.031564405    14.668023      753.77311     -84.914758      668.85835    
    154000   297.0713       0.031564405    16.401434      737.0421      -84.219051      652.82304    
    155000   280.57094      0.031564405    14.592967      696.10424     -88.652073      607.45217    
    156000   309.15356      0.031564405    18.000508      767.01852     -100.62984      666.38868    
    157000   314.05613      0.031564405    15.605147      779.18192     -90.299049      688.88287    
    158000   283.26608      0.031564405    14.491019      702.79096     -85.719856      617.07111    
    159000   311.05334      0.031564405    16.593143      771.73191     -89.851396      681.88051    
    160000   304.69107      0.031564405    18.815707      755.94695     -85.721793      670.22516    
    161000   298.68347      0.031564405    5.4351785      741.04192     -80.157929      660.88399    
    162000   289.83857      0.031564405    10.850568      719.09749     -75.929066      643.16842    
    163000   307.81662      0.031564405    19.414646      763.70151     -79.316313      684.38519    
    164000   307.24807      0.031564405    18.873831      762.29093     -77.1858        685.10513    
    165000   307.29395      0.031564405    15.713453      762.40475     -72.719173      689.68558    
    166000   303.73036      0.031564405    16.042832      753.56338     -75.614959      677.94842    
    167000   295.94848      0.031564405    14.337423      734.25633     -73.680834      660.5755     
    168000   307.08612      0.031564405    15.550113      761.88912     -78.208357      683.68076    
    169000   303.13556      0.031564405    17.152346      752.08767     -76.752948      675.33472    
    170000   305.04752      0.031564405    15.999037      756.83131     -80.881534      675.94977    
    171000   296.46258      0.031564405    15.134799      735.53183     -76.870775      658.66105    
    172000   296.58737      0.031564405    14.828176      735.84144     -82.977795      652.86365    
    173000   298.92641      0.031564405    18.67851       741.64466     -85.609522      656.03514    
    174000   307.23252      0.031564405    16.92138       762.25235     -82.712396      679.53995    
    175000   296.56001      0.031564405    8.7216044      735.77357     -85.39304       650.38053    
    176000   303.02129      0.031564405    21.07476       751.80418     -85.852392      665.95178    
    177000   313.08159      0.031564405    17.016738      776.76405     -81.550276      695.21377    
    178000   303.93332      0.031564405   -0.085085301    754.06694     -83.160802      670.90614    
    179000   269.38551      0.031564405   -0.37128332     668.35289     -82.060356      586.29253    
    180000   297.89975      0.031564405    8.586799       739.09749     -86.657831      652.43966    
    181000   310.8042       0.031564405    18.286742      771.11379     -77.279638      693.83415    
    182000   309.95501      0.031564405    24.801169      769.00692     -79.942097      689.06482    
    183000   304.01542      0.031564405    9.5513003      754.27063     -76.519609      677.75102    
    184000   293.16737      0.031564405    20.734626      727.35633     -76.803433      650.5529     
    185000   276.60733      0.031564405    29.823722      686.27042     -78.219503      608.05091    
    186000   295.06955      0.031564405    36.641687      732.07568     -80.572289      651.50339    
    187000   308.39719      0.031564405    22.981747      765.14193     -84.099028      681.0429     
    188000   306.17973      0.031564405   -1.2079959      759.64036     -84.21693       675.42343    
    189000   300.42054      0.031564405    19.340922      745.35164     -80.602838      664.7488     
    190000   285.99732      0.031564405    22.861255      709.56723     -80.590039      628.97719    
    191000   314.40415      0.031564405    18.683788      780.04536     -86.224246      693.82112    
    192000   304.0947       0.031564405    18.053156      754.46732     -86.093719      668.3736     
    193000   290.29631      0.031564405    16.381035      720.23314     -86.632255      633.60089    
    194000   304.37546      0.031564405    17.405847      755.16392     -81.048451      674.11546    
    195000   313.1431       0.031564405    16.136048      776.91665     -80.931877      695.98478    
    196000   293.98168      0.031564405    11.707871      729.37666     -79.755485      649.62117    
    197000   287.32518      0.031564405    17.649525      712.8617      -81.164884      631.69682    
    198000   309.68437      0.031564405    17.48211       768.33545     -74.475576      693.85988    
    199000   299.13312      0.031564405    16.702601      742.15753     -73.654144      668.50338    
    200000   292.27995      0.031564405    14.786019      725.15461     -80.395432      644.75918    
    201000   310.88149      0.031564405    20.937453      771.30555     -75.451196      695.85435    
    202000   308.67642      0.031564405    15.842787      765.83471     -72.300708      693.534      
    203000   289.65189      0.031564405    16.553513      718.63433     -74.710213      643.92412    
    204000   302.75272      0.031564405    10.940414      751.13784     -67.900224      683.23762    
    205000   314.44846      0.031564405    15.482849      780.15529     -71.11492       709.04037    
    206000   291.91043      0.031564405    18.99235       724.23782     -71.789903      652.44792    
    207000   286.0594       0.031564405    16.469998      709.72126     -70.084844      639.63642    
    208000   307.42617      0.031564405    15.431904      762.7328      -72.970137      689.76267    
    209000   313.95491      0.031564405    19.999086      778.93078     -80.039436      698.89135    
    210000   289.74049      0.031564405    12.22504       718.85413     -75.359331      643.4948     
    211000   302.03483      0.031564405    11.775594      749.35675     -77.192519      672.16423    
    212000   300.94738      0.031564405    29.033458      746.65875     -66.42941       680.22934    
    213000   300.83231      0.031564405    10.311336      746.37324     -67.181507      679.19174    
    214000   307.38728      0.031564405    12.002839      762.63631     -66.142642      696.49367    
    215000   299.26576      0.031564405    23.774453      742.4866      -66.276905      676.20969    
    216000   298.27134      0.031564405    16.85042       740.01942     -68.563273      671.45614    
    217000   290.82059      0.031564405    11.747991      721.5339      -67.491954      654.04195    
    218000   299.83625      0.031564405    10.397723      743.902       -69.553409      674.34859    
    219000   304.23965      0.031564405    18.725498      754.82695     -66.99628       687.83067    
    220000   302.41078      0.031564405    14.610845      750.28949     -63.9362        686.35329    
    221000   280.35727      0.031564405    10.352455      695.57412     -58.55561       637.01851    
    222000   295.40678      0.031564405    14.042012      732.91237     -64.877421      668.03495    
    223000   314.48689      0.031564405    15.736097      780.25064     -63.09135       717.15929    
    224000   302.52792      0.031564405    18.529569      750.58012     -57.864989      692.71513    
    225000   286.1113       0.031564405    16.567416      709.85001     -55.711851      654.13816    
    226000   299.36096      0.031564405    14.828795      742.72279     -56.258136      686.46465    
    227000   316.44078      0.031564405    17.881328      785.0983      -54.206702      730.8916     
    228000   289.07049      0.031564405    16.961363      717.19184     -58.376822      658.81502    
    229000   289.49397      0.031564405    15.423573      718.24251     -54.927253      663.31526    
    230000   306.89309      0.031564405    12.201472      761.41022     -60.70941       700.70081    
    231000   306.31978      0.031564405    17.839822      759.98781     -56.88079       703.10702    
    232000   288.98713      0.031564405    16.100638      716.98503     -52.003784      664.98125    
    233000   325.72924      0.031564405    11.240264      808.14322     -51.955248      756.18798    
    234000   298.09492      0.031564405    22.532212      739.58171     -49.295737      690.28597    
    235000   288.15305      0.031564405    1.4931354      714.91566     -45.801087      669.11457    
    236000   300.43538      0.031564405    12.571225      745.38845     -52.760532      692.62792    
    237000   303.07192      0.031564405    14.718073      751.92979     -59.841206      692.08858    
    238000   305.00646      0.031564405    16.416962      756.72944     -52.890053      703.83939    
    239000   293.35717      0.031564405    24.39489       727.82721     -56.333427      671.49379    
    240000   300.14614      0.031564405    39.945285      744.67084     -58.007064      686.66378    
    241000   292.19413      0.031564405    20.866063      724.94169     -57.475752      667.46594    
    242000   314.02895      0.031564405    15.068862      779.11448     -56.00584       723.10864    
    243000   303.68377      0.031564405    17.423019      753.4478      -49.511146      703.93665    
    244000   305.07657      0.031564405    18.815433      756.90339     -54.584604      702.31878    
    245000   303.50588      0.031564405    17.137646      753.00647     -57.323669      695.6828     
    246000   293.89587      0.031564405    16.635515      729.16375     -52.698536      676.46521    
    247000   293.40861      0.031564405    17.031439      727.95485     -56.771114      671.18374    
    248000   307.12469      0.031564405    14.369904      761.98483     -56.754138      705.23069    
    249000   305.60834      0.031564405    15.356745      758.22273     -57.59327       700.62946    
    250000   307.12844      0.031564405    14.95094       761.99413     -56.443271      705.55086    
    251000   301.15999      0.031564405    20.152258      747.18623     -53.242288      693.94394    
    252000   289.62192      0.031564405    18.834263      718.55996     -59.49922       659.06074    
    253000   287.31162      0.031564405    8.5714839      712.82806     -53.877864      658.95019    
    254000   311.40538      0.031564405    17.730345      772.60532     -47.91463       724.69069    
    255000   302.12085      0.031564405    16.212576      749.57016     -43.897359      705.6728     
    256000   299.32257      0.031564405    17.728841      742.62756     -43.409206      699.21835    
    257000   298.75933      0.031564405    18.547728      741.23014     -45.094466      696.13568    
    258000   319.34509      0.031564405    17.850248      792.30397     -50.588966      741.71501    
    259000   300.78381      0.031564405    16.740358      746.25293     -48.644936      697.60799    
    260000   286.89741      0.031564405    15.926905      711.80037     -56.852325      654.94805    
    261000   283.35034      0.031564405    8.4020287      703           -57.019927      645.98008    
    262000   315.11903      0.031564405    17.440783      781.81901     -48.947918      732.87109    
    263000   293.73191      0.031564405    16.262439      728.75697     -54.302104      674.45486    
    264000   284.73831      0.031564405    10.531164      706.44361     -55.626901      650.8167     
    265000   306.95396      0.031564405    13.434677      761.56124     -56.821613      704.73962    
    266000   306.05887      0.031564405    16.934641      759.34049     -48.393032      710.94746    
    267000   299.62307      0.031564405    16.011593      743.37309     -53.120863      690.25222    
    268000   295.62965      0.031564405    14.747484      733.46531     -50.412657      683.05265    
    269000   301.86386      0.031564405    19.162612      748.93255     -54.382963      694.54959    
    270000   302.86778      0.031564405    14.587383      751.42331     -55.919024      695.50429    
    271000   280.66         0.031564405    6.6139754      696.32519     -59.965683      636.35951    
    272000   291.59265      0.031564405    13.648022      723.4494      -56.432965      667.01643    
    273000   308.66034      0.031564405    25.548864      765.7948      -61.637078      704.15772    
    274000   310.9205       0.031564405    19.718751      771.40234     -54.132352      717.26999    
    275000   297.54716      0.031564405    14.562682      738.22271     -57.72409       680.49862    
    276000   303.92098      0.031564405    9.3082051      754.03633     -53.702966      700.33336    
    277000   298.74047      0.031564405    13.413443      741.18334     -52.601314      688.58203    
    278000   299.99221      0.031564405    15.207312      744.28894     -51.035767      693.25317    
    279000   302.37556      0.031564405    17.596404      750.20211     -53.694657      696.50745    
    280000   303.23498      0.031564405    19.141876      752.33436     -57.870715      694.46364    
    281000   299.19875      0.031564405    17.05594       742.32035     -53.609153      688.71119    
    282000   308.93384      0.031564405    14.956882      766.47337     -53.361908      713.11147    
    283000   303.41439      0.031564405    17.470147      752.77946     -53.179651      699.59981    
    284000   304.41966      0.031564405    15.07798       755.27357     -58.976212      696.29736    
    285000   296.44301      0.031564405    14.68986       735.48329     -52.076409      683.40688    
    286000   297.80848      0.031564405    12.788695      738.87104     -52.875212      685.99583    
    287000   298.25007      0.031564405    20.022611      739.96665     -53.823529      686.14312    
    288000   306.63297      0.031564405    21.228194      760.76485     -53.492113      707.27274    
    289000   307.71639      0.031564405    10.654789      763.45285     -55.462113      707.99073    
    290000   300.63967      0.031564405    12.878432      745.8953      -63.115863      682.77944    
    291000   291.04457      0.031564405    17.836268      722.0896      -63.858083      658.23151    
    292000   297.42594      0.031564405    28.827585      737.92195     -62.897597      675.02435    
    293000   297.24964      0.031564405    14.258804      737.48455     -59.064908      678.41964    
    294000   304.67068      0.031564405    6.3659766      755.89637     -55.740937      700.15543    
    295000   297.21835      0.031564405    15.695038      737.40691     -59.401923      678.00498    
    296000   290.81767      0.031564405    22.96302       721.52665     -59.130538      662.39612    
    297000   312.14531      0.031564405    16.623767      774.44112     -58.394599      716.04653    
    298000   300.0848       0.031564405    13.330832      744.51867     -54.139304      690.37936    
    299000   287.33608      0.031564405    16.480842      712.88873     -61.089521      651.7992     
    300000   283.13367      0.031564405    23.473541      702.46244     -58.059465      644.40297    
    301000   308.67589      0.031564405    14.883473      765.83338     -58.675599      707.15778    
    302000   306.81378      0.031564405    17.0167        761.21345     -59.994662      701.21879    
    303000   292.30812      0.031564405    16.798948      725.2245      -57.107696      668.11681    
    304000   307.76821      0.031564405    17.696872      763.58142     -63.055494      700.52592    
    305000   295.00606      0.031564405    15.20947       731.91816     -65.167619      666.75054    
    306000   300.52379      0.031564405    14.785356      745.60781     -62.856062      682.75175    
    307000   306.65569      0.031564405    15.747059      760.82121     -63.096473      697.72474    
    308000   299.40037      0.031564405    15.450271      742.82057     -64.816195      678.00437    
    309000   289.22054      0.031564405    15.477061      717.56412     -55.570677      661.99344    
    310000   304.96184      0.031564405    17.991351      756.61873     -61.940465      694.67826    
    311000   301.26893      0.031564405    16.889527      747.45651     -53.044684      694.41183    
    312000   304.19657      0.031564405    16.229506      754.72007     -56.89176       697.82831    
    313000   313.03444      0.031564405    13.66026       776.64707     -55.643084      721.00398    
    314000   293.98515      0.031564405    16.145265      729.38527     -45.433263      683.95201    
    315000   298.37196      0.031564405    17.696401      740.26907     -51.481257      688.78781    
    316000   315.02548      0.031564405    17.23919       781.58691     -54.908081      726.67883    
    317000   299.50079      0.031564405    19.402377      743.06972     -48.249017      694.8207     
    318000   305.47108      0.031564405    16.567688      757.88218     -56.131974      701.7502     
    319000   309.5699       0.031564405    18.173635      768.05146     -52.713138      715.33832    
    320000   303.277        0.031564405    21.238185      752.43859     -54.822276      697.61632    
    321000   299.72396      0.031564405    22.221905      743.62341     -54.544692      689.07872    
    322000   310.24639      0.031564405    15.720635      769.72986     -60.423953      709.3059     
    323000   302.04658      0.031564405    15.66415       749.38589     -56.856006      692.52988    
    324000   297.29466      0.031564405    13.528111      737.59626     -64.965752      672.63051    
    325000   306.96762      0.031564405    26.254077      761.59512     -56.329211      705.26591    
    326000   297.72211      0.031564405    20.038465      738.65675     -61.085486      677.57126    
    327000   298.40759      0.031564405    16.911761      740.35746     -58.177393      682.18006    
    328000   294.58606      0.031564405    16.602462      730.87614     -61.889468      668.98667    
    329000   288.92414      0.031564405    15.662322      716.82876     -55.831073      660.99768    
    330000   292.84942      0.031564405    17.23341       726.56748     -58.10769       668.45979    
    331000   304.8324       0.031564405    12.365635      756.29758     -52.703142      703.59444    
    332000   318.72521      0.031564405    22.727108      790.76602     -59.534184      731.23184    
    333000   300.00034      0.031564405    18.918494      744.30911     -55.667078      688.64203    
    334000   291.68041      0.031564405    15.562044      723.66714     -59.18911       664.47803    
    335000   295.08106      0.031564405    14.66628       732.10425     -59.450068      672.65419    
    336000   298.33737      0.031564405    18.725944      740.18325     -59.212863      680.97039    
    337000   311.3432       0.031564405    18.959432      772.45107     -54.73495       717.71612    
    338000   301.293        0.031564405    18.012441      747.51623     -57.483299      690.03293    
    339000   297.23085      0.031564405    13.236218      737.43793     -59.872182      677.56574    
    340000   311.32054      0.031564405    18.687063      772.39483     -58.619996      713.77483    
    341000   297.33984      0.031564405    17.172877      737.70833     -60.522495      677.18584    
    342000   280.37931      0.031564405    16.164681      695.6288      -55.867582      639.76122    
    343000   301.19872      0.031564405    17.777091      747.28233     -54.385657      692.89667    
    344000   305.48567      0.031564405    16.691536      757.91837     -56.68984       701.22853    
    345000   308.86968      0.031564405    16.885361      766.31419     -52.508205      713.80599    
    346000   294.01156      0.031564405    16.551891      729.45078     -49.18531       680.26547    
    347000   298.88801      0.031564405    15.88442       741.54938     -51.567504      689.98188    
    348000   300.33066      0.031564405    16.220891      745.12864     -50.47254       694.6561     
    349000   311.57696      0.031564405    17.491988      773.03103     -51.054478      721.97655    
    350000   297.43821      0.031564405    12.184151      737.95239     -48.037159      689.91523    
    351000   294.23926      0.031564405    16.2288        730.01572     -46.323955      683.69176    
    352000   297.57255      0.031564405    14.745072      738.28571     -51.629633      686.65608    
    353000   311.06354      0.031564405    17.526516      771.75722     -46.366456      725.39077    
    354000   302.74158      0.031564405    15.272845      751.11021     -44.623263      706.48695    
    355000   295.45267      0.031564405    16.108864      733.02621     -42.375469      690.65074    
    356000   286.877        0.031564405    21.801583      711.74975     -52.156237      659.59351    
    357000   308.76347      0.031564405    21.518139      766.05068     -50.559464      715.49122    
    358000   310.85008      0.031564405    11.129551      771.22762     -45.330419      725.8972     
    359000   296.37292      0.031564405    15.927714      735.30938     -47.120425      688.18896    
    360000   291.66547      0.031564405    15.594193      723.63006     -47.462411      676.16765    
    361000   298.83183      0.031564405    17.785701      741.41        -44.105055      697.30494    
    362000   311.2166       0.031564405    16.257428      772.13697     -42.793996      729.34297    
    363000   303.963        0.031564405    18.740632      754.14058     -48.673415      705.46717    
    364000   298.5635       0.031564405    11.00486       740.74426     -47.41466       693.3296     
    365000   303.13165      0.031564405    20.466399      752.07798     -43.285619      708.79236    
    366000   308.64371      0.031564405    16.649118      765.75356     -57.586427      708.16713    
    367000   301.15284      0.031564405    17.124473      747.16849     -55.941175      691.22731    
    368000   294.11479      0.031564405    15.296169      729.7069      -52.396207      677.3107     
    369000   305.39158      0.031564405    15.654904      757.68492     -49.006822      708.6781     
    370000   310.36755      0.031564405    15.643096      770.03046     -47.490277      722.54018    
    371000   301.51477      0.031564405    18.50697       748.06645     -47.256525      700.80993    
    372000   292.20921      0.031564405    17.169359      724.9791      -44.077541      680.90156    
    373000   298.37233      0.031564405    13.287928      740.26997     -51.297426      688.97255    
    374000   311.84586      0.031564405    16.119734      773.69818     -49.592158      724.10602    
    375000   298.93554      0.031564405    15.762693      741.66732     -45.726267      695.94105    
    376000   299.53288      0.031564405    17.423499      743.14934     -49.57954       693.5698     
    377000   301.25248      0.031564405    19.105371      747.41571     -45.691221      701.72449    
    378000   309.06255      0.031564405    14.968546      766.79271     -48.399288      718.39343    
    379000   308.55921      0.031564405    11.879802      765.5439      -46.126101      719.4178     
    380000   304.91351      0.031564405    14.638127      756.49881     -49.841877      706.65693    
    381000   283.55341      0.031564405    19.664577      703.50383     -48.603001      654.90083    
    382000   294.45035      0.031564405    22.981319      730.53943     -50.658461      679.88097    
    383000   301.11414      0.031564405    43.023724      747.07247     -51.486242      695.58623    
    384000   314.87471      0.031564405    13.874211      781.21283     -43.586533      737.62629    
    385000   305.74103      0.031564405    1.6295877      758.55193     -47.104185      711.44774    
    386000   283.70899      0.031564405    6.0547936      703.88983     -47.719         656.17083    
    387000   292.76777      0.031564405    27.38343       726.36492     -45.952629      680.41229    
    388000   304.51434      0.031564405    19.731894      755.50847     -46.248375      709.2601     
    389000   314.73656      0.031564405    16.25115       780.87007     -46.036688      734.83339    
    390000   296.37944      0.031564405    3.0706959      735.32556     -44.758573      690.56699    
    391000   294.28585      0.031564405    17.322178      730.1313      -45.555934      684.57537    
    392000   317.65118      0.031564405    22.255703      788.10134     -45.219712      742.88163    
    393000   309.82247      0.031564405    15.025132      768.67808     -44.704484      723.9736     
    394000   288.99634      0.031564405    12.953347      717.00789     -51.120368      665.88753    
    395000   299.54773      0.031564405    26.683149      743.18617     -54.139191      689.04698    
    396000   313.55854      0.031564405    23.065473      777.94737     -62.626611      715.32076    
    397000   303.85919      0.031564405    13.122451      753.88302     -57.426328      696.4567     
    398000   296.98376      0.031564405    17.047493      736.8249      -52.502538      684.32236    
    399000   307.47627      0.031564405    25.424621      762.85709     -58.636371      704.22072    
    400000   303.1503       0.031564405    16.382267      752.12424     -52.721718      699.40252    
    401000   301.88782      0.031564405    15.380537      748.99201     -55.185562      693.80645    
    402000   297.17446      0.031564405    23.225371      737.29803     -56.935137      680.36289    
    403000   309.1965       0.031564405    21.699802      767.12505     -58.131245      708.9938     
    404000   321.27025      0.031564405    17.007711      797.08035     -54.482356      742.59799    
    405000   305.32074      0.031564405    10.622661      757.50917     -55.757857      701.75131    
    406000   294.76429      0.031564405    13.827006      731.31833     -52.691412      678.62692    
    407000   295.13577      0.031564405    27.336219      732.23998     -49.485382      682.7546     
    408000   303.30749      0.031564405    22.756241      752.51424     -48.337373      704.17687    
    409000   309.61055      0.031564405    19.8441        768.15231     -56.812425      711.33989    
    410000   305.4731       0.031564405    13.205926      757.88717     -53.450367      704.4368     
    411000   295.33995      0.031564405    14.410805      732.74655     -54.06723       678.67932    
    412000   291.67337      0.031564405    18.97558       723.64968     -58.47707       665.17261    
    413000   283.1408       0.031564405    9.728683       702.48014     -59.340391      643.13975    
    414000   299.03075      0.031564405    18.307381      741.90353     -56.993727      684.9098     
    415000   315.91846      0.031564405    15.16757       783.80241     -58.275847      725.52656    
    416000   302.24391      0.031564405    10.932524      749.87547     -51.995353      697.88012    
    417000   285.59952      0.031564405    17.857499      708.58028     -52.411882      656.1684     
    418000   297.62534      0.031564405    18.613505      738.41666     -51.021715      687.39495    
    419000   302.78299      0.031564405    17.225273      751.21295     -59.061913      692.15104    
    420000   305.21163      0.031564405    15.614127      757.23847     -63.089025      694.14945    
    421000   309.51118      0.031564405    19.403478      767.90578     -58.642854      709.26293    
    422000   297.15292      0.031564405    16.230676      737.24459     -56.941258      680.30333    
    423000   293.97854      0.031564405    16.871902      729.36886     -54.387754      674.98111    
    424000   304.60645      0.031564405    13.316473      755.73699     -50.131265      705.60573    
    425000   305.91061      0.031564405    16.712225      758.97266     -50.581732      708.39093    
    426000   307.49735      0.031564405    18.928194      762.9094      -51.206849      711.70255    
    427000   302.86831      0.031564405    20.601166      751.42464     -50.333983      701.09065    
    428000   297.38679      0.031564405    16.731482      737.82483     -49.72031       688.10452    
    429000   287.00885      0.031564405    17.066255      712.07686     -46.636794      665.44006    
    430000   288.90692      0.031564405    7.5396741      716.78603     -53.204278      663.58175    
    431000   303.03983      0.031564405    15.668746      751.85017     -47.558185      704.29198    
    432000   309.49747      0.031564405    15.413024      767.87177     -53.211826      714.65994    
    433000   287.43095      0.031564405    15.774794      713.12411     -53.204244      659.91987    
    434000   299.10146      0.031564405    16.809485      742.07897     -50.897203      691.18177    
    435000   312.07734      0.031564405    17.751775      774.27247     -44.238116      730.03436    
    436000   290.18439      0.031564405    14.829213      719.95548     -49.668605      670.28687    
    437000   282.9244       0.031564405    15.112433      701.94323     -47.177175      654.76606    
    438000   300.74941      0.031564405    15.04885       746.16758     -50.006171      696.16141    
    439000   303.14862      0.031564405    16.974612      752.12009     -49.32757       702.79252    
    440000   299.54432      0.031564405    18.348202      743.17771     -54.540305      688.63741    
    441000   308.23868      0.031564405    13.099951      764.74865     -62.795681      701.95297    
    442000   292.90239      0.031564405    20.705281      726.69891     -61.061755      665.63716    
    443000   301.39982      0.031564405    15.26351       747.78126     -59.786865      687.99439    
    444000   294.41512      0.031564405    22.741073      730.45204     -56.433223      674.01882    
    445000   298.88956      0.031564405    21.854038      741.55325     -54.200052      687.3532     
    446000   306.53889      0.031564405    17.095849      760.53143     -52.166658      708.36477    
    447000   305.77008      0.031564405    13.183513      758.62399     -50.457578      708.16642    
    448000   288.67455      0.031564405    9.192482       716.20951     -49.785043      666.42446    
    449000   289.79919      0.031564405    19.041369      718.99977     -51.61532       667.38445    
    450000   294.68053      0.031564405    21.750655      731.11052     -53.419729      677.69079    
    451000   308.96527      0.031564405    17.303036      766.55135     -59.228781      707.32257    
    452000   293.8138       0.031564405    19.953119      728.96015     -49.346129      679.61402    
    453000   294.88821      0.031564405    16.118359      731.62577     -53.413949      678.21182    
    454000   311.07714      0.031564405    18.447829      771.79097     -56.669749      715.12122    
    455000   307.19215      0.031564405    15.448046      762.15219     -52.965645      709.18655    
    456000   294.70834      0.031564405    13.75364       731.17952     -56.073431      675.10609    
    457000   284.65953      0.031564405    16.800524      706.24813     -57.725548      648.52258    
    458000   298.47068      0.031564405    15.576093      740.51398     -55.203963      685.31002    
    459000   303.63023      0.031564405    19.34722       753.31496     -57.059248      696.25571    
    460000   312.03876      0.031564405    17.163384      774.17676     -56.890192      717.28656    
    461000   305.01755      0.031564405   -4.2479814      756.75695     -57.947774      698.80918    
    462000   291.77907      0.031564405    14.808182      723.9119      -62.307951      661.60395    
    463000   298.84236      0.031564405    31.840604      741.43613     -61.298349      680.13778    
    464000   314.28703      0.031564405    16.704134      779.75477     -53.8493        725.90547    
    465000   300.33545      0.031564405    12.329687      745.14052     -58.457797      686.68272    
    466000   293.77593      0.031564405    16.794633      728.86618     -55.741635      673.12455    
    467000   302.01442      0.031564405    14.933914      749.30609     -57.808024      691.49807    
    468000   293.94542      0.031564405    14.317294      729.28669     -60.000251      669.28644    
    469000   300.81986      0.031564405    17.41679       746.34235     -50.117006      696.22535    
    470000   307.08865      0.031564405    17.976824      761.89541     -52.892335      709.00307    
    471000   293.87207      0.031564405    20.764263      729.1047      -55.687492      673.41721    
    472000   303.31926      0.031564405    17.121809      752.54345     -50.351752      702.19169    
    473000   293.45196      0.031564405    10.397851      728.06239     -58.606332      669.45606    
    474000   312.53702      0.031564405    18.800575      775.41296     -62.814633      712.59832    
    475000   311.23334      0.031564405    31.454288      772.17849     -57.550292      714.6282     
    476000   290.56858      0.031564405    12.513049      720.90867     -60.563473      660.34519    
    477000   305.55119      0.031564405    15.786978      758.08093     -54.647301      703.43363    
    478000   307.12512      0.031564405    21.304599      761.9859      -57.350598      704.6353     
    479000   288.54899      0.031564405    13.307692      715.898       -59.359923      656.53808    
    480000   283.96141      0.031564405    16.900521      704.51608     -59.043485      645.4726     
    481000   298.14367      0.031564405    12.804663      739.70267     -55.777602      683.92507    
    482000   297.58673      0.031564405    17.532472      738.32088     -51.045584      687.2753     
    483000   307.26768      0.031564405    15.76272       762.33959     -54.502067      707.83753    
    484000   299.95664      0.031564405    15.374946      744.20069     -53.995544      690.20514    
    485000   286.40744      0.031564405    15.738705      710.58475     -52.74354       657.84121    
    486000   301.19235      0.031564405    14.249257      747.26653     -60.212513      687.05402    
    487000   300.41109      0.031564405    20.96538       745.3282      -58.279224      687.04898    
    488000   292.1058       0.031564405    12.402906      724.72255     -51.015131      673.70742    
    489000   314.26429      0.031564405    16.525178      779.69837     -53.533859      726.16451    
    490000   302.4811       0.031564405    17.966042      750.46394     -52.507055      697.95688    
    491000   292.05248      0.031564405    20.590506      724.59025     -42.844042      681.7462     
    492000   296.17297      0.031564405    17.806746      734.8133      -47.748057      687.06525    
    493000   307.98244      0.031564405    13.381273      764.11293     -40.960188      723.15274    
    494000   301.39244      0.031564405    11.782444      747.76294     -51.998877      695.76406    
    495000   314.79169      0.031564405    24.469696      781.00687     -53.802418      727.20445    
    496000   298.79453      0.031564405    20.429554      741.31746     -52.798909      688.51855    
    497000   305.37892      0.031564405    15.995191      757.65353     -46.977914      710.67562    
    498000   305.8328       0.031564405    14.378624      758.77961     -42.436799      716.34281    
    499000   293.49738      0.031564405    16.535775      728.17509     -46.229198      681.9459     
    500000   299.22406      0.031564405    16.733681      742.38314     -44.798894      697.58425    
    501000   290.40298      0.031564405    14.502096      720.49781     -47.714914      672.78289    
    502000   304.23226      0.031564405    17.554468      754.80861     -50.225616      704.583      
    503000   307.64916      0.031564405    17.193393      763.28605     -48.641983      714.64406    
    504000   282.20595      0.031564405    17.164431      700.16074     -42.864722      657.29602    
    505000   297.12941      0.031564405    17.000964      737.18625     -45.574752      691.6115     
    506000   296.90398      0.031564405    21.233613      736.62696     -47.073941      689.55302    
    507000   303.9514       0.031564405    21.592781      754.11179     -43.218521      710.89327    
    508000   290.31092      0.031564405    17.155612      720.26938     -43.314623      676.95476    
    509000   297.13377      0.031564405    15.083341      737.19708     -43.319124      693.87795    
    510000   309.60588      0.031564405    23.651737      768.14071     -42.429557      725.71116    
    511000   303.93466      0.031564405    18.023716      754.07028     -46.407099      707.66318    
    512000   299.51118      0.031564405    9.59836        743.0955      -52.343504      690.752      
    513000   290.18859      0.031564405    14.906812      719.9659      -45.272678      674.69322    
    514000   294.33318      0.031564405    18.571906      730.24874     -50.2969        679.95184    
    515000   314.55961      0.031564405    21.29936       780.43107     -51.262179      729.16889    
    516000   298.89638      0.031564405    15.744506      741.57017     -49.877982      691.69218    
    517000   296.64387      0.031564405    11.839436      735.98163     -52.276675      683.70495    
    518000   302.48628      0.031564405    23.516396      750.4768      -51.095904      699.3809     
    519000   299.66894      0.031564405    17.377156      743.48689     -50.331376      693.15552    
    520000   314.36155      0.031564405    11.74108       779.93968     -50.148634      729.79105    
    521000   294.81703      0.031564405   -1.5057847      731.44918     -53.357891      678.09129    
    522000   298.58817      0.031564405    29.116931      740.80547     -53.25694       687.54853    
    523000   304.06029      0.031564405    19.086215      754.38196     -60.00004       694.38192    
    524000   313.03216      0.031564405    13.588941      776.64142     -51.286251      725.35517    
    525000   288.33937      0.031564405    19.105432      715.37794     -41.388778      673.98916    
    526000   294.52329      0.031564405    18.843235      730.72039     -49.029899      681.6905     
    527000   311.45821      0.031564405    15.873031      772.73642     -53.169067      719.56735    
    528000   294.03819      0.031564405    15.271604      729.51686     -50.873105      678.64376    
    529000   297.5613       0.031564405    14.073517      738.25778     -55.413804      682.84398    
    530000   302.08785      0.031564405    21.524066      749.48828     -48.887153      700.60112    
    531000   304.97095      0.031564405   -0.41938319     756.64134     -56.678796      699.96254    
    532000   294.5615       0.031564405    13.396669      730.8152      -56.319385      674.49582    
    533000   297.63822      0.031564405    9.7964953      738.44863     -55.884587      682.56404    
    534000   288.37015      0.031564405    18.95885       715.45429     -59.809018      655.64527    
    535000   301.16134      0.031564405    18.152291      747.18958     -54.285862      692.90372    
    536000   315.16873      0.031564405    12.453128      781.94231     -52.362886      729.57942    
    537000   293.99276      0.031564405    19.523501      729.40413     -59.898425      669.50571    
    538000   307.22879      0.031564405    20.049917      762.2431      -66.337442      695.90566    
    539000   304.75177      0.031564405    17.719317      756.09755     -57.599666      698.49788    
    540000   296.27455      0.031564405    17.001819      735.06532     -64.480053      670.58527    
    541000   296.42701      0.031564405   -2.3686952      735.44358     -61.182982      674.2606     
    542000   310.02559      0.031564405    19.661777      769.18202     -53.290178      715.89185    
    543000   302.54902      0.031564405    16.057191      750.63247     -53.627766      697.0047     
    544000   289.44654      0.031564405    16.435854      718.12484     -53.447405      664.67744    
    545000   304.43126      0.031564405    13.15365       755.30235     -58.721412      696.58094    
    546000   295.04571      0.031564405    22.950681      732.01653     -53.39776       678.61877    
    547000   302.01434      0.031564405    14.212739      749.3059      -55.217855      694.08805    
    548000   296.35007      0.031564405    11.225169      735.2527      -55.551588      679.70111    
    549000   306.52901      0.031564405    17.885833      760.50692     -51.953245      708.55367    
    550000   296.05526      0.031564405    18.97962       734.52127     -49.304921      685.21635    
    551000   294.69496      0.031564405    6.6073726      731.14632     -53.796158      677.35017    
    552000   295.45373      0.031564405    15.48746       733.02884     -58.960528      674.06831    
    553000   310.34393      0.031564405    16.355034      769.97186     -53.668847      716.30301    
    554000   297.12341      0.031564405    20.652794      737.17137     -53.327101      683.84427    
    555000   286.01616      0.031564405    17.227352      709.61398     -50.607819      659.00616    
    556000   305.43993      0.031564405    8.0453771      757.80489     -49.437885      708.36701    
    557000   311.36896      0.031564405    11.708343      772.51496     -57.234593      715.28037    
    558000   298.15424      0.031564405    15.840165      739.72888     -56.777994      682.95088    
    559000   301.59539      0.031564405    17.907755      748.26647     -52.211778      696.05469    
    560000   318.04923      0.031564405    15.707275      789.0889      -48.807759      740.28114    
    561000   295.09937      0.031564405    12.744786      732.14966     -53.675055      678.47461    
    562000   302.31931      0.031564405    16.895779      750.06255     -54.535955      695.52659    
    563000   296.86681      0.031564405    18.473618      736.53473     -58.010118      678.52461    
    564000   287.23335      0.031564405    18.559843      712.63385     -53.864769      658.76908    
    565000   312.01985      0.031564405    4.8945896      774.12984     -51.676892      722.45295    
    566000   306.19033      0.031564405    19.584506      759.66666     -56.803199      702.86346    
    567000   280.90728      0.031564405    13.764141      696.93871     -51.720658      645.21805    
    568000   297.96886      0.031564405    13.854738      739.26895     -47.348142      691.92081    
    569000   312.81953      0.031564405    14.158021      776.11387     -48.12965       727.98422    
    570000   301.14603      0.031564405    17.835034      747.1516      -52.227685      694.92391    
    571000   291.30365      0.031564405    15.320688      722.73238     -54.72116       668.01122    
    572000   302.39227      0.031564405    27.57345       750.24357     -60.017288      690.22628    
    573000   309.79858      0.031564405    21.989939      768.61882     -50.514978      718.10384    
    574000   314.68046      0.031564405    14.548059      780.7309      -46.340596      734.39031    
    575000   295.25317      0.031564405    11.335376      732.53125     -45.345432      687.18581    
    576000   290.88026      0.031564405    23.590575      721.68194     -49.548463      672.13347    
    577000   305.70232      0.031564405    19.073253      758.45587     -48.712713      709.74316    
    578000   316.22715      0.031564405    11.644795      784.56829     -53.327259      731.24103    
    579000   295.94581      0.031564405    8.9443701      734.24972     -51.395536      682.85418    
    580000   303.19252      0.031564405    8.2138178      752.22899     -48.998801      703.23019    
    581000   303.55092      0.031564405    15.94215       753.11819     -46.546636      706.57155    
    582000   303.33855      0.031564405    18.212233      752.59131     -44.923409      707.6679     
    583000   287.43591      0.031564405    13.63754       713.13641     -47.294084      665.84232    
    584000   290.98638      0.031564405    12.917387      721.94524     -46.819465      675.12577    
    585000   299.06209      0.031564405    15.563094      741.98129     -47.641509      694.33978    
    586000   310.85719      0.031564405    15.473394      771.24526     -48.359128      722.88613    
    587000   292.86168      0.031564405    13.289143      726.5979      -51.20545       675.39245    
    588000   287.09231      0.031564405    16.400054      712.28393     -50.563079      661.72085    
    589000   313.70702      0.031564405    26.140764      778.31577     -48.593089      729.72268    
    590000   319.68824      0.031564405    18.079709      793.15534     -51.604714      741.55063    
    591000   301.19373      0.031564405    15.757178      747.26994     -45.389227      701.88072    
    592000   285.63424      0.031564405    15.18109       708.66642     -52.121729      656.54469    
    593000   306.51087      0.031564405    16.912703      760.46191     -53.602248      706.85966    
    594000   299.65846      0.031564405    13.632587      743.46089     -48.315221      695.14567    
    595000   292.21727      0.031564405    17.251218      724.99911     -51.571588      673.42752    
    596000   301.15585      0.031564405    16.186736      747.17598     -53.090552      694.08542    
    597000   300.0207       0.031564405    14.730167      744.35964     -48.866704      695.49293    
    598000   298.61524      0.031564405    15.331682      740.87265     -46.751338      694.12131    
    599000   311.1575       0.031564405    18.258337      771.99033     -45.835658      726.15467    
    600000   303.88556      0.031564405    14.621883      753.94846     -46.558436      707.39003    
    601000   294.47223      0.031564405    16.817682      730.59373     -51.434255      679.15947    
    602000   303.56921      0.031564405    20.416388      753.16357     -43.082058      710.08151    
    603000   304.96086      0.031564405    17.112102      756.6163      -43.91457       712.70173    
    604000   285.28986      0.031564405    15.777414      707.812       -42.498864      665.31314    
    605000   291.69422      0.031564405    16.443046      723.7014      -40.511588      683.18981    
    606000   308.76039      0.031564405    17.203057      766.04304     -42.263082      723.77996    
    607000   300.87397      0.031564405    16.835445      746.47661     -42.238212      704.2384     
    608000   291.99305      0.031564405    18.862457      724.4428      -46.312966      678.12984    
    609000   294.27657      0.031564405    15.898452      730.10829     -40.964547      689.14374    
    610000   307.45866      0.031564405    15.697007      762.81341     -43.009826      719.80358    
    611000   321.28299      0.031564405    19.306522      797.11195     -49.960806      747.15114    
    612000   299.59544      0.031564405    19.342939      743.30454     -45.926995      697.37755    
    613000   297.39276      0.031564405    14.72039       737.83963     -42.761978      695.07765    
    614000   307.90244      0.031564405    16.285892      763.91443     -41.737178      722.17726    
    615000   298.58581      0.031564405    10.540451      740.79961     -46.065191      694.73442    
    616000   282.32793      0.031564405    12.547588      700.46338     -38.722337      661.74104    
    617000   299.01773      0.031564405   -1.1538054      741.87124     -47.90184       693.9694     
    618000   313.78771      0.031564405    13.679796      778.51597     -48.38108       730.13489    
    619000   310.0729       0.031564405    17.691857      769.29941     -50.532501      718.76691    
    620000   297.69997      0.031564405    18.869841      738.60183     -47.753333      690.8485     
    621000   291.62137      0.031564405    17.302136      723.52066     -50.756086      672.76457    
    622000   302.23256      0.031564405    13.834371      749.84732     -51.096838      698.75048    
    623000   299.19491      0.031564405    18.23978       742.31082     -53.312538      688.99828    
    624000   295.11563      0.031564405    15.8749        732.19002     -50.935462      681.25456    
    625000   301.76289      0.031564405    15.051174      748.68206     -49.881805      698.80025    
    626000   304.63679      0.031564405    16.414103      755.81228     -51.828107      703.98417    
    627000   295.52359      0.031564405    17.96458       733.20218     -43.252505      689.94967    
    628000   287.49232      0.031564405    15.178014      713.27638     -42.748108      670.52827    
    629000   304.42419      0.031564405    15.993207      755.28482     -42.64328       712.64154    
    630000   304.57517      0.031564405    18.625651      755.6594      -43.032721      712.62668    
    631000   292.84689      0.031564405    19.771749      726.56121     -44.07052       682.49069    
    632000   297.25945      0.031564405    15.740778      737.50889     -48.978039      688.53086    
    633000   300.63803      0.031564405    13.707097      745.89123     -44.631225      701.26       
    634000   306.56019      0.031564405    17.958933      760.58428     -41.856225      718.72806    
    635000   291.9287       0.031564405    15.986448      724.28316     -50.235278      674.04788    
    636000   303.24646      0.031564405    17.979711      752.36282     -41.454758      710.90806    
    637000   312.36106      0.031564405    16.059948      774.97641     -44.654178      730.32223    
    638000   291.59292      0.031564405    19.712865      723.45007     -39.31438       684.13569    
    639000   300.37501      0.031564405    15.241319      745.23868     -41.153186      704.0855     
    640000   299.61775      0.031564405    16.264238      743.3599      -41.759808      701.6001     
    641000   294.60545      0.031564405    13.969402      730.92423     -40.557992      690.36624    
    642000   301.44896      0.031564405    18.344999      747.90317     -48.608063      699.29511    
    643000   290.13102      0.031564405    15.621832      719.82307     -43.224745      676.59832    
    644000   302.0456       0.031564405    12.975745      749.38345     -46.186282      703.19717    
    645000   279.76672      0.031564405    15.997377      694.10895     -47.857455      646.25149    
    646000   304.19171      0.031564405    16.662107      754.70802     -42.515287      712.19274    
    647000   302.73551      0.031564405    17.625274      751.09513     -39.692918      711.40221    
    648000   291.97556      0.031564405    14.993738      724.39942     -42.974135      681.42529    
    649000   292.5784       0.031564405    16.59658       725.89508     -41.850852      684.04422    
    650000   294.53947      0.031564405    20.38109       730.76054     -40.57516       690.18538    
    651000   312.17683      0.031564405    18.703902      774.51932     -39.243497      735.27582    
    652000   301.52569      0.031564405    7.6974869      748.09356     -39.76635       708.32721    
    653000   291.962        0.031564405    13.505416      724.36578     -41.678422      682.68736    
    654000   295.17565      0.031564405    18.030988      732.33894     -42.800089      689.53885    
    655000   319.36796      0.031564405    20.73457       792.36072     -47.755983      744.60473    
    656000   320.70767      0.031564405    5.9496842      795.68456     -45.584727      750.09984    
    657000   301.98731      0.031564405    14.739072      749.23884     -47.393042      701.8458     
    658000   289.67587      0.031564405    20.313546      718.69383     -47.913903      670.77992    
    659000   312.904        0.031564405    20.945711      776.32345     -48.286742      728.03671    
    660000   308.67148      0.031564405    10.034644      765.82245     -46.191498      719.63095    
    661000   281.69607      0.031564405    18.976378      698.89573     -50.571984      648.32374    
    662000   291.56569      0.031564405    18.292488      723.38251     -52.743197      670.63931    
    663000   311.9047       0.031564405    21.677983      773.84416     -49.487965      724.3562     
    664000   303.80792      0.031564405    17.065713      753.75583     -49.530552      704.22528    
    665000   289.89501      0.031564405    17.18255       719.23752     -49.212117      670.0254     
    666000   291.89103      0.031564405    8.174504       724.1897      -57.537226      666.65247    
    667000   303.69345      0.031564405    12.556128      753.47182     -51.583216      701.8886     
    668000   295.52938      0.031564405    20.271086      733.21655     -50.706902      682.50965    
    669000   291.56347      0.031564405    14.631282      723.37701     -49.527451      673.84956    
    670000   302.55915      0.031564405    20.312912      750.65759     -54.188171      696.46941    
    671000   305.97507      0.031564405    15.872046      759.13259     -47.552821      711.57977    
    672000   289.92683      0.031564405    22.095703      719.31647     -53.404502      665.91196    
    673000   298.14961      0.031564405    16.491227      739.71741     -55.634955      684.08246    
    674000   314.24373      0.031564405    17.138403      779.64736     -49.659636      729.98773    
    675000   295.73082      0.031564405    14.156448      733.71632     -53.135401      680.58091    
    676000   294.03472      0.031564405    25.544249      729.50826     -48.930333      680.57792    
    677000   301.90988      0.031564405    21.138736      749.04675     -52.376769      696.66998    
    678000   311.93105      0.031564405    13.219296      773.90953     -57.718778      716.19075    
    679000   296.05273      0.031564405    17.49156       734.51497     -56.637971      677.877      
    680000   297.40698      0.031564405    20.680975      737.87491     -55.625738      682.24917    
    681000   300.17108      0.031564405    14.192438      744.73271     -59.802849      684.92987    
    682000   305.11214      0.031564405    16.066856      756.99164     -59.313466      697.67817    
    683000   303.40301      0.031564405    16.185733      752.75123     -63.223134      689.52809    
    684000   289.35346      0.031564405    15.654855      717.89392     -63.018379      654.87554    
    685000   302.77236      0.031564405    19.173323      751.18656     -57.514613      693.67195    
    686000   319.49185      0.031564405    20.154783      792.6681      -58.186248      734.48185    
    687000   306.22404      0.031564405    18.862837      759.75028     -54.347568      705.40271    
    688000   288.6855       0.031564405    13.000753      716.23668     -60.612793      655.62389    
    689000   298.73989      0.031564405    14.783847      741.18191     -63.551205      677.6307     
    690000   309.83514      0.031564405    16.426426      768.70953     -62.272552      706.43697    
    691000   304.28865      0.031564405    20.14211       754.94853     -56.489748      698.45878    
    692000   296.2538       0.031564405    14.252015      735.01384     -55.211887      679.80195    
    693000   307.08524      0.031564405    17.768154      761.88693     -52.106183      709.78075    
    694000   305.5798       0.031564405    19.029572      758.15191     -49.883518      708.26839    
    695000   298.58106      0.031564405    16.671333      740.78785     -47.694383      693.09347    
    696000   294.33206      0.031564405    16.79192       730.24594     -53.054933      677.19101    
    697000   308.58401      0.031564405    16.971745      765.60543     -45.870845      719.73458    
    698000   310.79943      0.031564405    12.593359      771.10194     -51.798507      719.30343    
    699000   305.76194      0.031564405    16.846628      758.60379     -55.277605      703.32619    
    700000   292.7532       0.031564405    18.377678      726.32875     -48.073006      678.25574    
    701000   291.81333      0.031564405    12.748603      723.99692     -48.748126      675.24879    
    702000   310.70183      0.031564405    16.670966      770.8598      -52.81131       718.04849    
    703000   307.70265      0.031564405    15.582312      763.41876     -51.476626      711.94214    
    704000   290.91122      0.031564405    15.576344      721.75874     -48.44782       673.31092    
    705000   306.37522      0.031564405    17.790878      760.12536     -39.978841      720.14652    
    706000   302.54989      0.031564405    15.393747      750.63461     -46.82306       703.81155    
    707000   302.54297      0.031564405    19.925722      750.61744     -47.823062      702.79438    
    708000   299.4897       0.031564405    16.105991      743.0422      -51.565273      691.47693    
    709000   301.49986      0.031564405    14.895795      748.02947     -45.206962      702.82251    
    710000   290.23041      0.031564405    16.828151      720.06965     -51.462268      668.60738    
    711000   304.39649      0.031564405    16.242614      755.21608     -53.667078      701.549      
    712000   303.42549      0.031564405    12.334485      752.80701     -49.124952      703.68206    
    713000   282.20994      0.031564405    17.30294       700.17064     -48.800398      651.37024    
    714000   302.07537      0.031564405    22.151615      749.45731     -50.347265      699.11005    
    715000   306.33825      0.031564405    15.544025      760.03365     -48.598208      711.43544    
    716000   289.82444      0.031564405    3.3591611      719.06242     -43.148106      675.91431    
    717000   292.21516      0.031564405    20.012743      724.99386     -51.460411      673.53345    
    718000   295.05411      0.031564405    17.807674      732.03737     -46.682284      685.35509    
    719000   317.61188      0.031564405    22.870424      788.00383     -45.585131      742.4187     
    720000   311.61162      0.031564405    7.6113955      773.11703     -51.482651      721.63438    
    721000   290.67982      0.031564405    2.3182765      721.18464     -45.318287      675.86635    
    722000   284.94578      0.031564405    13.835555      706.95832     -47.61872       659.3396     
    723000   299.06658      0.031564405    33.765177      741.99243     -48.89393       693.0985     
    724000   308.78754      0.031564405    14.920022      766.11039     -45.706785      720.40361    
    725000   295.25574      0.031564405    11.550226      732.53764     -48.003621      684.53402    
    726000   293.33287      0.031564405    18.767771      727.76694     -52.063838      675.7031     
    727000   309.90372      0.031564405    9.8861555      768.87967     -54.599767      714.27991    
    728000   300.68333      0.031564405    11.479342      746.00364     -43.982091      702.02154    
    729000   288.26563      0.031564405    23.454648      715.19496     -50.174329      665.02063    
    730000   305.0497       0.031564405    18.0023        756.83671     -47.929751      708.90696    
    731000   304.55964      0.031564405    5.1603467      755.62087     -56.699964      698.92091    
    732000   290.76131      0.031564405    16.686494      721.38683     -52.619486      668.76735    
    733000   305.07522      0.031564405    23.319879      756.90002     -48.376658      708.52337    
    734000   306.85295      0.031564405    12.884121      761.31064     -55.033065      706.27757    
    735000   293.47495      0.031564405    27.762234      728.11944     -50.447744      677.67169    
    736000   308.71715      0.031564405    20.08223       765.93576     -43.466044      722.46971    
    737000   291.15727      0.031564405    12.014121      722.36922     -48.436834      673.93238    
    738000   302.39103      0.031564405    20.624422      750.24048     -51.809438      698.43104    
    739000   309.29852      0.031564405    16.568238      767.37815     -44.906044      722.47211    
    740000   296.10601      0.031564405    22.616544      734.64716     -44.391739      690.25542    
    741000   302.90368      0.031564405    14.752807      751.51238     -50.310957      701.20142    
    742000   300.61774      0.031564405    15.090642      745.8409      -41.403592      704.43731    
    743000   296.91881      0.031564405    10.215057      736.66374     -43.687076      692.97667    
    744000   301.5712       0.031564405    15.188022      748.20647     -46.355029      701.85144    
    745000   299.2855       0.031564405    22.388611      742.53557     -52.219772      690.3158     
    746000   283.40851      0.031564405    14.531155      703.14432     -48.656625      654.4877     
    747000   304.91671      0.031564405   -0.44218833     756.50677     -54.745586      701.76118    
    748000   311.01773      0.031564405    3.760351       771.64357     -51.312498      720.33107    
    749000   299.19011      0.031564405    43.975141      742.29891     -48.25235       694.04656    
    750000   288.92258      0.031564405    12.847742      716.82489     -58.165738      658.65915    
    751000   306.62719      0.031564405    6.0454432      760.75052     -52.948337      707.80218    
    752000   302.82957      0.031564405    15.038484      751.32852     -53.918564      697.40996    
    753000   310.75953      0.031564405    17.810234      771.00295     -49.875447      721.12751    
    754000   284.53323      0.031564405    20.812924      705.93478     -47.030354      658.90443    
    755000   294.9754       0.031564405    14.172572      731.84211     -53.263838      678.57827    
    756000   308.93228      0.031564405    16.661755      766.4695      -53.508392      712.96111    
    757000   303.27761      0.031564405    17.392895      752.4401      -54.196432      698.24367    
    758000   306.68999      0.031564405    13.526451      760.90632     -55.679166      705.22715    
    759000   291.0704       0.031564405    15.953187      722.15369     -54.361295      667.79239    
    760000   292.07382      0.031564405    13.805356      724.64319     -56.089927      668.55327    
    761000   300.02901      0.031564405    14.753164      744.38024     -53.114855      691.26539    
    762000   307.29745      0.031564405    15.562529      762.41344     -47.059395      715.35405    
    763000   296.11959      0.031564405    16.583071      734.68087     -48.702337      685.97854    
    764000   303.16321      0.031564405    16.301096      752.15628     -53.037109      699.11917    
    765000   303.45096      0.031564405    15.937007      752.8702      -53.363212      699.50699    
    766000   300.1523       0.031564405    16.707386      744.68612     -48.457673      696.22845    
    767000   290.62088      0.031564405    16.678026      721.03841     -48.342986      672.69542    
    768000   306.33137      0.031564405    19.230613      760.01657     -46.205859      713.81071    
    769000   313.94365      0.031564405    18.08815       778.90284     -47.839608      731.06324    
    770000   306.89557      0.031564405    17.370046      761.41638     -48.695417      712.72096    
    771000   291.26402      0.031564405    18.519133      722.63407     -48.478482      674.15559    
    772000   290.45752      0.031564405    14.20466       720.63312     -51.033712      669.59941    
    773000   299.821        0.031564405    7.7823835      743.86416     -56.101087      687.76307    
    774000   315.59392      0.031564405    16.935348      782.99721     -51.595432      731.40178    
    775000   307.78181      0.031564405    21.366899      763.61516     -52.50618       711.10898    
    776000   297.73588      0.031564405    17.44724       738.69094     -51.524021      687.16691    
    777000   292.93967      0.031564405    15.595206      726.79139     -49.559213      677.23218    
    778000   293.31582      0.031564405    15.467085      727.72462     -51.628491      676.09613    
    779000   309.68679      0.031564405    17.305944      768.34147     -55.05643       713.28503    
    780000   313.80329      0.031564405    5.5710404      778.55461     -49.094486      729.46013    
    781000   281.53619      0.031564405    9.5003552      698.49906     -48.387531      650.11153    
    782000   289.68795      0.031564405    20.960826      718.72379     -54.321861      664.40193    
    783000   315.90296      0.031564405    13.356171      783.76394     -53.672671      730.09127    
    784000   308.07023      0.031564405    19.520618      764.33073     -50.989917      713.34081    
    785000   291.39178      0.031564405    14.481093      722.95103     -57.859269      665.09176    
    786000   298.20985      0.031564405    12.48148       739.86686     -56.982047      682.88481    
    787000   307.96623      0.031564405    15.710557      764.07269     -59.179331      704.89336    
    788000   305.86122      0.031564405    20.598777      758.85011     -57.726391      701.12372    
    789000   301.39958      0.031564405    16.390213      747.78068     -55.907729      691.87295    
    790000   297.66452      0.031564405    26.164866      738.51387     -61.393615      677.12026    
    791000   287.84334      0.031564405    12.254519      714.14727     -62.428138      651.71914    
    792000   306.74804      0.031564405    17.130549      761.05035     -60.356353      700.694      
    793000   312.81373      0.031564405    24.934022      776.0995      -62.342234      713.75726    
    794000   286.51157      0.031564405    8.3142785      710.8431      -61.385053      649.45804    
    795000   309.05636      0.031564405   -1.3010331      766.77734     -65.869736      700.9076     
    796000   315.0776       0.031564405    23.063124      781.7162      -69.668081      712.04812    
    797000   311.92796      0.031564405    32.442853      773.90186     -64.628064      709.2738     
    798000   289.61016      0.031564405    26.13856       718.53079     -64.068602      654.46218    
    799000   305.1231       0.031564405    11.563131      757.01882     -56.060427      700.95839    
    800000   306.45141      0.031564405    11.196128      760.31439     -51.992188      708.32221    
    801000   295.37849      0.031564405    27.483884      732.84217     -56.767471      676.0747     
    802000   304.44568      0.031564405    25.026899      755.33813     -56.444837      698.89329    
    803000   291.50622      0.031564405    1.264705       723.23496     -56.911432      666.32353    
    804000   302.47571      0.031564405    11.83884       750.45058     -55.474512      694.97606    
    805000   293.41264      0.031564405    27.92084       727.96484     -54.568516      673.39632    
    806000   298.62503      0.031564405    20.625512      740.89692     -56.044054      684.85287    
    807000   297.39687      0.031564405    16.138667      737.84983     -53.540679      684.30915    
    808000   289.14868      0.031564405    11.67742       717.38584     -56.541922      660.84392    
    809000   309.08706      0.031564405    17.736538      766.85352     -57.278244      709.57528    
    810000   300.48841      0.031564405    17.998193      745.52003     -54.521917      690.99811    
    811000   303.22536      0.031564405    18.297019      752.31046     -44.210268      708.1002     
    812000   300.3817       0.031564405    13.87191       745.25529     -55.087819      690.16747    
    813000   291.9658       0.031564405    16.902206      724.37519     -56.572996      667.80219    
    814000   303.72134      0.031564405    18.438998      753.54101     -51.613697      701.92731    
    815000   306.55385      0.031564405    16.568002      760.56856     -51.863483      708.70508    
    816000   309.2695       0.031564405    15.293592      767.30614     -54.655767      712.65038    
    817000   295.90771      0.031564405    17.95825       734.15519     -50.848956      683.30624    
    818000   298.91094      0.031564405    16.885819      741.60628     -57.649838      683.95644    
    819000   319.97818      0.031564405    18.023543      793.87469     -55.112583      738.7621     
    820000   297.07226      0.031564405    12.602551      737.04446     -59.369593      677.67487    
    821000   295.87055      0.031564405    16.451877      734.06299     -61.108271      672.95471    
    822000   322.06293      0.031564405    18.923018      799.04699     -57.913431      741.13356    
    823000   297.0275       0.031564405    14.082718      736.93341     -58.383134      678.55028    
    824000   297.59719      0.031564405    15.397172      738.34684     -59.185546      679.1613     
    825000   304.52931      0.031564405    17.141396      755.5456      -57.883894      697.66171    
    826000   309.11489      0.031564405    18.332537      766.92256     -66.080914      700.84165    
    827000   310.53528      0.031564405    13.439768      770.44658     -60.942902      709.50368    
    828000   294.15868      0.031564405    17.930281      729.81579     -57.707152      672.10863    
    829000   301.22747      0.031564405    19.623773      747.35365     -64.329235      683.02442    
    830000   291.79938      0.031564405    17.93667       723.9623      -56.064778      667.89752    
    831000   298.9228       0.031564405    15.917688      741.63569     -56.977638      684.65806    
    832000   299.78568      0.031564405    16.510091      743.77653     -58.661159      685.11537    
    833000   304.06642      0.031564405    11.219994      754.39717     -59.333045      695.06412    
    834000   303.26233      0.031564405    17.443516      752.40221     -56.85503       695.54718    
    835000   301.58352      0.031564405    18.649755      748.23702     -61.10253       687.13449    
    836000   294.89103      0.031564405    16.006746      731.63278     -57.587654      674.04513    
    837000   308.9751       0.031564405    18.233133      766.57574     -63.806441      702.76929    
    838000   299.30745      0.031564405    18.644752      742.59002     -66.419644      676.17038    
    839000   299.50645      0.031564405    17.84662       743.08377     -66.720528      676.36324    
    840000   297.97067      0.031564405    16.03549       739.27345     -65.154384      674.11907    
    841000   301.2235       0.031564405    14.531184      747.34379     -60.783008      686.56079    
    842000   303.85244      0.031564405    17.1564        753.86627     -58.094802      695.77147    
    843000   291.38127      0.031564405    9.960844       722.92495     -56.020864      666.90409    
    844000   300.86995      0.031564405    15.963557      746.46664     -62.46775       683.99889    
    845000   303.76447      0.031564405    21.775706      753.64801     -61.490036      692.15798    
    846000   300.09276      0.031564405    14.098419      744.53841     -63.538965      680.99944    
    847000   296.05977      0.031564405    18.784295      734.53244     -60.686498      673.84594    
    848000   312.22329      0.031564405    17.382442      774.6346      -59.131698      715.5029     
    849000   300.35555      0.031564405    15.275558      745.19039     -54.62558       690.56481    
    850000   288.80679      0.031564405    14.698606      716.5376      -52.978378      663.55922    
    851000   306.78716      0.031564405    25.252489      761.1474      -57.158865      703.98854    
    852000   310.15199      0.031564405    14.371787      769.49565     -54.845194      714.65045    
    853000   300.70944      0.031564405    14.89922       746.0684      -56.38271       689.68569    
    854000   295.3695       0.031564405    15.645853      732.81986     -53.973826      678.84603    
    855000   300.7668       0.031564405    22.93964       746.21071     -56.432518      689.77819    
    856000   302.94893      0.031564405    11.899344      751.62465     -52.328727      699.29592    
    857000   296.81412      0.031564405    8.9041543      736.404       -51.730752      684.67325    
    858000   299.12574      0.031564405    17.183372      742.1392      -58.797742      683.34146    
    859000   309.356        0.031564405    19.345362      767.52076     -54.088794      713.43197    
    860000   301.18678      0.031564405    12.040326      747.25269     -45.53089       701.7218     
    861000   291.63123      0.031564405    18.520665      723.54513     -57.213873      666.33126    
    862000   306.03084      0.031564405    11.331807      759.27094     -54.60516       704.66578    
    863000   292.91636      0.031564405    20.117838      726.73355     -47.626912      679.10664    
    864000   297.06287      0.031564405    15.40214       737.02117     -46.47466       690.54651    
    865000   291.62305      0.031564405    20.93732       723.52482     -49.563593      673.96123    
    866000   300.2722       0.031564405    17.919231      744.98361     -45.66095       699.32266    
    867000   294.41137      0.031564405    13.55064       730.44272     -42.479862      687.96286    
    868000   291.17533      0.031564405    12.337744      722.41402     -52.348057      670.06597    
    869000   304.14127      0.031564405    16.144586      754.58287     -51.787063      702.79581    
    870000   296.31712      0.031564405    18.068775      735.17094     -53.247968      681.92298    
    871000   307.39837      0.031564405    11.576411      762.66382     -53.622418      709.0414     
    872000   292.87899      0.031564405    19.26907       726.64085     -50.553825      676.08703    
    873000   301.70036      0.031564405    25.514546      748.5269      -56.120737      692.40616    
    874000   298.78304      0.031564405    13.246114      741.28895     -50.952329      690.33662    
    875000   301.629        0.031564405    15.555129      748.34985     -50.935486      697.41437    
    876000   293.49755      0.031564405    14.490369      728.1755      -48.562615      679.61289    
    877000   298.84738      0.031564405    14.81569       741.44859     -49.603334      691.84526    
    878000   299.20052      0.031564405    20.106076      742.32474     -53.134525      689.19022    
    879000   299.79795      0.031564405    17.29248       743.80698     -51.708473      692.09851    
    880000   307.30161      0.031564405    17.677703      762.42376     -51.580766      710.84299    
    881000   313.1991       0.031564405    17.554666      777.05561     -49.289223      727.76639    
    882000   301.16432      0.031564405    19.164238      747.19698     -54.401474      692.7955     
    883000   289.11172      0.031564405    15.137918      717.29415     -55.22964       662.06451    
    884000   316.03215      0.031564405    19.396818      784.08449     -50.775125      733.30936    
    885000   307.81812      0.031564405    12.817737      763.70524     -51.735138      711.97011    
    886000   286.55487      0.031564405    15.284163      710.95054     -46.793949      664.15659    
    887000   297.5581       0.031564405    15.776039      738.24985     -48.441388      689.80846    
    888000   305.95324      0.031564405    16.549586      759.07841     -52.145969      706.93245    
    889000   294.61267      0.031564405    12.392282      730.94215     -48.374079      682.56807    
    890000   298.75684      0.031564405    23.320993      741.22395     -52.006028      689.21792    
    891000   311.97969      0.031564405    16.996657      774.03021     -51.515951      722.51426    
    892000   288.34237      0.031564405    13.546443      715.38536     -47.500224      667.88514    
    893000   288.33108      0.031564405    17.300363      715.35735     -42.904406      672.45294    
    894000   314.93206      0.031564405    18.263389      781.35512     -45.257814      736.0973     
    895000   300.63015      0.031564405    10.893818      745.8717      -52.3486        693.5231     
    896000   308.03281      0.031564405    15.899179      764.23788     -51.681791      712.55609    
    897000   294.06921      0.031564405    16.361677      729.59382     -49.049396      680.54442    
    898000   303.44247      0.031564405    22.754779      752.84914     -51.251344      701.5978     
    899000   300.92146      0.031564405    11.493462      746.59443     -54.536694      692.05773    
    900000   304.34366      0.031564405    10.482207      755.08502     -53.137414      701.9476     
    901000   297.19697      0.031564405    15.838302      737.35387     -50.193773      687.1601     
    902000   293.56712      0.031564405    23.423869      728.34812     -53.137628      675.21049    
    903000   298.37062      0.031564405    21.338987      740.26574     -48.430012      691.83573    
    904000   324.32396      0.031564405    11.657376      804.65668     -43.40146       761.25521    
    905000   295.02564      0.031564405    9.1710932      731.96676     -45.105004      686.86175    
    906000   295.37963      0.031564405    20.949716      732.84501     -43.200919      689.64409    
    907000   304.4109       0.031564405    15.03134       755.25183     -48.650992      706.60084    
    908000   297.35771      0.031564405    14.684299      737.75267     -49.735395      688.01727    
    909000   301.36488      0.031564405    19.165596      747.69458     -50.057851      697.63673    
    910000   309.56983      0.031564405    17.620604      768.05128     -49.661603      718.38968    
    911000   300.23183      0.031564405    7.066504       744.88344     -56.209352      688.67409    
    912000   306.59966      0.031564405    19.707042      760.68221     -55.711048      704.97116    
    913000   307.29793      0.031564405    15.069129      762.41464     -58.284062      704.13058    
    914000   296.15505      0.031564405    13.003118      734.76885     -54.205263      680.56359    
    915000   306.46952      0.031564405    19.048993      760.35933     -48.838334      711.52099    
    916000   294.96335      0.031564405    4.4466539      731.81221     -52.284304      679.52791    
    917000   305.02265      0.031564405    23.373518      756.76961     -57.127248      699.64237    
    918000   298.60972      0.031564405    9.5902377      740.85894     -52.558714      688.30022    
    919000   311.2492       0.031564405    17.040819      772.21785     -57.583605      714.63424    
    920000   299.05274      0.031564405    13.507032      741.95809     -58.127011      683.83108    
    921000   283.88417      0.031564405    16.708846      704.32444     -52.264427      652.06001    
    922000   290.72909      0.031564405    12.972991      721.30689     -54.892931      666.41396    
    923000   297.77945      0.031564405    20.471489      738.79901     -47.992489      690.80652    
    924000   301.58307      0.031564405    7.5737621      748.23592     -46.555877      701.68004    
    925000   294.52958      0.031564405    9.5752918      730.73601     -50.762097      679.97392    
    926000   315.16147      0.031564405    36.830559      781.9243      -49.646999      732.2773     
    927000   300.64947      0.031564405    26.272738      745.91961     -50.598889      695.32072    
    928000   311.98404      0.031564405    6.1845781      774.04101     -44.543975      729.49703    
    929000   302.23295      0.031564405    17.36273       749.84828     -52.255539      697.59275    
    930000   290.80688      0.031564405    20.530213      721.49989     -53.322271      668.17762    
    931000   308.58286      0.031564405    17.809444      765.60258     -51.965118      713.63746    
    932000   302.84122      0.031564405    17.08225       751.35743     -44.72844       706.62899    
    933000   298.6473       0.031564405    14.113013      740.95218     -49.560127      691.39205    
    934000   306.59263      0.031564405    17.950809      760.66477     -51.702615      708.96216    
    935000   297.76458      0.031564405    15.686894      738.76212     -48.641147      690.12098    
    936000   301.76958      0.031564405    15.313127      748.69864     -47.597418      701.10123    
    937000   295.09155      0.031564405    9.2695422      732.13027     -44.085559      688.04471    
    938000   292.05631      0.031564405    19.828141      724.59975     -36.574817      688.02493    
    939000   307.91016      0.031564405    19.908544      763.93359     -42.152878      721.78071    
    940000   315.14714      0.031564405    18.337989      781.88874     -45.127008      736.76173    
    941000   279.54624      0.031564405    14.968791      693.56192     -46.09387       647.46805    
    942000   297.07996      0.031564405    17.21179       737.06357     -43.609282      693.45429    
    943000   318.66018      0.031564405    14.116069      790.60469     -51.929955      738.67473    
    944000   306.74403      0.031564405    24.112075      761.0404      -51.178118      709.86229    
    945000   295.58125      0.031564405    11.876933      733.34522     -51.447593      681.89763    
    946000   297.66517      0.031564405    11.221562      738.51549     -51.405658      687.10983    
    947000   302.96719      0.031564405    29.57439       751.66995     -50.133947      701.53601    
    948000   305.2076       0.031564405    16.719936      757.22847     -55.574881      701.65359    
    949000   303.80104      0.031564405    14.257113      753.73875     -52.391121      701.34763    
    950000   297.55633      0.031564405    19.947263      738.24545     -52.132314      686.11314    
    951000   293.57136      0.031564405    18.376673      728.35863     -52.409538      675.94909    
    952000   296.09036      0.031564405    5.061084       734.60836     -55.216111      679.39225    
    953000   312.57278      0.031564405    16.844847      775.5017      -52.758377      722.74332    
    954000   292.92526      0.031564405    24.106644      726.75565     -53.557964      673.19769    
    955000   308.76853      0.031564405    9.0293552      766.06324     -56.534923      709.52832    
    956000   307.38807      0.031564405    14.553307      762.63828     -48.423527      714.21475    
    957000   292.90428      0.031564405    28.794666      726.70359     -51.019583      675.684      
    958000   288.0858       0.031564405    16.108456      714.7488      -55.814303      658.9345     
    959000   319.95779      0.031564405    13.590241      793.82409     -56.729057      737.09503    
    960000   302.65554      0.031564405    18.608811      750.89673     -54.547178      696.34955    
    961000   294.33832      0.031564405    12.44067       730.26148     -53.490055      676.77143    
    962000   303.4509       0.031564405    15.449381      752.87004     -50.890098      701.97994    
    963000   307.89084      0.031564405    14.561797      763.88566     -50.560493      713.32516    
    964000   310.293        0.031564405    18.315599      769.84549     -54.624182      715.22131    
    965000   284.09956      0.031564405    15.399983      704.85883     -51.889034      652.9698     
    966000   285.46271      0.031564405    18.030385      708.24085     -53.85512       654.38573    
    967000   314.53826      0.031564405    17.413968      780.37809     -53.949561      726.42852    
    968000   308.60894      0.031564405    20.284733      765.66729     -53.125143      712.54214    
    969000   284.97774      0.031564405    15.803271      707.03762     -51.636017      655.40161    
    970000   294.04034      0.031564405    17.434096      729.52219     -53.300984      676.22121    
    971000   313.51186      0.031564405    17.662272      777.83158     -51.801543      726.03004    
    972000   314.41962      0.031564405    13.859988      780.08374     -53.000155      727.08359    
    973000   292.43316      0.031564405    18.062185      725.53472     -60.944454      664.59026    
    974000   302.06847      0.031564405    24.481319      749.44019     -56.714427      692.72577    
    975000   310.88078      0.031564405    20.64774       771.30378     -53.527757      717.77603    
    976000   311.6515       0.031564405    15.511551      773.21595     -56.128242      717.08771    
    977000   286.76299      0.031564405    16.657356      711.46689     -57.28112       654.18577    
    978000   309.16562      0.031564405    23.208167      767.04842     -54.969244      712.07918    
    979000   312.6006       0.031564405    18.653032      775.57071     -56.371485      719.19923    
    980000   297.31885      0.031564405    19.060348      737.65625     -55.404048      682.2522     
    981000   287.92432      0.031564405    17.207677      714.34817     -54.345552      660.00262    
    982000   313.16262      0.031564405    18.281424      776.96508     -61.227515      715.73757    
    983000   302.48514      0.031564405    15.339084      750.47398     -61.864823      688.60915    
    984000   293.83104      0.031564405    22.181142      729.0029      -51.26077       677.74213    
    985000   300.23466      0.031564405    15.750751      744.89046     -55.831758      689.0587     
    986000   298.92922      0.031564405    15.804437      741.65163     -57.156606      684.49502    
    987000   292.88071      0.031564405    15.756086      726.64511     -52.91739       673.72772    
    988000   295.97233      0.031564405    16.635545      734.31551     -53.175229      681.14028    
    989000   307.45147      0.031564405    16.214459      762.79557     -52.908403      709.88716    
    990000   287.53732      0.031564405    14.203675      713.38802     -49.548537      663.83948    
    991000   290.87547      0.031564405    20.113886      721.67005     -48.141736      673.52831    
    992000   300.60856      0.031564405    26.716282      745.81812     -49.43988       696.37824    
    993000   297.24485      0.031564405    3.8614422      737.47266     -52.31561       685.15705    
    994000   304.34584      0.031564405    12.732906      755.09042     -51.76794       703.32248    
    995000   295.95032      0.031564405    16.99757       734.2609      -55.167303      679.0936     
    996000   284.05571      0.031564405    14.438447      704.75005     -58.180524      646.56953    
    997000   296.77596      0.031564405    15.52158       736.30933     -55.297379      681.01195    
    998000   313.01747      0.031564405    17.596403      776.60498     -57.639244      718.96573    
    999000   309.1842       0.031564405    15.713982      767.09452     -51.206231      715.88829    
   1000000   299.07849      0.031564405    19.654544      742.02198     -51.816573      690.20541    
   1001000   306.97186      0.031564405    14.535211      761.60564     -51.561367      710.04428    
   1002000   291.62304      0.031564405    17.182668      723.52479     -54.143398      669.38139    
   1003000   289.96989      0.031564405    16.308382      719.4233      -48.568595      670.8547     
   1004000   305.73821      0.031564405    12.142982      758.54493     -47.705013      710.83992    
   1005000   297.32446      0.031564405    26.781951      737.67018     -45.345223      692.32496    
   1006000   295.99116      0.031564405    22.893432      734.36223     -51.916067      682.44616    
   1007000   306.92062      0.031564405    13.964374      761.47853     -53.280912      708.19761    
   1008000   300.9876       0.031564405    8.8801694      746.75853     -52.090723      694.6678     
   1009000   295.60013      0.031564405    17.267414      733.39208     -51.021285      682.3708     
   1010000   311.9549       0.031564405    16.128014      773.9687      -50.526822      723.44188    
   1011000   305.63239      0.031564405    16.990071      758.28238     -45.148548      713.13383    
   1012000   296.54413      0.031564405    16.035456      735.73415     -43.74503       691.98912    
   1013000   303.52764      0.031564405    13.803469      753.06044     -47.358956      705.70148    
   1014000   305.30512      0.031564405    16.138089      757.47041     -49.268815      708.2016     
   1015000   295.23024      0.031564405    16.270416      732.47437     -52.789968      679.68441    
   1016000   290.73812      0.031564405    14.400428      721.32928     -54.593422      666.73586    
   1017000   304.87499      0.031564405    11.021563      756.40325     -56.541736      699.86152    
   1018000   306.51756      0.031564405    15.405565      760.47852     -55.46974       705.00878    
   1019000   291.22222      0.031564405    17.507422      722.53035     -53.586684      668.94367    
   1020000   302.80767      0.031564405    14.874095      751.27418     -53.286833      697.98735    
   1021000   312.21422      0.031564405    15.547227      774.61208     -50.965509      723.64657    
   1022000   291.65263      0.031564405    17.584422      723.59822     -50.063091      673.53513    
   1023000   296.49851      0.031564405    18.088796      735.62098     -53.103016      682.51797    
   1024000   299.56546      0.031564405    14.119171      743.23017     -56.227587      687.00258    
   1025000   307.52881      0.031564405    16.021269      762.98746     -54.428236      708.55923    
   1026000   303.25606      0.031564405    14.52897       752.38665     -54.39736       697.98929    
   1027000   304.93233      0.031564405    18.596403      756.54552     -52.642939      703.90258    
   1028000   308.25868      0.031564405    17.166868      764.79827     -55.856362      708.94191    
   1029000   305.33987      0.031564405    16.418017      757.55662     -58.002689      699.55393    
   1030000   300.06         0.031564405    17.129583      744.45713     -55.124667      689.33246    
   1031000   290.31071      0.031564405    16.375589      720.26888     -63.760246      656.50864    
   1032000   308.22831      0.031564405    16.78119       764.72294     -57.804854      706.91809    
   1033000   297.60972      0.031564405    15.564284      738.37791     -50.334367      688.04355    
   1034000   313.68608      0.031564405    21.350953      778.2638      -54.01803       724.24577    
   1035000   289.45987      0.031564405    19.315553      718.15791     -57.743578      660.41433    
   1036000   289.58106      0.031564405    14.383514      718.4586      -60.866421      657.59218    
   1037000   306.05013      0.031564405    15.36861       759.3188      -57.723184      701.59561    
   1038000   305.81297      0.031564405    18.878779      758.7304      -57.000661      701.72974    
   1039000   285.78692      0.031564405    16.313964      709.04523     -55.926604      653.11862    
   1040000   306.2061       0.031564405    16.147831      759.70577     -62.329533      697.37624    
   1041000   313.08862      0.031564405    11.49214       776.78151     -58.978464      717.80304    
   1042000   304.40554      0.031564405    7.5895819      755.23853     -61.755635      693.48289    
   1043000   294.62669      0.031564405    13.2275        730.97694     -60.179675      670.79727    
   1044000   300.46307      0.031564405    18.657401      745.45715     -58.863347      686.5938     
   1045000   302.75857      0.031564405    5.8645012      751.15235     -56.311764      694.84059    
   1046000   280.94872      0.031564405    19.608102      697.04151     -50.09165       646.94986    
   1047000   294.50734      0.031564405    29.181801      730.68083     -47.644119      683.03671    
   1048000   299.71973      0.031564405    14.968746      743.61291     -51.58135       692.03156    
   1049000   296.35283      0.031564405    20.227247      735.25953     -52.77116       682.48837    
   1050000   316.84341      0.031564405    21.905182      786.09725     -53.385139      732.71211    
   1051000   315.8166       0.031564405    16.704909      783.54969     -54.19452       729.35517    
   1052000   294.06741      0.031564405    14.821438      729.58935     -64.297271      665.29208    
   1053000   288.56183      0.031564405    20.41727       715.92984     -65.284642      650.6452     
   1054000   308.8029       0.031564405    32.645061      766.14852     -69.424791      696.72373    
   1055000   308.93756      0.031564405    15.372834      766.48261     -63.56416       702.91845    
   1056000   296.34483      0.031564405    12.394415      735.2397      -67.435804      667.8039     
   1057000   287.87512      0.031564405    13.451526      714.22611     -64.888182      649.33793    
   1058000   315.64619      0.031564405    20.669438      783.1269      -60.042938      723.08396    
   1059000   302.99241      0.031564405    2.7894322      751.73253     -52.471092      699.26144    
   1060000   293.06308      0.031564405    15.858852      727.09758     -55.695184      671.40239    
   1061000   291.37177      0.031564405    18.534516      722.9014      -47.023246      675.87815    
   1062000   325.28418      0.031564405    19.448345      807.03901     -49.938047      757.10096    
   1063000   300.47151      0.031564405    5.283959       745.4781      -53.814123      691.66398    
   1064000   289.52607      0.031564405    8.2543452      718.32216     -49.209252      669.11291    
   1065000   300.84974      0.031564405    26.783485      746.4165      -53.827602      692.5889     
   1066000   316.16554      0.031564405    21.041086      784.41541     -52.276503      732.13891    
   1067000   293.65862      0.031564405    12.659135      728.57514     -48.946518      679.62862    
   1068000   300.45898      0.031564405    16.263138      745.44701     -55.234853      690.21216    
   1069000   311.27738      0.031564405    17.585059      772.28776     -52.278332      720.00943    
   1070000   303.73889      0.031564405    19.145374      753.58456     -50.325891      703.25867    
   1071000   299.02125      0.031564405    12.35355       741.87997     -55.402481      686.47749    
   1072000   302.47958      0.031564405    14.380493      750.46018     -51.069671      699.39051    
   1073000   301.36595      0.031564405    20.020741      747.69723     -53.816705      693.88053    
   1074000   299.36849      0.031564405    14.821195      742.74147     -51.766488      690.97498    
   1075000   312.45099      0.031564405    15.91577       775.19952     -51.714194      723.48533    
   1076000   294.12075      0.031564405    16.141505      729.72169     -53.81927       675.90242    
   1077000   287.55449      0.031564405    17.637973      713.43063     -60.070311      653.36032    
   1078000   296.74474      0.031564405    9.908354       736.23188     -57.1229        679.10898    
   1079000   302.90164      0.031564405    12.019671      751.50731     -54.317805      697.1895     
   1080000   289.24454      0.031564405    28.915417      717.62369     -54.399047      663.22464    
   1081000   295.41991      0.031564405    9.1766522      732.94493     -55.402447      677.54249    
   1082000   311.90102      0.031564405    17.87451       773.83503     -53.941298      719.89373    
   1083000   298.79333      0.031564405    21.726281      741.31449     -54.491836      686.82265    
   1084000   289.50352      0.031564405    19.924724      718.26621     -53.15449       665.11172    
   1085000   298.76673      0.031564405    15.106403      741.2485      -51.056684      690.19181    
   1086000   307.50336      0.031564405    11.942769      762.92431     -52.378645      710.54567    
   1087000   298.8104       0.031564405    18.411062      741.35684     -48.543184      692.81366    
   1088000   307.04568      0.031564405    31.245927      761.7888      -48.51373       713.27507    
   1089000   298.62697      0.031564405    20.4626        740.90173     -46.00952       694.89221    
   1090000   276.19742      0.031564405    5.1540895      685.25342     -49.083289      636.17013    
   1091000   301.02787      0.031564405   -3.0921281      746.85845     -51.433398      695.42505    
   1092000   316.59095      0.031564405    23.850432      785.47088     -46.946942      738.52394    
   1093000   289.90208      0.031564405    18.004154      719.25506     -47.842216      671.41284    
   1094000   303.84931      0.031564405   -4.0510946      753.85852     -50.750672      703.10784    
   1095000   314.44579      0.031564405    58.38513       780.14867     -53.813539      726.33513    
   1096000   291.17614      0.031564405    8.7483252      722.41603     -52.502382      669.91364    
   1097000   290.85994      0.031564405   -7.9766643      721.63154     -49.668953      671.96258    
   1098000   307.76449      0.031564405    16.484033      763.57219     -51.538749      712.03344    
   1099000   306.07103      0.031564405    25.613108      759.37066     -57.263438      702.10722    
   1100000   289.88372      0.031564405    15.24075       719.20949     -52.613041      666.59645    
   1101000   293.5527       0.031564405    11.086039      728.31235     -45.883934      682.42841    
   1102000   302.65391      0.031564405    16.902056      750.89271     -47.136194      703.75651    
   1103000   310.49777      0.031564405    16.220175      770.35352     -53.39651       716.95701    
   1104000   303.20855      0.031564405    20.536791      752.26878     -51.068763      701.20002    
   1105000   285.34875      0.031564405    15.422336      707.95811     -50.302178      657.65594    
   1106000   305.48419      0.031564405    15.071895      757.9147      -47.671051      710.24365    
   1107000   309.5835       0.031564405    18.45082       768.08519     -50.641145      717.44405    
   1108000   296.36573      0.031564405    18.269452      735.29156     -47.083404      688.20815    
   1109000   300.62334      0.031564405    6.1297368      745.85478     -52.531879      693.32291    
   1110000   305.92525      0.031564405    9.9334076      759.00899     -54.126073      704.88292    
   1111000   304.29246      0.031564405    18.683409      754.95797     -59.196767      695.7612     
   1112000   304.88904      0.031564405    15.695396      756.43812     -53.865447      702.57267    
   1113000   302.75919      0.031564405    12.990128      751.15389     -59.148307      692.00559    
   1114000   301.80361      0.031564405    17.771019      748.78307     -52.085996      696.69708    
   1115000   299.26093      0.031564405    17.412384      742.47462     -46.260625      696.21399    
   1116000   313.14496      0.031564405    17.29963       776.92129     -46.906532      730.01476    
   1117000   292.11477      0.031564405    15.929286      724.74479     -49.381662      675.36312    
   1118000   283.97196      0.031564405    16.371831      704.54226     -51.926568      652.61569    
   1119000   303.33804      0.031564405    18.636694      752.59005     -50.009064      702.58098    
   1120000   297.83698      0.031564405    13.635603      738.94175     -55.129694      683.81206    
   1121000   297.70582      0.031564405    15.335817      738.61634     -52.231663      686.38468    
   1122000   302.15405      0.031564405    18.677303      749.65253     -60.623436      689.02909    
   1123000   304.88579      0.031564405    17.255513      756.43005     -59.299443      697.13061    
   1124000   284.85798      0.031564405    3.3363693      706.7405      -57.376088      649.36441    
   1125000   301.66598      0.031564405    8.5564067      748.44161     -55.951182      692.49043    
   1126000   300.79854      0.031564405    20.061202      746.28947     -57.009364      689.28011    
   1127000   294.34157      0.031564405    30.929503      730.26955     -48.51721       681.75234    
   1128000   307.62436      0.031564405    9.6023766      763.22451     -49.583858      713.64066    
   1129000   316.30694      0.031564405    0.45113489     784.76624     -46.186339      738.5799     
   1130000   291.97078      0.031564405   -4.5581593      724.38756     -41.557884      682.82968    
   1131000   297.6456       0.031564405    17.01377       738.46695     -43.75758       694.70937    
   1132000   305.84489      0.031564405    31.281347      758.80959     -43.636344      715.17325    
   1133000   312.33904      0.031564405    15.880174      774.92176     -50.608829      724.31293    
   1134000   292.10899      0.031564405    10.464753      724.73045     -45.012112      679.71834    
   1135000   302.3213       0.031564405    34.551982      750.06749     -47.574948      702.49254    
   1136000   311.64022      0.031564405    13.542654      773.18798     -58.006523      715.18146    
   1137000   293.04229      0.031564405    12.058104      727.04601     -57.697898      669.34811    
   1138000   301.63225      0.031564405    16.22091       748.35792     -57.007494      691.35042    
   1139000   280.39995      0.031564405    13.938351      695.68001     -54.928416      640.75159    
   1140000   307.045        0.031564405    20.143819      761.78711     -50.474525      711.31258    
   1141000   308.25652      0.031564405    10.01683       764.79291     -55.020082      709.77283    
   1142000   286.43709      0.031564405    14.752322      710.65832     -52.679472      657.97884    
   1143000   292.96496      0.031564405    22.953242      726.85415     -50.223787      676.63036    
   1144000   331.12095      0.031564405    10.896685      821.5202      -50.85803       770.66217    
   1145000   299.49338      0.031564405    10.587492      743.05133     -48.741123      694.31021    
   1146000   290.45004      0.031564405    27.932762      720.61456     -47.001018      673.61354    
   1147000   307.30804      0.031564405    18.187019      762.43971     -50.705176      711.73453    
   1148000   306.44153      0.031564405    3.5768684      760.28988     -50.445517      709.84436    
   1149000   292.78924      0.031564405    9.6242625      726.41818     -48.218788      678.1994     
   1150000   300.04071      0.031564405    20.577394      744.40927     -63.97383       680.43544    
   1151000   302.98584      0.031564405    26.067007      751.71623     -63.437257      688.27897    
   1152000   320.00909      0.031564405    2.2438191      793.95137     -53.694871      740.2565     
   1153000   294.62584      0.031564405    13.299595      730.97483     -53.397089      677.57774    
   1154000   292.50564      0.031564405    12.039958      725.71456     -52.129216      673.58534    
   1155000   305.86726      0.031564405    28.11131       758.86511     -52.610168      706.25494    
   1156000   305.23829      0.031564405    14.619542      757.30461     -50.515989      706.78862    
   1157000   295.09378      0.031564405    5.9675848      732.1358      -48.16092       683.97488    
   1158000   293.41281      0.031564405    23.891105      727.96526     -45.684506      682.28076    
   1159000   312.78302      0.031564405    22.651173      776.02329     -44.867672      731.15561    
   1160000   296.97903      0.031564405    2.0752124      736.81317     -46.70702       690.10615    
   1161000   299.94935      0.031564405    4.2925553      744.18261     -45.654074      698.52853    
   1162000   295.23523      0.031564405    11.613617      732.48675     -47.489293      684.99746    
   1163000   298.85924      0.031564405    25.315775      741.47801     -50.80992       690.66809    
   1164000   307.06996      0.031564405    15.231938      761.84904     -46.818219      715.03082    
   1165000   296.41678      0.031564405    5.4531624      735.41821     -48.032738      687.38547    
   1166000   306.44262      0.031564405    41.496515      760.2926      -43.72834       716.56426    
   1167000   307.92497      0.031564405    16.941731      763.97035     -47.462542      716.50781    
   1168000   293.29743      0.031564405    6.5166421      727.67901     -45.238471      682.44054    
   1169000   295.57875      0.031564405    17.813558      733.33902     -51.65884       681.68018    
   1170000   304.48597      0.031564405    30.162024      755.43809     -54.729995      700.70809    
   1171000   309.18402      0.031564405    4.7254781      767.09407     -51.771231      715.32284    
   1172000   280.26384      0.031564405    19.301477      695.34232     -47.750717      647.5916     
   1173000   295.53293      0.031564405    21.345807      733.22534     -48.317267      684.90808    
   1174000   304.39031      0.031564405    15.386965      755.20075     -47.05573       708.14502    
   1175000   301.83035      0.031564405    7.1921788      748.84942     -52.874944      695.97448    
   1176000   299.37843      0.031564405    28.873293      742.76614     -56.148939      686.6172     
   1177000   296.23019      0.031564405    18.830415      734.95526     -55.999543      678.95571    
   1178000   310.87189      0.031564405    9.7703448      771.28172     -51.200564      720.08116    
   1179000   283.91408      0.031564405    12.108666      704.39865     -50.060115      654.33853    
   1180000   288.67014      0.031564405    14.411277      716.19856     -45.447667      670.7509     
   1181000   279.38302      0.031564405    17.147221      693.15697     -49.698874      643.4581     
   1182000   289.81702      0.031564405    15.650484      719.04401     -54.389736      664.65427    
   1183000   321.39862      0.031564405    20.590042      797.39884     -49.748345      747.65049    
   1184000   302.60851      0.031564405    14.37711       750.78006     -58.321889      692.45817    
   1185000   282.50805      0.031564405    21.482665      700.91027     -57.735823      643.17444    
   1186000   307.72813      0.031564405    15.890571      763.48197     -56.599985      706.88198    
   1187000   309.39915      0.031564405    14.064027      767.62781     -57.726082      709.90173    
   1188000   291.46952      0.031564405    14.985107      723.14392     -53.964384      669.17954    
   1189000   296.4192       0.031564405    15.869452      735.42421     -55.498816      679.9254     
   1190000   309.08814      0.031564405    14.98387       766.85619     -58.019084      708.83711    
   1191000   297.54532      0.031564405    15.545585      738.21814     -51.801178      686.41696    
   1192000   300.13433      0.031564405    11.641334      744.64154     -48.427709      696.21383    
   1193000   302.34231      0.031564405    14.917649      750.11962     -43.806424      706.31319    
   1194000   304.22312      0.031564405    16.639278      754.78593     -44.908957      709.87698    
   1195000   303.48525      0.031564405    18.34274       752.95526     -40.465344      712.48992    
   1196000   295.13809      0.031564405    15.346775      732.24573     -44.377025      687.8687     
   1197000   310.57225      0.031564405    17.079967      770.53832     -50.671837      719.86648    
   1198000   311.17569      0.031564405    20.699007      772.03546     -47.092328      724.94313    
   1199000   296.5837       0.031564405    16.517968      735.83233     -45.133768      690.69856    
   1200000   299.06402      0.031564405    20.031772      741.98608     -46.034994      695.95108    
   1201000   305.63799      0.031564405    15.303742      758.29628     -47.357479      710.9388     
   1202000   308.6065       0.031564405    15.489261      765.66122     -44.850803      720.81042    
   1203000   309.48607      0.031564405    15.987555      767.84346     -46.004041      721.83942    
   1204000   288.08821      0.031564405    16.735508      714.75479     -48.761513      665.99327    
   1205000   299.35917      0.031564405    15.398741      742.71836     -50.861808      691.85655    
   1206000   299.73776      0.031564405    13.409041      743.65764     -50.810504      692.84713    
   1207000   308.49494      0.031564405    15.65166       765.38444     -51.752414      713.63203    
   1208000   292.94537      0.031564405    16.561478      726.80553     -48.202602      678.60293    
   1209000   304.23944      0.031564405    11.737841      754.82643     -50.380657      704.44577    
   1210000   322.38987      0.031564405    19.335992      799.85816     -53.030559      746.8276     
   1211000   297.61167      0.031564405    17.531264      738.38277     -53.383536      684.99923    
   1212000   300.78919      0.031564405    15.550337      746.26627     -52.214077      694.05219    
   1213000   301.41729      0.031564405    18.746841      747.8246      -45.437707      702.38689    
   1214000   297.68921      0.031564405    15.935964      738.57513     -41.708761      696.86637    
   1215000   299.30126      0.031564405    15.911398      742.57468     -45.743677      696.83101    
   1216000   299.80287      0.031564405    16.137892      743.81918     -48.667342      695.15184    
   1217000   293.1292       0.031564405    15.894029      727.26161     -46.237347      681.02427    
   1218000   299.32225      0.031564405    8.3311704      742.62675     -42.069355      700.55739    
   1219000   308.46089      0.031564405    18.339223      765.29997     -43.676473      721.62349    
   1220000   290.83501      0.031564405    17.419975      721.56968     -42.231829      679.33785    
   1221000   300.97292      0.031564405    12.89324       746.72212     -45.692614      701.0295     
   1222000   297.94243      0.031564405    15.236767      739.20339     -44.975703      694.22768    
   1223000   297.45941      0.031564405    17.017635      738.005       -48.071792      689.93321    
   1224000   309.30805      0.031564405    14.696097      767.40181     -45.328476      722.07333    
   1225000   285.84921      0.031564405    13.38286       709.19977     -49.474156      659.72562    
   1226000   287.4233       0.031564405    18.163271      713.10514     -45.314192      667.79095    
   1227000   304.56981      0.031564405    18.703494      755.64609     -48.232327      707.41377    
   1228000   306.87295      0.031564405    17.299224      761.36024     -51.479039      709.8812     
   1229000   285.51481      0.031564405    14.596623      708.37011     -50.330111      658.04       
   1230000   299.60637      0.031564405    19.402785      743.33167     -47.244379      696.0873     
   1231000   310.49351      0.031564405    19.671559      770.34296     -53.573716      716.76924    
   1232000   296.91632      0.031564405    12.291622      736.65757     -48.780789      687.87678    
   1233000   303.08251      0.031564405    16.220546      751.95607     -49.787096      702.16898    
   1234000   289.46907      0.031564405    17.741201      718.18074     -49.290236      668.89051    
   1235000   302.35541      0.031564405    15.618606      750.15211     -46.839204      703.3129     
   1236000   303.07673      0.031564405    15.491635      751.94172     -55.472378      696.46934    
   1237000   302.31482      0.031564405    15.127938      750.0514      -52.329402      697.722      
   1238000   308.44118      0.031564405    15.815652      765.25106     -54.686997      710.56406    
   1239000   291.94968      0.031564405    23.482351      724.3352      -56.425668      667.90953    
   1240000   296.98106      0.031564405    13.187245      736.8182      -51.305511      685.51269    
   1241000   323.25651      0.031564405    18.752756      802.00831     -56.327979      745.68033    
   1242000   296.73308      0.031564405    19.19518       736.20295     -58.216847      677.9861     
   1243000   292.99119      0.031564405    9.2118456      726.91921     -63.520714      663.39849    
   1244000   308.04059      0.031564405    15.017023      764.2572      -69.491149      694.76605    
   1245000   303.34195      0.031564405    16.962357      752.59975     -65.866722      686.73303    
   1246000   296.20244      0.031564405    17.612244      734.88641     -59.509164      675.37725    
   1247000   305.28454      0.031564405    12.03436       757.41936     -65.957465      691.46189    
   1248000   307.62939      0.031564405    10.49822       763.237       -67.423809      695.8132     
   1249000   307.34371      0.031564405    16.801119      762.52822     -69.479137      693.04908    
   1250000   287.3724       0.031564405    16.556208      712.97885     -64.454806      648.52404    
   1251000   292.56993      0.031564405    16.732946      725.87405     -60.3124        665.56165    
   1252000   294.45928      0.031564405    12.89916       730.56159     -63.66513       666.89646    
   1253000   309.10153      0.031564405    15.969587      766.88941     -59.027817      707.86159    
   1254000   309.8346       0.031564405    19.646816      768.70819     -57.8136        710.89459    
   1255000   291.4483       0.031564405    19.356095      723.09126     -55.990281      667.10098    
   1256000   291.68062      0.031564405    14.035972      723.66765     -62.866719      660.80094    
   1257000   297.45425      0.031564405    16.577238      737.99218     -61.573429      676.41875    
   1258000   303.11278      0.031564405    17.089279      752.03117     -56.128716      695.90246    
   1259000   303.74953      0.031564405    12.107407      753.61095     -54.728297      698.88266    
   1260000   296.39728      0.031564405    18.754602      735.36982     -57.421761      677.94806    
   1261000   299.89778      0.031564405    25.217734      744.05466     -57.11331       686.94135    
   1262000   304.81352      0.031564405    9.026787       756.25074     -56.86717       699.38357    
   1263000   304.40615      0.031564405    17.265256      755.24005     -54.909126      700.33093    
   1264000   321.84766      0.031564405    17.199937      798.51292     -55.603109      742.90981    
   1265000   286.02414      0.031564405    13.804375      709.63379     -55.863505      653.77028    
   1266000   292.69078      0.031564405    16.506854      726.1739      -60.453578      665.72032    
   1267000   298.8065       0.031564405    17.73049       741.34716     -58.804183      682.54298    
   1268000   293.51461      0.031564405    16.930231      728.21784     -60.049317      668.16852    
   1269000   302.64094      0.031564405    18.716219      750.86052     -54.527489      696.33304    
   1270000   294.23799      0.031564405    20.062224      730.01256     -55.057423      674.95514    
   1271000   294.94641      0.031564405    12.050848      731.77018     -57.231471      674.53871    
   1272000   293.36589      0.031564405    10.557902      727.84885     -55.337022      672.51183    
   1273000   303.84782      0.031564405    14.954851      753.85481     -56.065821      697.78898    
   1274000   316.80297      0.031564405    20.672242      785.99691     -55.035805      730.9611     
   1275000   303.35465      0.031564405    17.918503      752.63124     -54.121864      698.50938    
   1276000   296.27294      0.031564405    12.227062      735.06134     -60.100763      674.96058    
   1277000   299.27498      0.031564405    7.8817114      742.50949     -62.035202      680.47428    
   1278000   301.77221      0.031564405    16.242059      748.70518     -61.397749      687.30743    
   1279000   303.57115      0.031564405    18.338176      753.16838     -61.774208      691.39417    
   1280000   292.67736      0.031564405    19.495217      726.1406      -63.704293      662.43631    
   1281000   294.19596      0.031564405    11.630152      729.90829     -64.290284      665.61801    
   1282000   312.3572       0.031564405    11.417438      774.96683     -59.784028      715.1828     
   1283000   306.4271       0.031564405    16.303335      760.25409     -58.454832      701.79926    
   1284000   284.36395      0.031564405    18.289861      705.51479     -55.458946      650.05584    
   1285000   300.91049      0.031564405    13.833577      746.56723     -48.786383      697.78085    
   1286000   309.93918      0.031564405    17.256948      768.96765     -48.666026      720.30162    
   1287000   288.78159      0.031564405    20.021257      716.47508     -47.152678      669.3224     
   1288000   295.53508      0.031564405    11.287566      733.23067     -53.569475      679.66119    
   1289000   297.15318      0.031564405    15.119996      737.24524     -51.199195      686.04604    
   1290000   299.7885       0.031564405    25.146376      743.78353     -51.29304       692.49049    
   1291000   297.92991      0.031564405    23.947003      739.17232     -51.990987      687.18134    
   1292000   309.07292      0.031564405    14.041057      766.81843     -53.711574      713.10686    
   1293000   311.35329      0.031564405    17.48251       772.4761      -50.820097      721.656      
   1294000   287.93959      0.031564405    17.466685      714.38605     -51.656226      662.72983    
   1295000   292.25617      0.031564405    15.049954      725.0956      -54.796286      670.29932    
   1296000   306.05899      0.031564405    14.15165       759.34078     -51.304267      708.03651    
   1297000   298.79613      0.031564405    20.586151      741.32145     -48.941607      692.37984    
   1298000   287.62043      0.031564405    12.813054      713.5942      -53.522354      660.07185    
   1299000   308.25001      0.031564405    14.964535      764.77678     -51.321636      713.45514    
   1300000   300.37286      0.031564405    20.325032      745.23336     -46.789206      698.44415    
   1301000   286.57414      0.031564405    17.803878      710.99835     -53.760362      657.23799    
   1302000   296.19983      0.031564405    10.179334      734.87995     -50.508212      684.37174    
   1303000   306.40983      0.031564405    18.527381      760.21123     -50.740408      709.47082    
   1304000   299.09476      0.031564405    21.556396      742.06235     -49.331241      692.73111    
   1305000   301.20314      0.031564405    11.805732      747.2933      -47.989022      699.30428    
   1306000   312.18741      0.031564405    16.561923      774.54556     -46.514701      728.03086    
   1307000   292.10762      0.031564405    15.43211       724.72705     -43.515063      681.21199    
   1308000   292.55099      0.031564405    12.518141      725.82708     -49.139078      676.688      
   1309000   311.95503      0.031564405    17.02434       773.96902     -48.132748      725.83627    
   1310000   303.22206      0.031564405    16.881027      752.30228     -46.336695      705.96558    
   1311000   286.85285      0.031564405    15.846403      711.68983     -49.347186      662.34265    
   1312000   295.17638      0.031564405    18.218662      732.34073     -47.606048      684.73468    
   1313000   300.78355      0.031564405    16.520002      746.25229     -51.454305      694.79799    
   1314000   314.35289      0.031564405    17.23218       779.91819     -45.250776      734.66741    
   1315000   311.80623      0.031564405    14.701869      773.59986     -47.198859      726.401      
   1316000   294.29122      0.031564405    14.908798      730.14464     -54.160427      675.98421    
   1317000   284.35307      0.031564405    19.471175      705.48781     -49.367997      656.11981    
   1318000   314.16339      0.031564405    20.909581      779.44803     -51.489033      727.95899    
   1319000   313.57621      0.031564405    15.342153      777.99122     -48.764447      729.22677    
   1320000   299.13249      0.031564405    16.167063      742.15595     -48.56673       693.58922    
   1321000   304.04652      0.031564405    12.039223      754.3478      -50.479886      703.86791    
   1322000   307.25         0.031564405    9.6732273      762.29572     -49.980469      712.31525    
   1323000   318.41131      0.031564405    18.00064       789.98724     -49.061804      740.92543    
   1324000   295.68099      0.031564405    17.127351      733.59269     -49.582233      684.01045    
   1325000   290.33113      0.031564405    19.30223       720.31953     -53.662418      666.65711    
   1326000   301.99354      0.031564405    21.517489      749.25429     -47.707654      701.54663    
   1327000   303.28577      0.031564405    18.126325      752.46035     -53.850556      698.6098     
   1328000   290.6524       0.031564405    16.86837       721.11661     -55.053584      666.06302    
   1329000   287.03799      0.031564405    14.83176       712.14915     -59.309423      652.83973    
   1330000   299.70999      0.031564405    15.896648      743.58875     -54.792294      688.79646    
   1331000   309.07954      0.031564405    18.207842      766.83486     -50.860074      715.97479    
   1332000   302.93504      0.031564405    12.597526      751.59019     -59.105547      692.48464    
   1333000   301.13046      0.031564405    11.881667      747.11297     -56.196633      690.91634    
   1334000   290.15803      0.031564405    13.684526      719.89007     -57.925654      661.96442    
   1335000   295.07872      0.031564405    16.820498      732.09845     -55.611998      676.48645    
   1336000   306.00845      0.031564405    13.215918      759.21539     -58.544345      700.67105    
   1337000   300.86665      0.031564405    16.858323      746.45845     -52.206242      694.2522     
   1338000   297.27862      0.031564405    15.161687      737.55646     -45.710034      691.84643    
   1339000   305.4022       0.031564405    19.075339      757.71127     -51.882125      705.82914    
   1340000   304.05608      0.031564405    16.752765      754.37151     -53.242567      701.12894    
   1341000   296.74538      0.031564405    9.8515618      736.23346     -56.870602      679.36286    
   1342000   300.23499      0.031564405    19.90161       744.89129     -50.352722      694.53857    
   1343000   307.78379      0.031564405    27.675722      763.62007     -49.575783      714.04429    
   1344000   299.86115      0.031564405    15.521265      743.96378     -53.566191      690.39759    
   1345000   295.35617      0.031564405    12.254918      732.78679     -51.741323      681.04547    
   1346000   289.82782      0.031564405    29.838999      719.0708      -49.668317      669.40249    
   1347000   306.22884      0.031564405    23.501706      759.76219     -54.118632      705.64356    
   1348000   310.66469      0.031564405    17.085995      770.76765     -52.278504      718.48915    
   1349000   289.39335      0.031564405    1.0394722      717.99289     -49.779115      668.21377    
   1350000   295.92005      0.031564405    31.01126       734.1858      -58.05062       676.13518    
   1351000   308.41338      0.031564405    19.339635      765.1821      -57.256524      707.92558    
   1352000   296.63581      0.031564405   -0.4312179      735.96162     -56.285902      679.67572    
   1353000   292.13124      0.031564405    24.946795      724.78565     -52.990589      671.79506    
   1354000   313.22092      0.031564405    23.26375       777.10973     -49.775995      727.33373    
   1355000   308.98848      0.031564405    11.004023      766.60894     -49.539998      717.06894    
   1356000   302.39005      0.031564405    13.453658      750.23805     -58.426555      691.8115     
   1357000   295.87579      0.031564405    15.036442      734.07598     -57.575789      676.50019    
   1358000   295.81531      0.031564405    17.099971      733.92594     -55.736907      678.18903    
   1359000   307.85705      0.031564405    17.249604      763.80183     -57.756328      706.0455     
   1360000   310.73302      0.031564405    16.200149      770.9372      -49.054764      721.88243    
   1361000   304.26185      0.031564405    24.361745      754.88205     -48.765244      706.1168     
   1362000   305.70893      0.031564405    15.909363      758.47228     -45.950416      712.52186    
   1363000   298.55073      0.031564405    18.256328      740.71258     -45.365008      695.34758    
   1364000   299.65622      0.031564405    19.583565      743.45534     -50.785406      692.66993    
   1365000   300.15105      0.031564405    11.893083      744.68302     -50.475018      694.208      
   1366000   299.65639      0.031564405    17.509441      743.45576     -50.304314      693.15145    
   1367000   293.21778      0.031564405    16.20394       727.48141     -52.490746      674.99066    
   1368000   302.41651      0.031564405    21.938895      750.30369     -51.155812      699.14788    
   1369000   302.0465       0.031564405    13.71661       749.3857      -53.101102      696.28459    
   1370000   300.9173       0.031564405    14.192484      746.58412     -55.800746      690.78338    
   1371000   304.26696      0.031564405    24.46081       754.89473     -50.102599      704.79213    
   1372000   303.54868      0.031564405    14.970455      753.11265     -52.374425      700.73822    
   1373000   288.48101      0.031564405    15.870217      715.72934     -45.280051      670.44929    
   1374000   287.63804      0.031564405    18.434023      713.6379      -47.09426       666.54364    
   1375000   304.56804      0.031564405    16.658232      755.64169     -48.30724       707.33445    
   1376000   299.92878      0.031564405    13.98676       744.13157     -42.150501      701.98107    
   1377000   297.08246      0.031564405    15.891382      737.06978     -46.519045      690.55073    
   1378000   301.98178      0.031564405    15.931993      749.22512     -52.106184      697.11893    
   1379000   308.48801      0.031564405    19.292484      765.36725     -56.462422      708.90482    
   1380000   301.53933      0.031564405    8.3471873      748.12738     -59.120375      689.00701    
   1381000   296.66311      0.031564405    14.815301      736.02935     -58.256132      677.77321    
   1382000   302.48086      0.031564405    17.604131      750.46336     -57.544007      692.91935    
   1383000   305.32942      0.031564405    23.370015      757.53072     -56.869606      700.66111    
   1384000   303.62104      0.031564405    14.076029      753.29216     -60.741034      692.55113    
   1385000   294.58503      0.031564405    15.201078      730.87358     -52.581139      678.29244    
   1386000   300.32697      0.031564405    15.047756      745.11949     -62.170375      682.94912    
   1387000   301.46333      0.031564405    18.312236      747.93883     -53.901376      694.03745    
   1388000   291.5522       0.031564405    15.493733      723.34906     -55.334829      668.01423    
   1389000   310.01303      0.031564405   -2.7094231      769.15088     -51.91077       717.24011    
   1390000   310.83473      0.031564405    11.215927      771.18954     -56.506136      714.6834     
   1391000   306.97103      0.031564405    15.590914      761.60358     -61.516659      700.08692    
   1392000   290.90933      0.031564405    15.088221      721.75407     -57.823309      663.93076    
   1393000   290.79762      0.031564405    15.167154      721.47691     -55.272056      666.20485    
   1394000   308.1579       0.031564405    19.622743      764.54823     -49.058256      715.48998    
   1395000   308.01015      0.031564405    15.646134      764.18167     -56.969345      707.21233    
   1396000   296.20413      0.031564405    11.939553      734.89062     -55.209049      679.68157    
   1397000   291.91333      0.031564405    20.466197      724.24502     -54.424892      669.82013    
   1398000   316.51612      0.031564405    16.114378      785.28522     -55.479499      729.80572    
   1399000   300.76431      0.031564405    12.661653      746.20453     -54.152026      692.05251    
   1400000   286.83086      0.031564405    15.977369      711.63528     -52.29146       659.34382    
   1401000   280.92459      0.031564405    11.668915      696.98165     -53.747082      643.23457    
   1402000   308.67774      0.031564405    19.316584      765.83798     -53.340379      712.4976     
   1403000   313.03296      0.031564405    15.898563      776.6434      -49.561998      727.0814     
   1404000   287.45967      0.031564405    15.127913      713.19537     -51.286447      661.90893    
   1405000   297.61953      0.031564405    21.734661      738.40225     -55.06079       683.34146    
   1406000   308.32356      0.031564405    10.962016      764.95924     -55.961088      708.99816    
   1407000   277.46836      0.031564405    13.021949      688.40664     -64.398264      624.00838    
   1408000   303.42012      0.031564405    21.46424       752.79369     -63.374228      689.41946    
   1409000   309.82797      0.031564405    6.5086307      768.69174     -59.396996      709.29474    
   1410000   291.46961      0.031564405    10.572195      723.14413     -59.220465      663.92366    
   1411000   300.09557      0.031564405    23.463172      744.54539     -48.920598      695.6248     
   1412000   297.08472      0.031564405   -11.39544       737.07538     -52.417194      684.65818    
   1413000   288.45585      0.031564405    29.033307      715.66693     -51.660039      664.00689    
   1414000   312.25875      0.031564405    14.203064      774.72257     -51.43118       723.29139    
   1415000   302.72595      0.031564405    8.2897022      751.07144     -46.878416      704.19302    
   1416000   290.96105      0.031564405    16.428117      721.88239     -51.798567      670.08383    
   1417000   304.67868      0.031564405    18.315244      755.9162      -55.900478      700.01572    
   1418000   305.41325      0.031564405    17.176382      757.7387      -51.432201      706.3065     
   1419000   293.18415      0.031564405    11.076952      727.39796     -47.760198      679.63776    
   1420000   307.68233      0.031564405    18.415329      763.36834     -51.134309      712.23403    
   1421000   304.64115      0.031564405    17.511361      755.8231      -47.50578       708.31732    
   1422000   288.05049      0.031564405    5.8256241      714.66121     -54.460936      660.20027    
   1423000   294.39614      0.031564405    15.368214      730.40493     -56.004628      674.4003     
   1424000   318.43567      0.031564405    14.242329      790.04768     -52.147735      737.89994    
   1425000   305.14086      0.031564405    16.643183      757.06287     -50.060945      707.00193    
   1426000   296.81604      0.031564405    16.002797      736.40877     -53.204231      683.20454    
   1427000   305.16814      0.031564405    16.844211      757.13056     -49.887953      707.24261    
   1428000   312.51963      0.031564405    21.781212      775.36982     -48.566428      726.8034     
   1429000   305.28072      0.031564405    16.17466       757.40989     -50.040408      707.36948    
   1430000   293.3547       0.031564405    17.062376      727.8211      -41.410655      686.41045    
   1431000   294.91537      0.031564405    16.541296      731.69315     -41.718312      689.97484    
   1432000   318.82856      0.031564405    19.079008      791.02244     -43.780138      747.2423     
   1433000   303.6674       0.031564405    13.469188      753.4072      -50.261799      703.1454     
   1434000   292.70911      0.031564405    10.37179       726.21937     -46.522085      679.69729    
   1435000   298.25296      0.031564405    18.106752      739.97381     -51.950777      688.02303    
   1436000   304.95773      0.031564405    16.636536      756.60854     -52.146159      704.46238    
   1437000   299.23917      0.031564405    11.45144       742.42064     -52.861305      689.55934    
   1438000   307.63292      0.031564405    17.362529      763.24576     -50.083407      713.16235    
   1439000   312.0195       0.031564405    18.667304      774.12897     -51.844943      722.28403    
   1440000   295.51673      0.031564405    11.428455      733.18515     -55.727039      677.45811    
   1441000   285.74414      0.031564405    21.056916      708.93909     -54.635554      654.30354    
   1442000   302.79449      0.031564405    19.846901      751.24148     -56.138688      695.10279    
   1443000   304.39643      0.031564405    11.646504      755.21593     -48.699739      706.51619    
   1444000   288.88829      0.031564405    18.394478      716.73982     -46.753145      669.98668    
   1445000   301.79923      0.031564405    16.110688      748.77221     -55.331558      693.44065    
   1446000   313.14673      0.031564405    18.788474      776.92566     -57.955965      718.96969    
   1447000   298.13202      0.031564405    12.658868      739.67376     -62.777727      676.89603    
   1448000   311.30696      0.031564405    11.027521      772.36116     -56.193377      716.16778    
   1449000   307.22612      0.031564405    15.132983      762.23648     -65.413608      696.82288    
   1450000   293.22984      0.031564405    19.40174       727.51131     -62.998166      664.51314    
   1451000   300.83627      0.031564405    13.874267      746.38308     -58.303548      688.07953    
   1452000   303.76529      0.031564405    15.940101      753.65006     -64.372583      689.27748    
   1453000   310.41498      0.031564405    20.792765      770.14813     -61.093779      709.05435    
   1454000   291.79133      0.031564405    17.347533      723.94233     -57.471518      666.47081    
   1455000   292.28863      0.031564405    14.073903      725.17615     -58.153029      667.02312    
   1456000   311.62533      0.031564405    12.971053      773.15103     -55.61136       717.53967    
   1457000   300.85841      0.031564405    19.908843      746.438       -60.474068      685.96393    
   1458000   296.14331      0.031564405    30.955229      734.73972     -62.103969      672.63575    
   1459000   298.58603      0.031564405    26.039499      740.80017     -59.716698      681.08347    
   1460000   298.65341      0.031564405   -2.4889826      740.96735     -56.922386      684.04496    
   1461000   302.3266       0.031564405    3.2545365      750.08062     -55.883228      694.19739    
   1462000   304.20268      0.031564405    41.186985      754.73524     -56.566404      698.16884    
   1463000   290.19944      0.031564405    11.750563      719.99282     -51.932091      668.06073    
   1464000   298.56462      0.031564405    8.8617371      740.74706     -56.002974      684.74408    
   1465000   317.53687      0.031564405    12.981661      787.81773     -51.06878       736.74895    
   1466000   302.27901      0.031564405    36.263082      749.96257     -46.800399      703.16217    
   1467000   285.45315      0.031564405    9.1877278      708.21712     -52.951403      655.26572    
   1468000   307.221        0.031564405    13.405666      762.22378     -60.137408      702.08637    
   1469000   297.10285      0.031564405    26.779019      737.12036     -59.503976      677.61638    
   1470000   309.3681       0.031564405    22.440206      767.55078     -64.329682      703.2211     
   1471000   296.69976      0.031564405    17.358546      736.1203      -60.384926      675.73537    
   1472000   291.46977      0.031564405    12.825355      723.14453     -64.654651      658.48988    
   1473000   306.03593      0.031564405    15.985375      759.28358     -68.382957      690.90062    
   1474000   303.28909      0.031564405    19.555314      752.4686      -63.748981      688.71962    
   1475000   296.30363      0.031564405    17.411794      735.13747     -62.389226      672.74825    
   1476000   294.64976      0.031564405    11.616015      731.03418     -65.290894      665.74329    
   1477000   303.63929      0.031564405    6.5541486      753.33745     -64.139345      689.19811    
   1478000   299.04779      0.031564405    16.422031      741.94581     -62.764356      679.18145    
   1479000   286.53348      0.031564405    19.508192      710.89746     -60.218698      650.67877    
   1480000   294.92456      0.031564405    15.843383      731.71595     -58.473315      673.24264    
   1481000   301.16255      0.031564405    12.671954      747.1926      -58.213191      688.97941    
   1482000   306.13551      0.031564405    12.55941       759.53063     -56.406051      703.12458    
   1483000   314.1707       0.031564405    22.285271      779.46616     -59.388719      720.07744    
   1484000   293.02459      0.031564405    15.771677      727.00208     -56.647863      670.35422    
   1485000   317.55946      0.031564405    16.479232      787.87378     -59.754595      728.11918    
   1486000   296.59926      0.031564405    24.219126      735.87094     -58.414804      677.45614    
   1487000   294.2454       0.031564405    15.132707      730.03095     -65.456755      664.57419    
   1488000   311.46022      0.031564405    17.18446       772.74139     -60.683114      712.05827    
   1489000   310.88724      0.031564405    18.682007      771.31981     -55.090548      716.22926    
   1490000   278.98888      0.031564405    14.013411      692.17909     -63.047871      629.13122    
   1491000   306.98231      0.031564405    15.742391      761.63157     -64.469869      697.1617     
   1492000   304.57513      0.031564405    17.38556       755.6593      -61.471572      694.18773    
   1493000   292.69871      0.031564405    15.95577       726.19356     -63.929152      662.26441    
   1494000   302.496        0.031564405    17.98549       750.50091     -61.587342      688.91357    
   1495000   313.41667      0.031564405    16.745707      777.59539     -61.779655      715.81574    
   1496000   281.15925      0.031564405    11.82201       697.56384     -64.899363      632.66448    
   1497000   296.84178      0.031564405    17.624926      736.47265     -63.278325      673.19432    
   1498000   307.5548       0.031564405    15.772944      763.05194     -65.143959      697.90798    
   1499000   281.26667      0.031564405    9.5989212      697.83037     -63.633582      634.19679    
   1500000   298.52889      0.031564405    18.675539      740.65841     -64.937276      675.72114    
   1501000   298.4423       0.031564405    16.690496      740.44358     -63.213453      677.23012    
   1502000   308.84481      0.031564405    20.711913      766.25248     -61.349075      704.9034     
   1503000   300.76166      0.031564405    14.243917      746.19797     -59.578803      686.61916    
   1504000   296.78341      0.031564405    11.925764      736.32783     -53.847113      682.48071    
   1505000   300.26502      0.031564405    16.123938      744.9658      -53.918791      691.04701    
   1506000   309.33606      0.031564405    18.367717      767.47128     -54.246281      713.225      
   1507000   307.07352      0.031564405    17.478468      761.85788     -56.649476      705.2084     
   1508000   293.748        0.031564405    17.393725      728.79689     -57.253711      671.54317    
   1509000   290.05773      0.031564405    14.215333      719.64122     -53.242939      666.39829    
   1510000   295.90641      0.031564405    19.555437      734.15196     -51.242695      682.90926    
   1511000   314.595        0.031564405    17.257939      780.51888     -57.812228      722.70665    
   1512000   312.53172      0.031564405    16.191118      775.39982     -53.368264      722.03156    
   1513000   296.67923      0.031564405    16.013801      736.06935     -59.431687      676.63766    
   1514000   312.95633      0.031564405    24.022558      776.45327     -58.596332      717.85694    
   1515000   296.16717      0.031564405    11.597578      734.79891     -55.570999      679.22791    
   1516000   294.98414      0.031564405    17.390105      731.86377     -50.803009      681.06076    
   1517000   299.02455      0.031564405    17.282196      741.88815     -49.846573      692.04158    
   1518000   307.4871       0.031564405    15.925479      762.88398     -52.758689      710.12529    
   1519000   292.07389      0.031564405    16.376975      724.64338     -56.201781      668.4416     
   1520000   302.84115      0.031564405    14.520244      751.35725     -59.912068      691.44518    
   1521000   295.06606      0.031564405    14.833986      732.06702     -61.663902      670.40312    
   1522000   292.40337      0.031564405    16.422272      725.46081     -58.654363      666.80645    
   1523000   305.20233      0.031564405    18.686084      757.21538     -57.34246       699.87292    
   1524000   298.11246      0.031564405    16.481271      739.62522     -53.514947      686.11028    
   1525000   309.85351      0.031564405    18.167111      768.75511     -52.629963      716.12514    
   1526000   288.52003      0.031564405    17.770856      715.82616     -50.231665      665.59449    
   1527000   305.18901      0.031564405    13.338163      757.18234     -58.573644      698.60869    
   1528000   301.07322      0.031564405    17.31057       746.97096     -61.856408      685.11455    
   1529000   292.07152      0.031564405    13.942341      724.6375      -62.819262      661.81824    
   1530000   299.9262       0.031564405    14.005967      744.12517     -62.089356      682.03581    
   1531000   306.77993      0.031564405    14.439476      761.12946     -52.131561      708.9979     
   1532000   302.97397      0.031564405    17.250405      751.68678     -56.061577      695.6252     
   1533000   295.88613      0.031564405    21.616895      734.10163     -56.034196      678.06744    
   1534000   303.16826      0.031564405    12.470997      752.16882     -61.962637      690.20618    
   1535000   310.27387      0.031564405    16.653584      769.79801     -57.346293      712.45172    
   1536000   290.87375      0.031564405    21.951869      721.6658      -59.689779      661.97602    
   1537000   296.47744      0.031564405    23.117732      735.56869     -61.101334      674.46736    
   1538000   303.92031      0.031564405    13.619134      754.03466     -63.027435      691.00723    
   1539000   307.97046      0.031564405    9.9578819      764.08321     -61.48706       702.59615    
   1540000   294.43188      0.031564405    17.829119      730.49361     -56.763947      673.72966    
   1541000   307.21614      0.031564405    16.158798      762.21171     -60.255346      701.95636    
   1542000   312.13889      0.031564405    13.11962       774.42519     -54.577737      719.84745    
   1543000   300.82968      0.031564405    16.66132       746.36673     -58.159564      688.20716    
   1544000   302.00514      0.031564405    20.883601      749.28309     -53.629063      695.65403    
   1545000   298.91656      0.031564405    14.340017      741.62021     -55.855907      685.76431    
   1546000   303.50802      0.031564405    15.4538        753.01175     -50.672074      702.33968    
   1547000   296.36785      0.031564405    17.232741      735.29681     -47.591777      687.70503    
   1548000   299.77774      0.031564405    20.500286      743.75683     -50.339498      693.41733    
   1549000   299.67156      0.031564405    14.97923       743.4934      -54.093996      689.3994     
   1550000   296.8649       0.031564405    13.376167      736.53        -54.225221      682.30478    
   1551000   294.44078      0.031564405    10.29257       730.5157      -51.309059      679.20664    
   1552000   287.4947       0.031564405    26.067166      713.28229     -51.007835      662.27445    
   1553000   312.68065      0.031564405    17.270885      775.76931     -52.165917      723.60339    
   1554000   308.39689      0.031564405    14.634784      765.14117     -55.103823      710.03735    
   1555000   285.78245      0.031564405    15.109172      709.03414     -54.949304      654.08484    
   1556000   280.06254      0.031564405    14.428334      694.84289     -56.016325      638.82656    
   1557000   309.44138      0.031564405    16.104115      767.7326      -57.355076      710.37752    
   1558000   310.81116      0.031564405    18.227923      771.13106     -54.376649      716.75441    
   1559000   293.16014      0.031564405    16.273783      727.33838     -59.408748      667.92964    
   1560000   305.31562      0.031564405    18.21928       757.49646     -57.449057      700.04741    
   1561000   308.64922      0.031564405    18.354878      765.76722     -48.897729      716.86949    
   1562000   303.74568      0.031564405    21.950698      753.6014      -49.034557      704.56685    
   1563000   287.70624      0.031564405    11.28068       713.80712     -46.674714      667.13241    
   1564000   299.25445      0.031564405    15.122473      742.45854     -50.053688      692.40486    
   1565000   303.60077      0.031564405    24.980491      753.24188     -49.53631       703.70557    
   1566000   289.8975       0.031564405    8.1526339      719.24368     -49.235832      670.00785    
   1567000   303.04026      0.031564405    20.258687      751.85123     -55.338678      696.51256    
   1568000   292.31648      0.031564405    19.429399      725.24524     -50.771589      674.47365    
   1569000   297.35684      0.031564405    14.920557      737.75051     -46.518445      691.23206    
   1570000   300.30433      0.031564405    18.353331      745.06331     -49.758321      695.30499    
   1571000   295.60428      0.031564405    13.18562       733.40236     -57.148543      676.25381    
   1572000   300.54188      0.031564405    15.927409      745.65269     -51.718176      693.93451    
   1573000   294.98824      0.031564405    15.803662      731.87395     -47.192292      684.68166    
   1574000   299.76778      0.031564405    16.648761      743.73214     -49.989546      693.74259    
   1575000   301.29         0.031564405    21.467812      747.50879     -51.214511      696.29428    
   1576000   306.63756      0.031564405    24.219705      760.77624     -58.398568      702.37767    
   1577000   303.26085      0.031564405    9.8469436      752.39853     -54.711318      697.68721    
   1578000   293.96932      0.031564405    5.5601214      729.34598     -47.432222      681.91376    
   1579000   293.03173      0.031564405    18.249466      727.01979     -52.749729      674.27006    
   1580000   298.92362      0.031564405    15.109798      741.63773     -54.376728      687.26101    
   1581000   308.41044      0.031564405    17.879453      765.17481     -51.485581      713.68923    
   1582000   302.68406      0.031564405    11.92536       750.96751     -53.900256      697.06725    
   1583000   287.04023      0.031564405    14.715822      712.15472     -55.045231      657.10949    
   1584000   305.32912      0.031564405    16.862896      757.52996     -52.699092      704.83087    
   1585000   306.70575      0.031564405    10.712708      760.94541     -47.788878      713.15653    
   1586000   296.74179      0.031564405    10.877126      736.22455     -50.697098      685.52745    
   1587000   292.52429      0.031564405    16.197292      725.76083     -49.71043       676.0504     
   1588000   305.32604      0.031564405    18.367609      757.52231     -52.325644      705.19667    
   1589000   305.09575      0.031564405    16.796615      756.95096     -47.298302      709.65266    
   1590000   298.02271      0.031564405    16.085276      739.40255     -44.706825      694.69572    
   1591000   285.15155      0.031564405    14.754117      707.46885     -49.288594      658.18026    
   1592000   293.06539      0.031564405    14.786153      727.10332     -50.220691      676.88263    
   1593000   308.3383       0.031564405    15.749769      764.99583     -53.44747       711.54836    
   1594000   312.14279      0.031564405    22.274587      774.43486     -56.4831        717.95176    
   1595000   297.91494      0.031564405    18.553362      739.13517     -51.847869      687.2873     
   1596000   305.98006      0.031564405    15.024806      759.14495     -55.523806      703.62115    
   1597000   301.5          0.031564405    2.9231338      748.02982     -54.071929      693.95789    
   1598000   301.32704      0.031564405    9.7747999      747.6007      -55.787991      691.81271    
   1599000   309.80798      0.031564405    22.47878       768.64213     -50.874166      717.76796    
   1600000   301.93078      0.031564405    24.059759      749.09859     -52.495711      696.60288    
   1601000   299.44611      0.031564405    15.023103      742.93405     -59.052213      683.88184    
   1602000   306.36754      0.031564405    16.251594      760.10631     -55.980386      704.12593    
   1603000   295.26412      0.031564405    20.670722      732.55841     -53.042862      679.51555    
   1604000   297.93973      0.031564405    17.439119      739.19669     -50.568334      688.62836    
   1605000   299.3795       0.031564405    5.2506414      742.76879     -54.693087      688.0757     
   1606000   298.07038      0.031564405    21.229528      739.52084     -52.397543      687.12329    
   1607000   285.69134      0.031564405    12.056856      708.8081      -50.481681      658.32642    
   1608000   311.51955      0.031564405    11.940974      772.88859     -47.117744      725.77084    
   1609000   315.19443      0.031564405    24.833788      782.00606     -47.843653      734.16241    
   1610000   284.45511      0.031564405    20.896352      705.74096     -55.418078      650.32288    
   1611000   298.48183      0.031564405    15.399651      740.54166     -54.326225      686.21543    
   1612000   318.53431      0.031564405    17.592609      790.29239     -59.267422      731.02497    
   1613000   313.84209      0.031564405    14.51893       778.65089     -59.277947      719.37294    
   1614000   303.41408      0.031564405    20.023496      752.7787      -55.796141      696.98255    
   1615000   289.49966      0.031564405    20.393551      718.25664     -54.571947      663.68469    
   1616000   293.48712      0.031564405    12.137718      728.14963     -52.659079      675.49055    
   1617000   317.28366      0.031564405    12.312047      787.1895      -55.620805      731.5687     
   1618000   309.27931      0.031564405    17.061643      767.33049     -54.542646      712.78785    
   1619000   277.04771      0.031564405    15.215265      687.36302     -56.602067      630.76095    
   1620000   305.14929      0.031564405    16.327708      757.0838      -57.327836      699.75596    
   1621000   294.34319      0.031564405    16.393887      730.27356     -59.646087      670.62747    
   1622000   289.58735      0.031564405    14.039223      718.47421     -59.578046      658.89616    
   1623000   324.29834      0.031564405    18.281791      804.59313     -55.893294      748.69983    
   1624000   301.50886      0.031564405    14.679608      748.0518      -54.28181       693.76999    
   1625000   299.06333      0.031564405    16.10238       741.98437     -48.748704      693.23567    
   1626000   301.29669      0.031564405    14.634203      747.52539     -57.447364      690.07802    
   1627000   306.10311      0.031564405    16.763504      759.45026     -57.439483      702.01078    
   1628000   288.23875      0.031564405    22.233395      715.12828     -56.275532      658.85274    
   1629000   295.40169      0.031564405    16.70439       732.89973     -57.536491      675.36324    
   1630000   303.22881      0.031564405    16.734173      752.31904     -59.929745      692.3893     
   1631000   305.21276      0.031564405    21.220583      757.24128     -55.070121      702.17116    
   1632000   299.38597      0.031564405    15.192113      742.78484     -54.281683      688.50316    
   1633000   303.08796      0.031564405    17.507707      751.96958     -52.60207       699.36751    
   1634000   301.12097      0.031564405    13.923413      747.08943     -56.737386      690.35205    
   1635000   303.81719      0.031564405    15.078665      753.77883     -53.996386      699.78244    
   1636000   304.19796      0.031564405    17.478695      754.72352     -47.049204      707.67432    
   1637000   302.63821      0.031564405    25.454757      750.85375     -48.777049      702.0767     
   1638000   303.4942       0.031564405    11.30862       752.97747     -51.426914      701.55055    
   1639000   302.29758      0.031564405    7.8901034      750.00864     -53.863329      696.14531    
   1640000   287.96322      0.031564405    13.112928      714.44469     -51.474494      662.9702     
   1641000   293.59952      0.031564405    21.546946      728.4285      -52.193857      676.23464    
   1642000   303.41424      0.031564405    32.792129      752.7791      -47.916315      704.86278    
   1643000   320.06245      0.031564405    28.694603      794.08376     -44.868191      749.21557    
   1644000   292.95131      0.031564405    5.2104409      726.82028     -53.193652      673.62663    
   1645000   293.10192      0.031564405    9.676192       727.19394     -52.828644      674.36529    
   1646000   308.1758       0.031564405    29.266736      764.59266     -49.957463      714.6352     
   1647000   303.56794      0.031564405    15.366469      753.16042     -57.17036       695.99005    
   1648000   286.06174      0.031564405    13.591857      709.72707     -54.145174      655.5819     
   1649000   295.6724       0.031564405    29.775217      733.57136     -58.331029      675.24033    
   1650000   314.82354      0.031564405    31.582234      781.08589     -59.291709      721.79418    
   1651000   307.43964      0.031564405    20.559217      762.76621     -53.876722      708.88949    
   1652000   286.20324      0.031564405    1.5103857      710.07813     -54.660006      655.41813    
   1653000   297.67667      0.031564405    22.592274      738.54402     -54.0639        684.48012    
   1654000   306.11179      0.031564405    12.787684      759.47179     -49.24837       710.22342    
   1655000   303.58804      0.031564405    13.62094       753.2103      -48.683364      704.52693    
   1656000   297.9883       0.031564405    15.605905      739.3172      -45.907624      693.40957    
   1657000   300.1446       0.031564405    34.061508      744.66702     -46.333997      698.33302    
   1658000   307.9533       0.031564405    13.891723      764.04063     -44.369399      719.67123    
   1659000   301.19702      0.031564405    11.975875      747.2781      -51.619216      695.65888    
   1660000   284.73484      0.031564405    15.864182      706.43499     -50.973753      655.46124    
   1661000   307.18642      0.031564405    18.194332      762.13799     -55.218         706.91999    
   1662000   309.33217      0.031564405    22.288711      767.46164     -51.709379      715.75226    
   1663000   299.54717      0.031564405    14.965624      743.18478     -54.087985      689.09679    
   1664000   288.44958      0.031564405    15.155748      715.65136     -53.120154      662.53121    
   1665000   295.90631      0.031564405    17.362359      734.15172     -51.44486       682.70686    
   1666000   312.44062      0.031564405    15.286963      775.1738      -54.925967      720.24784    
   1667000   288.41792      0.031564405    13.318785      715.57282     -48.151316      667.4215     
   1668000   290.93604      0.031564405    16.879035      721.82034     -48.86222       672.95812    
   1669000   284.19011      0.031564405    20.859193      705.0835      -48.536169      656.54733    
   1670000   316.35914      0.031564405    16.579646      784.89574     -47.291326      737.60441    
   1671000   297.23723      0.031564405    17.522848      737.45375     -48.181056      689.2727     
   1672000   286.43838      0.031564405    13.97671       710.66152     -43.355156      667.30636    
   1673000   311.14798      0.031564405    9.9687688      771.96672     -54.530555      717.43616    
   1674000   299.90591      0.031564405    16.829532      744.07483     -57.077439      686.99739    
   1675000   284.32698      0.031564405    16.330305      705.42308     -52.614164      652.80891    
   1676000   302.39603      0.031564405    16.575583      750.25288     -52.358937      697.89395    
   1677000   309.68483      0.031564405    16.434148      768.33661     -57.506682      710.82993    
   1678000   308.04377      0.031564405    14.249567      764.26509     -51.862604      712.40249    
   1679000   300.32088      0.031564405    16.092113      745.10437     -54.301881      690.80249    
   1680000   292.47602      0.031564405    20.272243      725.64106     -54.760079      670.88098    
   1681000   293.68346      0.031564405    16.468708      728.63677     -56.362571      672.27419    
   1682000   295.1031       0.031564405    5.5716255      732.15894     -55.672173      676.48676    
   1683000   297.19221      0.031564405    21.559207      737.34207     -57.519687      679.82238    
   1684000   294.94764      0.031564405    26.230809      731.77322     -53.301821      678.4714     
   1685000   295.17894      0.031564405    17.844267      732.34709     -50.495397      681.85169    
   1686000   320.31667      0.031564405    16.827407      794.71449     -54.99655       739.71794    
   1687000   294.64214      0.031564405    12.909844      731.01528     -52.62698       678.3883     
   1688000   287.16324      0.031564405    28.726371      712.45991     -54.129366      658.33054    
   1689000   298.18143      0.031564405    15.132126      739.79635     -56.708924      683.08743    
   1690000   298.12875      0.031564405    13.312708      739.66566     -62.715637      676.95002    
   1691000   302.88678      0.031564405    15.875618      751.47046     -55.30524       696.16522    
   1692000   303.88992      0.031564405    19.474695      753.95927     -58.418642      695.54063    
   1693000   295.33228      0.031564405    9.6601001      732.72752     -57.455293      675.27223    
   1694000   294.55463      0.031564405    10.391625      730.79815     -63.944029      666.85412    
   1695000   304.48726      0.031564405    25.11347       755.44129     -60.090299      695.35099    
   1696000   309.77493      0.031564405    15.418057      768.56015     -64.397287      704.16286    
   1697000   290.13137      0.031564405   -3.6768826      719.82392     -68.769572      651.05434    
   1698000   291.69375      0.031564405    22.098176      723.70023     -60.610777      663.08945    
   1699000   293.58053      0.031564405    21.526327      728.38138     -59.411447      668.96994    
   1700000   308.84497      0.031564405    20.343377      766.25288     -61.430438      704.82244    
   1701000   291.12855      0.031564405   -1.1918447      722.29796     -62.867132      659.43083    
   1702000   304.84195      0.031564405    11.439316      756.32129     -59.614743      696.70655    
   1703000   293.33514      0.031564405    25.915832      727.77257     -63.804378      663.96819    
   1704000   297.59205      0.031564405    11.944619      738.33407     -63.049698      675.28437    
   1705000   308.73781      0.031564405    11.398446      765.98701     -63.487166      702.49985    
   1706000   291.15957      0.031564405    12.124509      722.37492     -59.742624      662.6323     
   1707000   298.51798      0.031564405    19.129867      740.63134     -61.459738      679.17161    
   1708000   295.9074       0.031564405    16.425781      734.15441     -65.38537       668.76904    
   1709000   307.29408      0.031564405    16.562781      762.40507     -58.57462       703.83045    
   1710000   302.17559      0.031564405    14.400283      749.70597     -60.161652      689.54432    
   1711000   298.41125      0.031564405    18.685761      740.36653     -52.213026      688.1535     
   1712000   290.58396      0.031564405    13.120137      720.94681     -50.186404      670.76041    
   1713000   297.68277      0.031564405    7.1524047      738.55917     -50.978587      687.58058    
   1714000   311.32569      0.031564405    17.781844      772.40761     -53.448246      718.95937    
   1715000   286.84237      0.031564405    18.484107      711.66382     -56.269373      655.39445    
   1716000   301.64473      0.031564405    11.419235      748.38889     -51.876474      696.51242    
   1717000   310.51925      0.031564405    18.567119      770.40681     -45.50922       724.89759    
   1718000   290.06475      0.031564405    17.564823      719.65865     -46.094874      673.56377    
   1719000   295.63023      0.031564405    15.206542      733.46675     -48.920084      684.54666    
   1720000   315.9909       0.031564405    21.200725      783.98213     -54.707581      729.27455    
   1721000   299.8294       0.031564405    19.493692      743.88501     -55.470767      688.41424    
   1722000   283.02242      0.031564405    9.7454454      702.18643     -51.243837      650.9426     
   1723000   306.87868      0.031564405    12.656108      761.37446     -53.511676      707.86278    
   1724000   320.88798      0.031564405    34.462076      796.13191     -46.970363      749.16155    
   1725000   301.18857      0.031564405    20.956865      747.25713     -52.128064      695.12907    
   1726000   294.80491      0.031564405    11.043228      731.41912     -54.531914      676.8872     
   1727000   299.51469      0.031564405    8.7917711      743.1042      -55.217868      687.88633    
   1728000   304.70076      0.031564405    16.87019       755.97098     -51.19955       704.77143    
   1729000   305.34019      0.031564405    33.210175      757.55742     -50.413697      707.14372    
   1730000   299.58431      0.031564405    23.095424      743.27693     -53.085625      690.1913     
   1731000   281.47259      0.031564405   -8.3045032      698.34125     -48.61049       649.73076    
   1732000   309.59972      0.031564405    3.2259569      768.12543     -44.033291      724.09214    
   1733000   321.78494      0.031564405    41.71877       798.3573      -45.900952      752.45635    
   1734000   299.9542       0.031564405    23.505188      744.19463     -46.241188      697.95344    
   1735000   301.68858      0.031564405    18.207345      748.49768     -51.997098      696.50058    
   1736000   301.34435      0.031564405    1.6988282      747.64364     -45.223221      702.42042    
   1737000   300.42751      0.031564405    22.460941      745.36893     -44.973489      700.39544    
   1738000   299.70459      0.031564405    26.870588      743.57534     -43.109999      700.46534    
   1739000   304.62939      0.031564405    16.842336      755.7939      -43.722926      712.07098    
   1740000   306.12519      0.031564405   -3.0875099      759.50503     -45.84921       713.65582    
   1741000   301.36784      0.031564405    11.870956      747.70192     -42.963914      704.73801    
   1742000   296.61355      0.031564405    19.587423      735.90639     -44.193876      691.71251    
   1743000   291.63991      0.031564405    19.85312       723.56667     -44.283715      679.28295    
   1744000   302.65098      0.031564405    8.0674256      750.88543     -45.173483      705.71195    
   1745000   309.85652      0.031564405    18.770733      768.76258     -45.607753      723.15482    
   1746000   302.05251      0.031564405    15.776621      749.40061     -53.273318      696.12729    
   1747000   291.99724      0.031564405    17.238566      724.45321     -52.02579       672.42742    
   1748000   297.29445      0.031564405    15.810759      737.59572     -42.89714       694.69858    
   1749000   318.47042      0.031564405    18.013434      790.13389     -44.793685      745.3402     
   1750000   302.0626       0.031564405    16.737628      749.42564     -49.605389      699.82025    
   1751000   293.23707      0.031564405    12.103268      727.52925     -51.334409      676.19484    
   1752000   299.06188      0.031564405    17.767346      741.98078     -48.726952      693.25382    
   1753000   306.57949      0.031564405    23.268246      760.63216     -54.127541      706.50462    
   1754000   305.56164      0.031564405    18.202528      758.10686     -48.669103      709.43775    
   1755000   311.77733      0.031564405    13.726432      773.52816     -52.491838      721.03632    
   1756000   295.46785      0.031564405    18.671755      733.06389     -48.479497      684.58439    
   1757000   304.39507      0.031564405    22.784696      755.21255     -54.110789      701.10176    
   1758000   299.90802      0.031564405    14.520546      744.08007     -49.788101      694.29197    
   1759000   302.24067      0.031564405    2.893906       749.86744     -46.361102      703.50634    
   1760000   297.04265      0.031564405    22.657177      736.97101     -47.305036      689.66597    
   1761000   305.68693      0.031564405    22.984236      758.4177      -42.713624      715.70407    
   1762000   300.15064      0.031564405    11.116344      744.68202     -52.985213      691.69681    
   1763000   304.49514      0.031564405    15.452485      755.46082     -49.922276      705.53855    
   1764000   296.68738      0.031564405    20.584527      736.08956     -47.058128      689.03144    
   1765000   304.4407       0.031564405    8.2739657      755.32578     -49.835384      705.4904     
   1766000   293.10112      0.031564405    6.1395137      727.19195     -50.754989      676.43696    
   1767000   301.53826      0.031564405    20.904999      748.12474     -49.479661      698.64508    
   1768000   314.52607      0.031564405    18.511205      780.34786     -46.589077      733.75878    
   1769000   301.1546       0.031564405    18.906116      747.17287     -43.922188      703.25068    
   1770000   301.85093      0.031564405    12.366862      748.90047     -43.988615      704.91186    
   1771000   297.54884      0.031564405    20.099787      738.22687     -44.032622      694.19425    
   1772000   297.25645      0.031564405    25.130885      737.50144     -42.813951      694.68749    
   1773000   301.55884      0.031564405    20.279875      748.1758      -42.245569      705.93023    
   1774000   298.61061      0.031564405    12.994092      740.86116     -40.328582      700.53257    
   1775000   308.91266      0.031564405    10.650578      766.42082     -47.42466       718.99616    
   1776000   292.23024      0.031564405   -3.290045       725.03128     -46.554569      678.47671    
   1777000   290.0024       0.031564405    8.508751       719.50396     -53.842588      665.66137    
   1778000   304.59345      0.031564405    29.155279      755.70476     -53.853517      701.85124    
   1779000   311.87804      0.031564405    10.921737      773.77801     -52.557945      721.22007    
   1780000   301.48293      0.031564405    8.2986604      747.98746     -55.703048      692.28441    
   1781000   284.21269      0.031564405    17.410688      705.13953     -57.305171      647.83436    
   1782000   280.34173      0.031564405    14.757765      695.53556     -54.339978      641.19558    
   1783000   306.57684      0.031564405    16.122641      760.6256      -53.517045      707.10856    
   1784000   315.20248      0.031564405    18.637898      782.02603     -52.171054      729.85498    
   1785000   285.54857      0.031564405    15.242604      708.45386     -54.844016      653.60985    
   1786000   293.93389      0.031564405    16.254185      729.25808     -48.274974      680.98311    
   1787000   307.13608      0.031564405    15.713196      762.01307     -49.759689      712.25338    
   1788000   301.65011      0.031564405    17.766623      748.40225     -46.697424      701.70482    
   1789000   290.83006      0.031564405    14.416629      721.55739     -54.043543      667.51384    
   1790000   300.13272      0.031564405    15.607115      744.63756     -55.56192       689.07564    
   1791000   310.90504      0.031564405    18.427256      771.36398     -52.431947      718.93204    
   1792000   295.95347      0.031564405    18.634395      734.26873     -47.800076      686.46865    
   1793000   279.07932      0.031564405    14.954569      692.40348     -51.343056      641.06042    
   1794000   299.49095      0.031564405    14.296105      743.04531     -47.399427      695.64589    
   1795000   314.02831      0.031564405    15.099219      779.1129      -50.372042      728.74086    
   1796000   309.39275      0.031564405    16.984722      767.61194     -51.800678      715.81126    
   1797000   293.24453      0.031564405    18.303192      727.54776     -51.963995      675.58376    
   1798000   282.74132      0.031564405    16.926587      701.489       -54.999112      646.48989    
   1799000   300.61199      0.031564405    12.889713      745.82663     -55.163853      690.66278    
   1800000   310.68927      0.031564405    14.115421      770.82864     -58.188445      712.64019    
   1801000   295.87828      0.031564405    18.438763      734.08217     -54.358931      679.72324    
   1802000   290.28295      0.031564405    17.398509      720.2         -49.153212      671.04679    
   1803000   306.63609      0.031564405    14.055084      760.7726      -47.04061       713.73199    
   1804000   298.1321       0.031564405    15.484878      739.67396     -51.469024      688.20494    
   1805000   310.71999      0.031564405    17.59369       770.90486     -57.796991      713.10787    
   1806000   300.59135      0.031564405    20.18329       745.77543     -51.090614      694.68482    
   1807000   285.18559      0.031564405    15.983743      707.55332     -59.487858      648.06546    
   1808000   299.68596      0.031564405    16.668272      743.52913     -50.581542      692.94759    
   1809000   308.00534      0.031564405    17.699128      764.16975     -55.604564      708.56518    
   1810000   302.04511      0.031564405    14.377923      749.38223     -54.41817       694.96406    
   1811000   291.0759       0.031564405    13.403266      722.16734     -53.04706       669.12028    
   1812000   302.24878      0.031564405    17.093354      749.88755     -49.872472      700.01507    
   1813000   307.56924      0.031564405    14.681536      763.08777     -43.033951      720.05382    
   1814000   296.63194      0.031564405    13.149066      735.95201     -43.389939      692.56207    
   1815000   290.2861       0.031564405    13.60865       720.20782     -50.074485      670.13333    
   1816000   309.12348      0.031564405    18.110935      766.94388     -48.777513      718.16636    
   1817000   317.10075      0.031564405    16.839575      786.73571     -47.664697      739.07101    
   1818000   286.66552      0.031564405    13.668183      711.22506     -53.044002      658.18105    
   1819000   295.71516      0.031564405    21.965882      733.67746     -51.23384       682.44362    
   1820000   312.51681      0.031564405    16.702708      775.36283     -49.942692      725.42014    
   1821000   318.883        0.031564405    11.64861       791.15751     -53.868886      737.28863    
   1822000   293.93026      0.031564405    15.629499      729.24908     -48.477547      680.77153    
   1823000   301.9514       0.031564405    23.315684      749.14974     -47.10944       702.0403     
   1824000   313.47934      0.031564405    21.935858      777.75088     -44.536608      733.21427    
   1825000   298.36312      0.031564405    14.787267      740.24712     -43.060394      697.18673    
   1826000   302.31506      0.031564405    14.589166      750.052       -41.787237      708.26477    
   1827000   300.30066      0.031564405    17.198336      745.05422     -43.022899      702.03132    
   1828000   313.64037      0.031564405    17.956208      778.1504      -45.033454      733.11695    
   1829000   298.94969      0.031564405    17.977869      741.70241     -49.279913      692.4225     
   1830000   297.18614      0.031564405    15.899697      737.32701     -44.812885      692.51413    
   1831000   297.53422      0.031564405    17.102939      738.1906      -40.887266      697.30333    
   1832000   306.91241      0.031564405    17.326269      761.45814     -38.256732      723.20141    
   1833000   302.29294      0.031564405    14.593647      749.99711     -44.240742      705.75637    
   1834000   296.09192      0.031564405    15.911503      734.61221     -45.513528      689.09868    
   1835000   315.13529      0.031564405    16.407569      781.85934     -42.044672      739.81467    
   1836000   300.40087      0.031564405    20.091448      745.30284     -46.925274      698.37756    
   1837000   294.54132      0.031564405    16.347669      730.76513     -47.3672        683.39793    
   1838000   300.03302      0.031564405    14.855816      744.39019     -47.578668      696.81152    
   1839000   306.7359       0.031564405    15.31246       761.02023     -45.852048      715.16818    
   1840000   302.16648      0.031564405    16.112588      749.68337     -51.251976      698.43139    
   1841000   294.30508      0.031564405    12.964884      730.17902     -52.943741      677.23528    
   1842000   295.94285      0.031564405    4.2280952      734.24237     -54.551494      679.69088    
   1843000   310.3456       0.031564405    18.988777      769.97598     -53.767375      716.20861    
   1844000   297.94791      0.031564405    18.910052      739.21698     -53.600377      685.6166     
   1845000   289.09179      0.031564405    6.1921897      717.2447      -54.560769      662.68393    
   1846000   301.46701      0.031564405    18.786395      747.94797     -55.712947      692.23502    
   1847000   304.2598       0.031564405    26.945855      754.87694     -51.090868      703.78607    
   1848000   303.09704      0.031564405    16.544312      751.99212     -53.797008      698.19511    
   1849000   296.41282      0.031564405    6.9882777      735.40837     -49.776072      685.6323     
   1850000   307.07783      0.031564405    18.066365      761.86857     -51.8903        709.97827    
   1851000   297.86354      0.031564405    26.239489      739.00766     -50.444006      688.56366    
   1852000   282.88935      0.031564405    11.284812      701.85628     -54.61716       647.23912    
   1853000   306.89467      0.031564405    14.398923      761.41414     -48.333421      713.08072    
   1854000   312.554        0.031564405    23.702431      775.45508     -48.17847       727.27661    
   1855000   289.61547      0.031564405    17.384799      718.54396     -53.745027      664.79894    
   1856000   286.14891      0.031564405    17.037102      709.94332     -49.634099      660.30922    
   1857000   306.28672      0.031564405    17.440148      759.90581     -54.38926       705.51655    
   1858000   316.1291       0.031564405    8.5525853      784.32501     -53.557897      730.76711    
   1859000   290.6923       0.031564405    15.035432      721.21562     -54.878118      666.3375     
   1860000   298.64622      0.031564405    17.847551      740.94951     -48.886324      692.06318    
   1861000   316.24321      0.031564405    20.666923      784.60811     -47.020597      737.58751    
   1862000   308.71368      0.031564405    16.432249      765.92715     -50.128855      715.7983     
   1863000   292.37122      0.031564405    15.492361      725.38105     -47.139955      678.24109    
   1864000   293.09257      0.031564405    18.370721      727.17076     -42.929975      684.24078    
   1865000   303.2796       0.031564405    17.223655      752.44504     -46.020527      706.42451    
   1866000   304.74264      0.031564405    14.004532      756.07489     -50.88432       705.19057    
   1867000   297.65448      0.031564405    18.886215      738.48897     -46.964385      691.52459    
   1868000   303.6215       0.031564405    17.975739      753.29332     -41.655141      711.63818    
   1869000   293.6457       0.031564405    12.565406      728.54308     -40.078928      688.46415    
   1870000   295.0205       0.031564405    15.152765      731.95399     -43.190126      688.76387    
   1871000   301.08038      0.031564405    15.679721      746.98872     -50.024886      696.96383    
   1872000   307.16923      0.031564405    19.938921      762.09533     -47.504583      714.59075    
   1873000   290.67904      0.031564405    18.23386       721.18271     -52.443606      668.7391     
   1874000   277.90776      0.031564405    15.503305      689.49682     -48.74822       640.7486     
   1875000   302.91109      0.031564405    17.263282      751.53076     -49.328032      702.20272    
   1876000   308.21273      0.031564405    20.224844      764.68429     -52.154622      712.52967    
   1877000   295.58871      0.031564405    15.353221      733.36375     -51.982684      681.38107    
   1878000   289.55185      0.031564405    17.908754      718.38612     -44.321411      674.06471    
   1879000   301.97322      0.031564405    21.165674      749.20389     -52.669447      696.53444    
   1880000   304.40997      0.031564405    16.240392      755.24953     -54.364258      700.88528    
   1881000   295.02398      0.031564405    15.697032      731.96264     -48.40671       683.55593    
   1882000   315.54074      0.031564405    11.538971      782.86528     -52.116793      730.74849    
   1883000   297.41959      0.031564405    12.731405      737.90621     -47.134277      690.77193    
   1884000   291.81058      0.031564405    11.931054      723.9901      -50.854288      673.13582    
   1885000   305.58367      0.031564405    19.231585      758.16151     -47.811218      710.35029    
   1886000   323.42239      0.031564405    16.815674      802.41987     -54.306444      748.11343    
   1887000   299.62864      0.031564405    4.2256294      743.38691     -55.074664      688.31224    
   1888000   294.95357      0.031564405    15.264128      731.78793     -49.944073      681.84386    
   1889000   309.11661      0.031564405    39.90601       766.92684     -54.083959      712.84288    
   1890000   300.45286      0.031564405    13.084421      745.43182     -59.467963      685.96385    
   1891000   287.61322      0.031564405    15.672731      713.57633     -53.129837      660.44649    
   1892000   312.6618       0.031564405    22.451731      775.72254     -54.799847      720.92269    
   1893000   299.84441      0.031564405    14.309453      743.92224     -49.457056      694.46519    
   1894000   304.94077      0.031564405    11.631522      756.56647     -49.22315       707.34332    
   1895000   296.98566      0.031564405    10.174707      736.82961     -50.367351      686.46226    
   1896000   301.55703      0.031564405    17.677816      748.1713      -48.057475      700.11383    
   1897000   297.92141      0.031564405    26.379115      739.15122     -45.172462      693.97876    
   1898000   304.03162      0.031564405    14.585475      754.31083     -49.1702        705.14063    
   1899000   306.43714      0.031564405    11.997227      760.27899     -45.602991      714.676      
   1900000   293.76037      0.031564405    17.95754       728.82757     -49.533952      679.29362    
   1901000   296.92529      0.031564405    24.604634      736.67983     -45.803615      690.87622    
   1902000   306.38102      0.031564405    25.030438      760.13977     -55.402727      704.73704    
   1903000   304.45031      0.031564405   -6.2854271      755.3496      -54.244182      701.10542    
   1904000   304.25284      0.031564405    4.5184592      754.85969     -53.789935      701.06975    
   1905000   292.03062      0.031564405    17.262655      724.53602     -49.988866      674.54716    
   1906000   295.65565      0.031564405    16.739287      733.52981     -53.765901      679.76391    
   1907000   297.26263      0.031564405    11.199036      737.51677     -54.260551      683.25622    
   1908000   297.68759      0.031564405    11.588465      738.57112     -48.183491      690.38763    
   1909000   288.57671      0.031564405    26.22313       715.96677     -44.56204       671.40473    
   1910000   306.00768      0.031564405    21.493143      759.21349     -50.475127      708.73836    
   1911000   306.98918      0.031564405    16.570899      761.64862     -50.289162      711.35946    
   1912000   299.12768      0.031564405    13.548989      742.14402     -49.763256      692.38077    
   1913000   298.7352       0.031564405    16.65014       741.17027     -56.049034      685.12124    
   1914000   292.43305      0.031564405    16.326644      725.53445     -58.923483      666.61097    
   1915000   310.95539      0.031564405    15.36339       771.4889      -52.847423      718.64148    
   1916000   301.59136      0.031564405    14.522601      748.25647     -50.741222      697.51525    
   1917000   297.45022      0.031564405    12.994409      737.9822      -43.973431      694.00877    
   1918000   294.35786      0.031564405    16.705469      730.30998     -44.66327       685.64671    
   1919000   304.17715      0.031564405    16.453281      754.67189     -52.285693      702.3862     
   1920000   295.77581      0.031564405    14.998884      733.82793     -54.657694      679.17024    
   1921000   296.0886       0.031564405    18.874016      734.60398     -51.329072      683.27491    
   1922000   302.71056      0.031564405    14.815438      751.03324     -53.277187      697.75605    
   1923000   302.28139      0.031564405    16.689456      749.96846     -46.793601      703.17486    
   1924000   305.36056      0.031564405    16.193982      757.60797     -45.325828      712.28214    
   1925000   297.68222      0.031564405    16.597644      738.55779     -48.092424      690.46537    
   1926000   304.33847      0.031564405    16.412857      755.07214     -41.878844      713.19329    
   1927000   302.1196       0.031564405    17.850197      749.56706     -42.224214      707.34284    
   1928000   295.49475      0.031564405    16.036433      733.13061     -46.824053      686.30656    
   1929000   295.55172      0.031564405    15.244474      733.27195     -52.952357      680.3196     
   1930000   304.36676      0.031564405    17.062963      755.14232     -48.46402       706.6783     
   1931000   291.11986      0.031564405    15.519474      722.27641     -56.062491      666.21392    
   1932000   294.59819      0.031564405    18.526382      730.90622     -47.536708      683.36951    
   1933000   307.62306      0.031564405    17.577974      763.22129     -46.76569       716.4556     
   1934000   293.07246      0.031564405    10.554554      727.12084     -55.245279      671.87556    
   1935000   294.3469       0.031564405    18.54584       730.28278     -50.313449      679.96933    
   1936000   290.86591      0.031564405    22.225233      721.64633     -50.817863      670.82847    
   1937000   305.41884      0.031564405    19.725768      757.75255     -51.108042      706.64451    
   1938000   305.12764      0.031564405    18.631515      757.03008     -47.772646      709.25743    
   1939000   315.38246      0.031564405    15.051649      782.47257     -49.846282      732.62629    
   1940000   283.47913      0.031564405    12.001296      703.31954     -46.515713      656.80383    
   1941000   288.74845      0.031564405    15.558483      716.39287     -45.838737      670.55414    
   1942000   297.67372      0.031564405    10.197182      738.53671     -50.288207      688.24851    
   1943000   312.04843      0.031564405    22.63097       774.20076     -52.83953       721.36123    
   1944000   287.18084      0.031564405    14.995335      712.50358     -56.427136      656.07644    
   1945000   300.57408      0.031564405    11.026081      745.73257     -58.350057      687.38251    
   1946000   311.79352      0.031564405    17.874089      773.56831     -52.707617      720.86069    
   1947000   304.49279      0.031564405    14.961432      755.455       -57.41804       698.03696    
   1948000   293.20209      0.031564405    17.065924      727.44246     -64.404104      663.03836    
   1949000   297.58797      0.031564405    17.979972      738.32395     -61.177458      677.14649    
   1950000   310.40562      0.031564405    16.593612      770.1249      -60.432954      709.69194    
   1951000   302.52373      0.031564405    16.210844      750.56972     -58.045914      692.52381    
   1952000   292.66232      0.031564405    12.619677      726.10329     -65.072279      661.03101    
   1953000   298.31072      0.031564405    16.823444      740.11712     -65.512747      674.60437    
   1954000   306.71933      0.031564405    16.635303      760.97912     -65.578032      695.40109    
   1955000   294.46766      0.031564405    16.221443      730.58238     -59.787112      670.79527    
   1956000   292.41414      0.031564405    15.102584      725.48754     -57.946207      667.54133    
   1957000   296.16299      0.031564405    17.642037      734.78855     -55.129487      679.65906    
   1958000   302.89822      0.031564405    17.471845      751.49882     -50.91769       700.58113    
   1959000   307.8854       0.031564405    18.46479       763.87217     -56.220454      707.65171    
   1960000   297.4503       0.031564405    17.230631      737.98239     -50.149656      687.83273    
   1961000   287.7767       0.031564405    12.709799      713.98193     -50.570514      663.41142    
   1962000   310.064        0.031564405    17.719058      769.27732     -46.929781      722.34754    
   1963000   304.03869      0.031564405    21.578973      754.32836     -50.971256      703.35711    
   1964000   293.23553      0.031564405    15.416103      727.52544     -44.317731      683.2077     
   1965000   319.58784      0.031564405    6.2158516      792.90625     -50.739821      742.16643    
   1966000   304.1079       0.031564405    19.759663      754.50009     -43.384713      711.11537    
   1967000   284.01622      0.031564405    22.2566        704.65207     -42.307452      662.34461    
   1968000   299.00202      0.031564405    16.063868      741.83225     -42.164391      699.66786    
   1969000   308.39295      0.031564405    11.67156       765.13141     -45.188301      719.94311    
   1970000   304.00948      0.031564405    5.1976917      754.25589     -54.054343      700.20155    
   1971000   308.24297      0.031564405    13.553601      764.7593      -52.575046      712.18426    
   1972000   305.54457      0.031564405    21.751964      758.0645      -50.518478      707.54602    
   1973000   292.49921      0.031564405    6.196619       725.6986      -52.213678      673.48492    
   1974000   276.30443      0.031564405    17.149988      685.51891     -52.243821      633.27509    
   1975000   296.76369      0.031564405    12.887182      736.2789      -53.187557      683.09134    
   1976000   306.35861      0.031564405    20.253867      760.08416     -58.965719      701.11844    
   1977000   290.08542      0.031564405    15.605801      719.70993     -57.21685       662.49308    
   1978000   306.46906      0.031564405    13.830955      760.35818     -52.986435      707.37174    
   1979000   305.16679      0.031564405    14.746415      757.12723     -51.419089      705.70814    
   1980000   297.32049      0.031564405    17.359432      737.66034     -52.177254      685.48308    
   1981000   302.95976      0.031564405    16.619326      751.65152     -49.151308      702.50021    
   1982000   296.8857       0.031564405    18.561108      736.58162     -53.545728      683.03589    
   1983000   295.1474       0.031564405    22.408491      732.26883     -50.689011      681.57982    
   1984000   293.95959      0.031564405    13.840733      729.32184     -52.188908      677.13293    
   1985000   293.45623      0.031564405    14.579414      728.07299     -51.856511      676.21647    
   1986000   302.43445      0.031564405    18.239449      750.3482      -54.243369      696.10483    
   1987000   305.53923      0.031564405    19.827885      758.05126     -49.876912      708.17435    
   1988000   299.84031      0.031564405    14.713363      743.91207     -60.072702      683.83936    
   1989000   297.96202      0.031564405    15.798218      739.25199     -53.478458      685.77353    
   1990000   302.68879      0.031564405    15.370718      750.97924     -55.304538      695.6747     
   1991000   307.33583      0.031564405    11.323711      762.50867     -54.827125      707.68154    
   1992000   297.20364      0.031564405    18.115979      737.37042     -54.265817      683.1046     
   1993000   300.3499       0.031564405    16.800849      745.17639     -47.741695      697.43469    
   1994000   300.82156      0.031564405    11.542226      746.34659     -50.392071      695.95451    
   1995000   301.9013       0.031564405    14.884659      749.02544     -53.171021      695.85442    
   1996000   294.38012      0.031564405    18.487683      730.36519     -55.433284      674.93191    
   1997000   305.4031       0.031564405    17.662845      757.7135      -62.008399      695.7051     
   1998000   299.48783      0.031564405    17.494776      743.03757     -55.657737      687.37983    
   1999000   289.03865      0.031564405    16.645809      717.11285     -56.147992      660.96486    
   2000000   303.02349      0.031564405    16.483515      751.80962     -50.265129      701.54449    
   2001000   302.78817      0.031564405    13.84647       751.2258      -57.019897      694.2059     
   2002000   293.77079      0.031564405    15.866616      728.85343     -54.104772      674.74866    
   2003000   292.48198      0.031564405    20.329435      725.65586     -54.651897      671.00396    
   2004000   310.45058      0.031564405    7.7439615      770.23644     -55.862868      714.37357    
   2005000   306.88725      0.031564405    12.574767      761.39572     -48.132368      713.26335    
   2006000   305.4885       0.031564405    29.962233      757.92538     -51.630005      706.29538    
   2007000   312.0529       0.031564405    17.764496      774.21184     -58.683206      715.52864    
   2008000   309.53419      0.031564405    11.118391      767.96286     -55.562161      712.4007     
   2009000   307.83803      0.031564405    26.408365      763.75463     -54.012345      709.74228    
   2010000   298.63789      0.031564405    4.6939953      740.92885     -57.170959      683.75789    
   2011000   296.6262       0.031564405    17.440914      735.93778     -54.747727      681.19005    
   2012000   298.17073      0.031564405    27.141802      739.7698      -49.552902      690.2169     
   2013000   303.47782      0.031564405    18.499996      752.93682     -47.141583      705.79524    
   2014000   300.17727      0.031564405    13.425047      744.74809     -45.43917       699.30892    
   2015000   294.11935      0.031564405    11.061884      729.71821     -45.638391      684.07982    
   2016000   297.9944       0.031564405    18.544053      739.33231     -41.702435      697.62988    
   2017000   319.03226      0.031564405    20.202505      791.52784     -53.905177      737.62266    
   2018000   298.98548      0.031564405    16.480852      741.79123     -53.151089      688.64014    
   2019000   292.99794      0.031564405    18.65189       726.93596     -47.862164      679.0738     
   2020000   294.23455      0.031564405    13.383239      730.00403     -50.367882      679.63615    
   2021000   320.84674      0.031564405    16.628387      796.02962     -53.280133      742.74949    
   2022000   297.01148      0.031564405    17.143179      736.89366     -58.312359      678.5813     
   2023000   295.44755      0.031564405    16.130147      733.01351     -54.761243      678.25227    
   2024000   288.73401      0.031564405    13.217084      716.35703     -50.419225      665.93781    
   2025000   283.85122      0.031564405    13.723563      704.24269     -52.024553      652.21814    
   2026000   317.52515      0.031564405    17.903723      787.78865     -47.37152       740.41713    
   2027000   305.4245       0.031564405    14.314298      757.7666      -50.257788      707.50881    
   2028000   285.09507      0.031564405    16.688974      707.32874     -38.170017      669.15872    
   2029000   303.15134      0.031564405    16.844627      752.12683     -43.57295       708.55388    
   2030000   313.92794      0.031564405    21.298893      778.86387     -46.699818      732.16405    
   2031000   294.49459      0.031564405    17.094632      730.64919     -46.542768      684.10642    
   2032000   290.59543      0.031564405    15.497767      720.97528     -52.072348      668.90293    
   2033000   306.42927      0.031564405    18.066839      760.25946     -51.817663      708.4418     
   2034000   308.96251      0.031564405    26.458346      766.54449     -48.362236      718.18226    
   2035000   301.31296      0.031564405    14.80469       747.56576     -46.795709      700.77005    
   2036000   300.61852      0.031564405    10.31529       745.84283     -48.395716      697.44711    
   2037000   289.76898      0.031564405    14.524887      718.92482     -49.412396      669.51242    
   2038000   295.99823      0.031564405    19.816776      734.37976     -50.524663      683.8551     
   2039000   319.48112      0.031564405    15.075484      792.64146     -57.029638      735.61182    
   2040000   314.65894      0.031564405   -0.86325521     780.67751     -50.913432      729.76408    
   2041000   289.97236      0.031564405    12.423801      719.42943     -47.671347      671.75808    
   2042000   297.13434      0.031564405    26.168689      737.19849     -54.671244      682.52725    
   2043000   318.82384      0.031564405    28.049787      791.01073     -58.297418      732.71332    
   2044000   300.78992      0.031564405    5.8904981      746.26809     -62.696781      683.57131    
   2045000   293.39211      0.031564405    7.0620239      727.9139      -55.267262      672.64664    
   2046000   296.0745       0.031564405    32.196457      734.569       -54.843995      679.72501    
   2047000   311.02177      0.031564405    13.294668      771.65358     -56.8772        714.77638    
   2048000   312.25619      0.031564405   -0.23696693     774.7162      -60.582931      714.13327    
   2049000   296.06344      0.031564405    16.255116      734.54156     -58.533204      676.00836    
   2050000   293.26161      0.031564405    16.987286      727.59014     -53.879522      673.71062    
   2051000   296.58378      0.031564405    18.557809      735.83254     -54.479713      681.35283    
   2052000   306.4798       0.031564405    28.680843      760.38483     -48.019374      712.36545    
   2053000   298.83997      0.031564405    17.226093      741.43021     -48.246864      693.18335    
   2054000   295.31708      0.031564405    14.637208      732.68982     -48.970409      683.71941    
   2055000   311.25201      0.031564405    16.13208       772.22482     -57.210545      715.01428    
   2056000   294.45517      0.031564405    20.359822      730.5514      -60.27899       670.27241    
   2057000   290.49794      0.031564405    17.540219      720.73341     -59.601277      661.13213    
   2058000   311.96899      0.031564405   -6.4326359      774.00367     -51.616871      722.38679    
   2059000   297.24658      0.031564405    11.515479      737.47696     -54.009982      683.46697    
   2060000   294.58843      0.031564405    39.462989      730.882       -55.567321      675.31468    
   2061000   301.5245       0.031564405    22.663072      748.0906      -48.806466      699.28414    
   2062000   308.52275      0.031564405    9.0780281      765.45344     -57.55157       707.90188    
   2063000   293.3048       0.031564405    13.275531      727.69728     -55.69133       672.00595    
   2064000   287.27755      0.031564405    17.840154      712.74352     -55.898491      656.84503    
   2065000   302.48573      0.031564405    17.99462       750.47544     -54.87992       695.59552    
   2066000   304.41022      0.031564405    11.270527      755.25016     -52.996284      702.25387    
   2067000   303.64522      0.031564405    17.103333      753.35217     -56.773995      696.57817    
   2068000   309.46332      0.031564405    15.61733       767.78702     -54.788812      712.99821    
   2069000   318.96608      0.031564405    16.980852      791.36365     -52.450882      738.91276    
   2070000   301.66514      0.031564405    20.670009      748.43952     -49.471871      698.96765    
   2071000   284.94273      0.031564405    20.646823      706.95076     -47.614623      659.33614    
   2072000   305.64875      0.031564405    14.952726      758.32298     -47.953576      710.36941    
   2073000   310.46027      0.031564405    17.573636      770.26048     -46.064106      724.19638    
   2074000   295.88575      0.031564405    21.145123      734.10071     -46.09772       688.00299    
   2075000   306.84752      0.031564405    21.611926      761.29714     -43.128416      718.16873    
   2076000   288.70219      0.031564405    4.3945827      716.27809     -56.52569       659.7524     
   2077000   320.34311      0.031564405    31.255331      794.78009     -49.973553      744.80653    
   2078000   303.07165      0.031564405    37.131565      751.92913     -51.039498      700.88963    
   2079000   285.17861      0.031564405    11.457829      707.53599     -54.840677      652.69531    
   2080000   298.69991      0.031564405    0.72933096     741.0827      -46.78301       694.29969    
   2081000   312.7682       0.031564405    24.522213      775.98653     -44.324055      731.66248    
   2082000   295.37653      0.031564405    21.683377      732.83732     -49.736807      683.10051    
   2083000   292.88792      0.031564405    15.426772      726.663       -43.044653      683.61835    
   2084000   291.66412      0.031564405    12.590726      723.62672     -46.62757       676.99915    
   2085000   305.8628       0.031564405    30.441653      758.85404     -48.091843      710.76219    
   2086000   315.68135      0.031564405    23.457072      783.21414     -50.5584        732.65574    
   2087000   298.96233      0.031564405    21.584252      741.73377     -49.903307      691.83046    
   2088000   295.81604      0.031564405    14.558374      733.92774     -53.270946      680.65679    
   2089000   303.70841      0.031564405    15.150376      753.50893     -49.645759      703.86318    
   2090000   315.70621      0.031564405    18.260045      783.27581     -55.096069      728.17974    
   2091000   305.17772      0.031564405    19.473283      757.15435     -52.91701       704.23734    
   2092000   296.75109      0.031564405    19.369796      736.24763     -49.585194      686.66244    
   2093000   287.96732      0.031564405    9.0691455      714.45487     -55.944411      658.51046    
   2094000   306.97276      0.031564405    16.462917      761.60788     -54.619014      706.98886    
   2095000   299.78844      0.031564405    19.126542      743.78339     -51.291826      692.49156    
   2096000   299.14735      0.031564405    16.64434       742.19281     -46.006907      696.1859     
   2097000   298.15122      0.031564405    13.382801      739.7214      -54.72143       684.99997    
   2098000   302.52941      0.031564405    18.914884      750.58381     -61.959266      688.62454    
   2099000   293.9584       0.031564405    31.734745      729.31889     -61.212983      668.1059     
   2100000   299.29155      0.031564405    14.725591      742.55059     -60.078723      682.47187    
   2101000   296.83963      0.031564405    14.933614      736.4673      -65.96647       670.50083    
   2102000   307.39896      0.031564405    16.757304      762.66529     -58.787307      703.87799    
   2103000   306.99667      0.031564405    16.333406      761.6672      -60.252458      701.41474    
   2104000   298.59916      0.031564405    11.338651      740.83275     -56.875531      683.95722    
   2105000   302.16547      0.031564405    29.30017       749.68085     -53.980821      695.70003    
   2106000   294.45249      0.031564405    16.576503      730.54474     -59.995916      670.54882    
   2107000   311.86116      0.031564405    2.3336266      773.73615     -57.68745       716.0487     
   2108000   316.29681      0.031564405    19.57604       784.74111     -51.477093      733.26402    
   2109000   292.48114      0.031564405    26.90133       725.65378     -51.317291      674.33649    
   2110000   297.94621      0.031564405    16.084547      739.21277     -51.497026      687.71575    
   2111000   308.67764      0.031564405    2.7791764      765.83774     -50.831707      715.00603    
   2112000   324.73313      0.031564405    9.4820109      805.67184     -49.920281      755.75156    
   2113000   327.84866      0.031564405    11.730255      813.40156     -55.646693      757.75487    
   2114000   304.34015      0.031564405    19.375014      755.07629     -58.014835      697.06146    
   2115000   278.76482      0.031564405    15.207979      691.62321     -59.453039      632.17017    
   2116000   300.22136      0.031564405    8.4472235      744.85748     -59.317974      685.5395     
   2117000   310.51626      0.031564405    16.935129      770.39941     -56.280653      714.11876    
   2118000   301.67782      0.031564405    19.732017      748.47099     -61.621804      686.84918    
   2119000   296.1433       0.031564405    13.027793      734.73968     -57.767294      676.97239    
   2120000   309.93613      0.031564405    14.583082      768.96009     -61.631792      707.3283     
   2121000   288.7611       0.031564405    20.077238      716.42426     -60.894285      655.52997    
   2122000   290.0414       0.031564405    12.69369       719.60071     -63.364084      656.23662    
   2123000   305.24056      0.031564405    16.178519      757.31024     -64.368623      692.94162    
   2124000   294.65851      0.031564405    17.783297      731.05589     -61.049701      670.00619    
   2125000   295.64157      0.031564405    15.406536      733.49487     -63.404408      670.09047    
   2126000   303.55933      0.031564405    14.803384      753.13907     -61.062615      692.07645    
   2127000   304.8465       0.031564405    15.265359      756.33258     -58.611156      697.72142    
   2128000   288.80336      0.031564405    9.4973535      716.5291      -58.83862       657.69048    
   2129000   298.77059      0.031564405    18.159784      741.25806     -66.199849      675.05821    
   2130000   304.53372      0.031564405    17.555669      755.55656     -57.915378      697.64118    
   2131000   302.72136      0.031564405    14.732766      751.06005     -57.458794      693.60126    
   2132000   297.60315      0.031564405    15.561037      738.36163     -59.29887       679.06276    
   2133000   300.83904      0.031564405    14.542917      746.38994     -51.62026       694.76968    
   2134000   308.68336      0.031564405    16.300625      765.85191     -50.546688      715.30523    
   2135000   296.53354      0.031564405    16.982759      735.70788     -55.127276      680.5806     
   2136000   300.20662      0.031564405    19.484926      744.8209      -60.729097      684.09181    
   2137000   300.30887      0.031564405    3.560429       745.07459     -63.094889      681.9797     
   2138000   298.60334      0.031564405    15.848245      740.84311     -65.5818        675.26131    
   2139000   309.85055      0.031564405    18.388199      768.74776     -72.981722      695.76603    
   2140000   300.1801       0.031564405    19.534197      744.7551      -63.391054      681.36404    
   2141000   310.43083      0.031564405    10.959503      770.18745     -59.830386      710.35707    
   2142000   297.49258      0.031564405    7.5281023      738.08728     -55.799299      682.28798    
   2143000   306.33577      0.031564405    19.001719      760.02748     -57.621213      702.40626    
   2144000   298.74234      0.031564405    19.910513      741.18798     -63.017736      678.17025    
   2145000   300.04022      0.031564405    21.195211      744.40806     -60.381973      684.02609    
   2146000   308.20687      0.031564405    4.7865153      764.66973     -56.322526      708.34721    
   2147000   288.6958       0.031564405    17.80031       716.26223     -57.032814      659.22942    
   2148000   291.65819      0.031564405    21.33463       723.61201     -59.290047      664.32196    
   2149000   313.80576      0.031564405    15.106831      778.56073     -61.870501      716.69023    
   2150000   297.87008      0.031564405    13.372244      739.02389     -58.794104      680.22978    
   2151000   283.03592      0.031564405    20.629506      702.21993     -59.317714      642.90222    
   2152000   301.83318      0.031564405    21.291788      748.85644     -60.68765       688.16879    
   2153000   314.65764      0.031564405    20.537262      780.67427     -52.706708      727.96756    
   2154000   297.85876      0.031564405    10.563402      738.9958      -62.77554       676.22026    
   2155000   298.07743      0.031564405    21.367171      739.53832     -65.402544      674.13578    
   2156000   301.72826      0.031564405    24.637389      748.59613     -60.597302      687.99883    
   2157000   293.09897      0.031564405    15.566203      727.18662     -60.087206      667.09942    
   2158000   293.76351      0.031564405    21.831394      728.83538     -58.925944      669.90943    
   2159000   305.24254      0.031564405    2.6162618      757.31515     -60.681969      696.63318    
   2160000   294.06679      0.031564405    14.002247      729.58781     -63.942177      665.64564    
   2161000   301.13521      0.031564405    24.134809      747.12475     -56.37241       690.75234    
   2162000   305.75849      0.031564405   -5.3549691      758.59524     -58.218437      700.3768     
   2163000   293.95837      0.031564405    13.746757      729.31883     -61.389274      667.92955    
   2164000   303.08279      0.031564405    30.393461      751.95677     -50.596325      701.36044    
   2165000   307.37991      0.031564405    9.5963168      762.61804     -47.519166      715.09888    
   2166000   286.48241      0.031564405    10.807396      710.77077     -50.513813      660.25695    
   2167000   301.78586      0.031564405    27.999684      748.73903     -60.591301      688.14773    
   2168000   310.50339      0.031564405    4.6891594      770.36747     -60.854363      709.51311    
   2169000   302.0744       0.031564405    6.3567456      749.45492     -54.23883       695.21609    
   2170000   280.41175      0.031564405    2.4747433      695.70928     -53.189479      642.5198     
   2171000   299.65032      0.031564405    18.874861      743.44071     -49.373301      694.06741    
   2172000   310.82141      0.031564405    23.83862       771.15648     -57.29166       713.86482    
   2173000   303.31493      0.031564405    14.850294      752.53271     -55.62042       696.91229    
   2174000   290.99088      0.031564405    13.858371      721.9564      -50.60651       671.34989    
   2175000   300.59777      0.031564405    22.408105      745.79136     -48.205202      697.58616    
   2176000   312.79339      0.031564405    13.818839      776.04902     -49.249254      726.79976    
   2177000   290.45956      0.031564405    14.110301      720.63818     -48.872323      671.76586    
   2178000   291.5074       0.031564405    17.463123      723.23788     -51.62966       671.60822    
   2179000   305.54886      0.031564405    17.487807      758.07515     -50.95263       707.12252    
   2180000   302.61911      0.031564405    19.216503      750.80636     -45.782577      705.02378    
   2181000   293.84404      0.031564405    16.290373      729.03515     -58.340313      670.69484    
   2182000   303.45894      0.031564405   -0.14261198     752.88999     -57.478979      695.41102    
   2183000   310.87537      0.031564405    21.198976      771.29037     -62.56031       708.73006    
   2184000   308.01683      0.031564405    30.943673      764.19824     -59.864319      704.33392    
   2185000   288.19995      0.031564405    14.32655       715.03203     -59.798846      655.23318    
   2186000   300.68164      0.031564405    2.7592212      745.99945     -57.465987      688.53346    
   2187000   309.10749      0.031564405    19.058586      766.90419     -58.726518      708.17767    
   2188000   291.36501      0.031564405    16.962766      722.88462     -60.273853      662.61077    
   2189000   300.02913      0.031564405    10.597712      744.38055     -53.152319      691.22823    
   2190000   298.04688      0.031564405    21.404733      739.46252     -48.410404      691.05212    
   2191000   299.32101      0.031564405    16.707707      742.62368     -46.980098      695.64359    
   2192000   298.09083      0.031564405    16.420344      739.57157     -53.819895      685.75168    
   2193000   302.70621      0.031564405    18.139801      751.02244     -52.396785      698.62566    
   2194000   309.14128      0.031564405    21.370072      766.98804     -57.593448      709.39459    
   2195000   298.98662      0.031564405    16.395966      741.79405     -58.629009      683.16504    
   2196000   292.98722      0.031564405    18.120549      726.90936     -58.397882      668.51148    
   2197000   298.79366      0.031564405    16.659033      741.31532     -64.31634       676.99898    
   2198000   302.29745      0.031564405    16.559437      750.0083      -68.976929      681.03137    
   2199000   296.94891      0.031564405    15.578356      736.73842     -61.195351      675.54307    
   2200000   299.97486      0.031564405    14.609317      744.2459      -55.825832      688.42007    
   2201000   304.15842      0.031564405    18.019542      754.62542     -61.976274      692.64915    
   2202000   302.37519      0.031564405    16.066108      750.20119     -57.992868      692.20832    
   2203000   316.0424       0.031564405    17.353527      784.10991     -56.256887      727.85302    
   2204000   294.17211      0.031564405    16.377098      729.84913     -54.015115      675.83401    
   2205000   291.88071      0.031564405    13.653475      724.16409     -55.176035      668.98805    
   2206000   299.43705      0.031564405    19.994085      742.91158     -51.634803      691.27678    
   2207000   302.76016      0.031564405    19.481088      751.15631     -50.971837      700.18447    
   2208000   300.72039      0.031564405    14.912286      746.09557     -45.324482      700.77109    
   2209000   304.20978      0.031564405    16.028457      754.75285     -48.667989      706.08486    
   2210000   287.16897      0.031564405    16.076266      712.47413     -56.550555      655.92358    
   2211000   296.57004      0.031564405    18.178596      735.79843     -55.833423      679.96501    
   2212000   311.25609      0.031564405    16.207111      772.23495     -54.560546      717.6744     
   2213000   305.14381      0.031564405    16.163418      757.0702      -54.715514      702.35469    
   2214000   290.96146      0.031564405    14.98447       721.8834      -52.093158      669.79024    
   2215000   306.03368      0.031564405    15.576699      759.278       -52.532332      706.74567    
   2216000   306.38819      0.031564405    14.526659      760.15755     -50.821792      709.33576    
   2217000   293.28145      0.031564405    11.307463      727.63936     -51.356581      676.28278    
   2218000   289.93215      0.031564405    26.429482      719.32967     -46.321972      673.00769    
   2219000   318.36304      0.031564405    23.00444       789.86748     -42.119139      747.74835    
   2220000   294.71461      0.031564405    6.7161301      731.19508     -42.616377      688.5787     
   2221000   285.87304      0.031564405    15.989032      709.25889     -41.416689      667.8422     
   2222000   319.13546      0.031564405    22.917163      791.78387     -43.161479      748.62239    
   2223000   313.07108      0.031564405    18.375829      776.73798     -45.414759      731.32322    
   2224000   304.9848       0.031564405    15.924943      756.6757      -43.204038      713.47166    
   2225000   290.11225      0.031564405    15.640287      719.77648     -42.633293      677.14318    
   2226000   301.78872      0.031564405    18.932446      748.74613     -43.924144      704.82198    
   2227000   302.87328      0.031564405    17.510214      751.43696     -45.859808      705.57716    
   2228000   305.25521      0.031564405    15.717625      757.34659     -44.417321      712.92927    
   2229000   295.06837      0.031564405    13.601722      732.07275     -43.123805      688.94895    
   2230000   302.47123      0.031564405    17.719667      750.43946     -41.146278      709.29319    
   2231000   314.58561      0.031564405    16.868651      780.49556     -47.120488      733.37507    
   2232000   305.28288      0.031564405    11.8912        757.41523     -49.017546      708.39769    
   2233000   290.83456      0.031564405    13.880796      721.56856     -48.35138       673.21718    
   2234000   291.75397      0.031564405    21.624262      723.84964     -47.036059      676.81358    
   2235000   313.55463      0.031564405    18.703626      777.93769     -44.453813      733.48388    
   2236000   304.4388       0.031564405    11.009728      755.32106     -48.56779       706.75327    
   2237000   286.83841      0.031564405    17.018589      711.65399     -39.806006      671.84799    
   2238000   301.54019      0.031564405    15.005282      748.12951     -44.281393      703.84812    
   2239000   316.76975      0.031564405    20.287582      785.91449     -45.349985      740.5645     
   2240000   300.23347      0.031564405    25.198369      744.88753     -46.693873      698.19365    
   2241000   292.79243      0.031564405    1.7486171      726.42609     -45.761598      680.66449    
   2242000   296.18105      0.031564405    19.912019      734.83336     -47.004837      687.82852    
   2243000   294.53462      0.031564405    19.785233      730.74852     -40.561057      690.18746    
   2244000   302.2787       0.031564405    11.801519      749.96179     -43.941365      706.02042    
   2245000   303.52554      0.031564405    20.55882       753.05523     -44.624616      708.43061    
   2246000   299.10991      0.031564405    18.057525      742.09993     -42.535043      699.56489    
   2247000   305.45982      0.031564405    16.47091       757.85425     -46.340837      711.51341    
   2248000   303.78079      0.031564405    15.39211       753.68852     -48.867039      704.82148    
   2249000   309.4577       0.031564405    18.726174      767.77308     -52.040837      715.73224    
   2250000   295.51037      0.031564405    25.686956      733.16937     -51.646442      681.52293    
   2251000   302.70982      0.031564405    21.149541      751.0314      -52.744958      698.28644    
   2252000   296.74418      0.031564405    13.159617      736.23048     -48.373252      687.85723    
   2253000   299.45164      0.031564405    14.779557      742.94776     -53.125784      689.82198    
   2254000   302.98728      0.031564405    18.685188      751.71979     -51.850119      699.86967    
   2255000   305.49921      0.031564405    18.400516      757.95196     -56.350145      701.60181    
   2256000   287.11901      0.031564405    16.042006      712.35019     -49.811888      662.5383     
   2257000   300.69269      0.031564405    18.582743      746.02686     -55.479528      690.54733    
   2258000   305.93726      0.031564405    19.544532      759.03878     -58.451121      700.58766    
   2259000   301.89337      0.031564405    21.986498      749.00578     -50.394824      698.61096    
   2260000   296.20845      0.031564405    11.982643      734.90134     -56.953269      677.94807    
   2261000   305.76315      0.031564405    17.344782      758.60681     -53.021063      705.58575    
   2262000   307.45764      0.031564405    15.278178      762.81087     -53.27517       709.5357     
   2263000   300.6335       0.031564405    16.497873      745.88001     -55.369182      690.51082    
   2264000   311.45148      0.031564405    15.71994       772.7197      -53.698471      719.02123    
   2265000   292.50806      0.031564405    17.796965      725.72057     -57.67417       668.0464     
   2266000   277.46796      0.031564405    13.449092      688.40565     -61.660886      626.74476    
   2267000   310.38203      0.031564405    14.914099      770.06637     -54.535818      715.53055    
   2268000   297.50776      0.031564405    30.242375      738.12495     -48.707846      689.41711    
   2269000   283.68336      0.031564405    17.176294      703.82623     -53.910539      649.91569    
   2270000   301.9542       0.031564405    14.01702       749.15669     -50.249579      698.90711    
   2271000   306.20393      0.031564405    20.50511       759.7004      -59.538483      700.16192    
   2272000   292.17074      0.031564405    17.838095      724.88367     -62.136069      662.7476     
   2273000   300.59687      0.031564405    12.694607      745.78913     -61.637928      684.1512     
   2274000   313.4661       0.031564405    23.264265      777.71803     -66.931758      710.78627    
   2275000   288.73979      0.031564405    16.231641      716.37139     -64.154298      652.21709    
   2276000   311.06709      0.031564405    5.8653486      771.76603     -63.877619      707.88841    
   2277000   300.80826      0.031564405    24.827347      746.31359     -65.590294      680.7233     
   2278000   293.02514      0.031564405    22.657187      727.00345     -62.505505      664.49795    
   2279000   298.16946      0.031564405    14.298278      739.76665     -60.956372      678.81028    
   2280000   320.55337      0.031564405    23.713955      795.30175     -63.867917      731.43383    
   2281000   291.41272      0.031564405    17.536209      723.003       -63.981479      659.02152    
   2282000   294.27016      0.031564405    13.212533      730.09237     -58.463427      671.62894    
   2283000   311.78443      0.031564405    13.145934      773.54578     -61.994473      711.5513     
   2284000   315.93703      0.031564405    19.719365      783.84848     -54.387234      729.46125    
   2285000   288.39138      0.031564405    15.149265      715.50697     -55.868484      659.63848    
   2286000   300.26011      0.031564405    9.7396218      744.95362     -57.11273       687.84089    
   2287000   313.55926      0.031564405    17.403098      777.94916     -56.149192      721.79996    
   2288000   291.91489      0.031564405    17.164963      724.2489      -56.963731      667.28517    
   2289000   288.60926      0.031564405    16.24951       716.04752     -55.177167      660.87035    
   2290000   295.82546      0.031564405    13.947939      733.95111     -59.165975      674.78513    
   2291000   312.16175      0.031564405    18.292819      774.48191     -57.069854      717.41206    
   2292000   299.33169      0.031564405    16.93563       742.65018     -56.856948      685.79323    
   2293000   289.54685      0.031564405    15.975945      718.37372     -58.745602      659.62812    
   2294000   297.05719      0.031564405    17.249771      737.00707     -51.415496      685.59158    
   2295000   305.28983      0.031564405    17.60026       757.43249     -56.821683      700.61081    
   2296000   314.27871      0.031564405    17.773006      779.73414     -54.942804      724.79133    
   2297000   298.65978      0.031564405    14.0386        740.98315     -57.665266      683.31789    
   2298000   280.21178      0.031564405    15.64928       695.21314     -51.649976      643.56317    
   2299000   310.16005      0.031564405    17.377174      769.51564     -52.619997      716.89565    
   2300000   302.85289      0.031564405    16.786415      751.38636     -47.031555      704.3548     
   2301000   292.89951      0.031564405    18.996039      726.69175     -50.761846      675.92991    
   2302000   290.62843      0.031564405    15.504294      721.05715     -47.445739      673.61141    
   2303000   304.86296      0.031564405    16.900497      756.3734      -53.232519      703.14088    
   2304000   314.04356      0.031564405    19.761435      779.15073     -46.584825      732.56591    
   2305000   299.01619      0.031564405    18.586747      741.8674      -39.573582      702.29382    
   2306000   291.15983      0.031564405    15.553612      722.37557     -40.417149      681.95842    
   2307000   300.24244      0.031564405    14.042222      744.90978     -43.847905      701.06187    
   2308000   306.30065      0.031564405    16.364882      759.94035     -46.814821      713.12553    
   2309000   298.66872      0.031564405    17.295715      741.00534     -45.114997      695.89034    
   2310000   290.33713      0.031564405    16.048443      720.33443     -45.51411       674.82032    
   2311000   300.69663      0.031564405    15.24009       746.03663     -45.868285      700.16835    
   2312000   305.19589      0.031564405    19.471772      757.19943     -42.867606      714.33182    
   2313000   302.84447      0.031564405    16.064877      751.36547     -44.064741      707.30073    
   2314000   290.40956      0.031564405    13.844698      720.51412     -41.148988      679.36513    
   2315000   292.21031      0.031564405    16.525948      724.98183     -43.859179      681.12265    
   2316000   308.39555      0.031564405    17.564822      765.13787     -40.789563      724.34831    
   2317000   308.06133      0.031564405    22.236637      764.30865     -45.902437      718.40622    
   2318000   297.3013       0.031564405    15.444477      737.61271     -41.854626      695.75809    
   2319000   293.61796      0.031564405    15.720433      728.47426     -38.2076        690.26666    
   2320000   321.27855      0.031564405    15.791102      797.10094     -41.893529      755.20741    
   2321000   308.29634      0.031564405    15.237551      764.89172     -39.731531      725.16019    
   2322000   292.15955      0.031564405    15.922296      724.85589     -39.24343       685.61246    
   2323000   298.99801      0.031564405    16.606216      741.82231     -43.79452       698.02779    
   2324000   308.77122      0.031564405    17.133247      766.0699      -46.728769      719.34113    
   2325000   301.27562      0.031564405    21.343301      747.47312     -47.865948      699.60717    
   2326000   297.00863      0.031564405    16.063143      736.88661     -54.59016       682.29645    
   2327000   298.37169      0.031564405    16.097927      740.26838     -52.673603      687.59478    
   2328000   304.59416      0.031564405    11.747995      755.70652     -47.119666      708.58685    
   2329000   307.04679      0.031564405    18.229927      761.79155     -48.352541      713.43901    
   2330000   301.15314      0.031564405    18.675117      747.16925     -41.886364      705.28289    
   2331000   293.75915      0.031564405    23.581864      728.82454     -43.234388      685.59015    
   2332000   307.08627      0.031564405    4.0884493      761.88951     -48.867187      713.02232    
   2333000   304.05701      0.031564405    21.328675      754.37383     -48.119082      706.25475    
   2334000   284.80885      0.031564405    24.242348      706.6186      -47.104147      659.51446    
   2335000   301.34877      0.031564405    4.5165137      747.6546      -47.168915      700.48568    
   2336000   320.88913      0.031564405    9.594926       796.13478     -47.653575      748.4812     
   2337000   309.19338      0.031564405    22.96067       767.1173      -48.756447      718.36085    
   2338000   290.33654      0.031564405    12.005301      720.33296     -52.528127      667.80483    
   2339000   291.45042      0.031564405    12.90706       723.09653     -61.157287      661.93924    
   2340000   309.10839      0.031564405    11.699372      766.90643     -59.328259      707.57817    
   2341000   318.49588      0.031564405    36.284947      790.19706     -54.646584      735.55048    
   2342000   290.76766      0.031564405    16.461065      721.40258     -55.796534      665.60604    
   2343000   302.43182      0.031564405    16.31303       750.34169     -49.935449      700.40624    
   2344000   301.60048      0.031564405    16.189454      748.27909     -56.422437      691.85666    
   2345000   294.71804      0.031564405    15.653355      731.20359     -46.68001       684.52358    
   2346000   302.42567      0.031564405    13.902583      750.32642     -55.771703      694.55472    
   2347000   305.87689      0.031564405    15.873094      758.889       -56.731986      702.15701    
   2348000   297.77618      0.031564405    17.043127      738.79091     -54.041887      684.74902    
   2349000   303.00456      0.031564405    16.813885      751.76268     -45.411855      706.35082    
   2350000   297.3664       0.031564405    15.895258      737.77423     -55.122489      682.65174    
   2351000   307.63332      0.031564405    16.553726      763.24674     -45.692458      717.55428    
   2352000   308.47929      0.031564405    15.936326      765.34561     -52.10361       713.242      
   2353000   282.12593      0.031564405    19.510537      699.96222     -53.588327      646.37389    
   2354000   302.41567      0.031564405    19.746894      750.30163     -48.829556      701.47207    
   2355000   300.33236      0.031564405    12.514518      745.13285     -54.465516      690.66734    
   2356000   297.84742      0.031564405    0.31525773     738.96765     -45.776915      693.19073    
   2357000   301.23789      0.031564405    21.862128      747.3795      -49.678681      697.70082    
   2358000   292.85596      0.031564405    19.926814      726.58371     -52.673368      673.91034    
   2359000   296.96058      0.031564405    16.331521      736.76739     -57.639232      679.12816    
   2360000   312.02713      0.031564405    14.760354      774.14792     -55.928082      718.21984    
   2361000   291.09891      0.031564405    16.584708      722.22442     -52.463071      669.76135    
   2362000   293.63633      0.031564405    16.201995      728.51982     -44.721832      683.79799    
   2363000   311.55081      0.031564405    19.698267      772.96614     -52.128007      720.83813    
   2364000   294.26926      0.031564405    15.382722      730.09014     -57.604246      672.48589    
   2365000   306.84634      0.031564405    19.031587      761.29424     -54.873628      706.42061    
   2366000   286.32098      0.031564405    15.475034      710.37024     -57.248457      653.12178    
   2367000   297.2313       0.031564405    18.974328      737.43906     -56.294235      681.14482    
   2368000   300.9681       0.031564405    15.760255      746.71015     -49.910327      696.79982    
   2369000   299.59214      0.031564405    19.790093      743.29637     -51.126008      692.17036    
   2370000   305.25856      0.031564405    15.156313      757.3549      -53.042108      704.31279    
   2371000   303.92027      0.031564405    18.014056      754.03456     -54.381204      699.65335    
   2372000   299.34669      0.031564405    13.701932      742.68739     -54.279166      688.40823    
   2373000   302.82446      0.031564405    17.027381      751.31583     -49.306385      702.00945    
   2374000   302.54815      0.031564405    17.943495      750.63029     -52.048635      698.58166    
   2375000   289.03241      0.031564405    14.977193      717.09738     -50.270933      666.82645    
   2376000   286.04895      0.031564405    15.09766       709.69533     -53.876041      655.81929    
   2377000   294.9355       0.031564405    12.658202      731.74311     -49.85945       681.88366    
   2378000   283.72057      0.031564405    9.919358       703.91856     -53.265971      650.65258    
   2379000   308.25902      0.031564405    14.982252      764.79913     -54.403581      710.39555    
   2380000   307.94249      0.031564405    18.170834      764.01379     -50.641051      713.37274    
   2381000   294.64334      0.031564405    18.860873      731.01825     -49.839276      681.17897    
   2382000   298.54435      0.031564405    15.753833      740.69677     -50.765457      689.93131    
   2383000   313.34485      0.031564405    16.394708      777.41722     -49.811728      727.60549    
   2384000   292.90928      0.031564405    17.55543       726.716       -54.587328      672.12867    
   2385000   296.88936      0.031564405    18.25044       736.59069     -51.701861      684.88883    
   2386000   299.06312      0.031564405    16.655271      741.98385     -53.505711      688.47814    
   2387000   309.94781      0.031564405    26.8604        768.98907     -52.095872      716.8932     
   2388000   312.94779      0.031564405    11.537396      776.43208     -52.092135      724.33995    
   2389000   304.5072       0.031564405    13.606196      755.49076     -55.203455      700.2873     
   2390000   290.3266       0.031564405    19.101984      720.30829     -55.962917      664.34538    
   2391000   297.37157      0.031564405    15.557154      737.78705     -51.067854      686.7192     
   2392000   297.58945      0.031564405    16.04272       738.32764     -55.295474      683.03216    
   2393000   299.24369      0.031564405    13.962655      742.43183     -55.52623       686.9056     
   2394000   305.67304      0.031564405    16.407117      758.38324     -59.022225      699.36101    
   2395000   302.59685      0.031564405    18.396112      750.75114     -68.273898      682.47724    
   2396000   288.58637      0.031564405    18.059214      715.99073     -72.771586      643.21914    
   2397000   298.00018      0.031564405    12.477211      739.34666     -69.134313      670.21234    
   2398000   288.97528      0.031564405    24.043923      716.95564     -64.435795      652.51984    
   2399000   292.65354      0.031564405    10.457179      726.08151     -60.149851      665.93166    
   2400000   302.2725       0.031564405    7.5932936      749.9464      -59.288736      690.65766    
   2401000   295.87011      0.031564405    17.033482      734.06191     -64.704169      669.35774    
   2402000   307.56648      0.031564405    20.042077      763.08091     -63.693261      699.38765    
   2403000   299.33862      0.031564405    16.970929      742.66738     -65.613649      677.05373    
   2404000   300.3893       0.031564405    14.450598      745.27414     -49.891923      695.38222    
   2405000   303.23875      0.031564405    17.44776       752.34371     -49.261911      703.0818     
   2406000   299.42614      0.031564405    12.425804      742.88451     -48.195869      694.68864    
   2407000   294.26667      0.031564405    13.749902      730.08371     -45.578519      684.5052     
   2408000   304.54255      0.031564405    20.15156       755.57845     -48.227408      707.35104    
   2409000   319.51432      0.031564405    22.683219      792.72382     -52.052443      740.67138    
   2410000   295.86361      0.031564405    11.836639      734.04576     -52.664315      681.38144    
   2411000   302.55107      0.031564405    22.126813      750.63755     -48.534645      702.1029     
   2412000   306.90501      0.031564405    20.408476      761.4398      -55.146061      706.29374    
   2413000   304.94771      0.031564405    14.973448      756.58368     -49.796983      706.7867     
   2414000   296.54122      0.031564405    10.176229      735.72694     -56.123305      679.60363    
   2415000   289.90899      0.031564405    14.663885      719.27219     -52.92746       666.34473    
   2416000   303.60252      0.031564405    24.91232       753.24622     -50.360977      702.88524    
   2417000   298.07055      0.031564405    16.431357      739.52125     -51.812959      687.70829    
   2418000   298.37574      0.031564405    16.176091      740.27843     -45.850155      694.42827    
   2419000   294.13047      0.031564405    17.166232      729.74581     -49.998723      679.74708    
   2420000   308.24284      0.031564405    19.453305      764.75898     -47.218931      717.54005    
   2421000   299.33722      0.031564405    14.134819      742.66388     -50.635779      692.0281     
   2422000   285.50122      0.031564405    16.131998      708.3364      -42.307348      666.02905    
   2423000   308.00774      0.031564405    16.673192      764.17568     -54.52249       709.65319    
   2424000   295.61936      0.031564405    15.137219      733.43977     -54.323018      679.11675    
   2425000   283.87067      0.031564405    16.082841      704.29097     -48.122776      656.16819    
   2426000   303.64029      0.031564405    21.007485      753.33992     -53.200025      700.1399     
   2427000   321.25465      0.031564405    20.475774      797.04165     -54.986971      742.05468    
   2428000   298.72396      0.031564405    18.491582      741.14239     -46.806977      694.33541    
   2429000   294.19901      0.031564405    13.136383      729.91585     -47.942966      681.97289    
   2430000   312.00998      0.031564405    12.064469      774.10536     -48.767266      725.3381     
   2431000   297.50394      0.031564405    16.997327      738.11547     -48.116745      689.99872    
   2432000   301.57839      0.031564405    15.111065      748.22431     -45.715183      702.50912    
   2433000   314.45873      0.031564405    16.738685      780.18078     -47.024476      733.15631    
   2434000   300.27143      0.031564405    17.355904      744.9817      -48.098048      696.88365    
   2435000   300.44743      0.031564405    15.508606      745.41835     -53.824249      691.5941     
   2436000   299.79445      0.031564405    17.191903      743.7983      -51.367093      692.43121    
   2437000   289.2535       0.031564405    17.518571      717.64591     -49.211671      668.43424    
   2438000   304.64171      0.031564405    17.531721      755.82447     -43.210097      712.61438    
   2439000   299.45878      0.031564405    16.766745      742.96549     -47.433156      695.53233    
   2440000   287.41231      0.031564405    15.086836      713.07786     -46.809756      666.2681     
   2441000   305.43557      0.031564405    16.089665      757.79406     -42.432734      715.36133    
   2442000   310.38083      0.031564405    15.073213      770.0634      -43.614603      726.4488     
   2443000   306.33422      0.031564405    18.746888      760.02363     -44.722525      715.30111    
   2444000   291.15783      0.031564405    15.116602      722.37061     -52.732592      669.63802    
   2445000   301.58318      0.031564405    15.478575      748.23619     -53.474736      694.76145    
   2446000   304.80897      0.031564405    17.435257      756.23947     -55.804673      700.43479    
   2447000   299.87452      0.031564405    18.928043      743.99695     -53.40193       690.59502    
   2448000   302.08052      0.031564405    16.987241      749.47009     -54.085273      695.38482    
   2449000   309.12041      0.031564405    16.628512      766.93626     -55.653288      711.28298    
   2450000   297.7101       0.031564405    6.1525698      738.62696     -52.658804      685.96815    
   2451000   301.36791      0.031564405    11.065496      747.70209     -52.213488      695.4886     
   2452000   301.61571      0.031564405    17.66121       748.31689     -53.595069      694.72182    
   2453000   296.64806      0.031564405    16.609855      735.99201     -49.474565      686.51745    
   2454000   298.06669      0.031564405    14.834887      739.51169     -51.184341      688.32734    
   2455000   307.09805      0.031564405    20.386761      761.91874     -53.203559      708.71518    
   2456000   303.47118      0.031564405    16.43667       752.92036     -45.666328      707.25403    
   2457000   279.9816       0.031564405   -0.93994564     694.64206     -52.586944      642.05512    
   2458000   299.49375      0.031564405    15.482988      743.05226     -54.643517      688.40874    
   2459000   300.49383      0.031564405    25.571931      745.53349     -45.983559      699.54993    
   2460000   300.10332      0.031564405    9.6753117      744.56461     -45.987159      698.57746    
   2461000   294.50291      0.031564405    8.1940183      730.66984     -46.542604      684.12723    
   2462000   305.7146       0.031564405    17.185858      758.48634     -47.642593      710.84374    
   2463000   303.12146      0.031564405    22.971612      752.05271     -42.969273      709.08344    
   2464000   304.81084      0.031564405    16.517355      756.24409     -46.08774       710.15635    
   2465000   297.74458      0.031564405    9.0139835      738.71251     -47.226424      691.48608    
   2466000   300.3122       0.031564405    13.180258      745.08284     -51.172487      693.91035    
   2467000   306.08828      0.031564405    17.387792      759.41347     -53.991152      705.42232    
   2468000   303.84735      0.031564405    8.1816973      753.85365     -58.654009      695.19964    
   2469000   294.86488      0.031564405    16.159879      731.56789     -53.153927      678.41396    
   2470000   311.83278      0.031564405    25.928577      773.66573     -58.237743      715.42799    
   2471000   312.07719      0.031564405    12.313056      774.27211     -49.373108      724.899      
   2472000   291.64679      0.031564405    12.463795      723.58373     -50.765979      672.81775    
   2473000   292.25799      0.031564405    13.991017      725.10014     -48.789202      676.31094    
   2474000   293.12236      0.031564405    14.076379      727.24465     -46.909125      680.33552    
   2475000   303.34211      0.031564405    15.014105      752.60014     -51.343942      701.2562     
   2476000   295.46745      0.031564405    17.61943       733.06289     -51.169985      681.8929     
   2477000   296.29938      0.031564405    15.882252      735.12693     -49.31581       685.81112    
   2478000   303.39626      0.031564405    12.430422      752.73449     -59.187977      693.54652    
   2479000   295.36397      0.031564405    16.312343      732.80614     -60.034116      672.77202    
   2480000   299.90375      0.031564405    18.278194      744.06948     -53.368343      690.70114    
   2481000   300.95427      0.031564405    24.97506       746.67584     -48.103652      698.57219    
   2482000   318.52656      0.031564405    20.128096      790.27317     -56.213122      734.06005    
   2483000   293.47806      0.031564405    15.843552      728.12716     -46.835291      681.29186    
   2484000   285.16303      0.031564405    14.439436      707.49733     -53.987801      653.50953    
   2485000   302.55038      0.031564405    19.633014      750.63584     -53.417541      697.2183     
   2486000   315.55906      0.031564405    18.380361      782.91072     -47.835519      735.0752     
   2487000   307.82176      0.031564405    13.595915      763.71427     -50.555412      713.15886    
   2488000   279.72863      0.031564405    12.279616      694.01445     -47.086359      646.92809    
   2489000   293.31596      0.031564405    15.65659       727.72498     -50.089633      677.63535    
   2490000   298.56728      0.031564405    17.84655       740.75364     -44.260272      696.49337    
   2491000   306.75452      0.031564405    19.208045      761.06642     -43.893889      717.17253    
   2492000   304.53313      0.031564405    19.375682      755.55509     -37.167909      718.38718    
   2493000   291.26256      0.031564405    18.392094      722.63044     -42.638617      679.99182    
   2494000   302.65491      0.031564405    12.055076      750.89516     -45.06266       705.8325     
   2495000   310.15697      0.031564405    14.492736      769.508       -37.794729      731.71327    
   2496000   310.02706      0.031564405    17.839022      769.18568     -43.805564      725.38012    
   2497000   292.00193      0.031564405    17.655786      724.46484     -51.948499      672.51634    
   2498000   296.53845      0.031564405    12.713293      735.72007     -44.70162       691.01845    
   2499000   301.43621      0.031564405    12.587463      747.87155     -40.799127      707.07242    
   2500000   305.24679      0.031564405    19.994852      757.32571     -47.304645      710.02106    
   2501000   299.32532      0.031564405    18.444221      742.63437     -41.123091      701.51128    
   2502000   298.91251      0.031564405    11.966506      741.61017     -44.393367      697.2168     
   2503000   298.96728      0.031564405    17.664372      741.74607     -57.361782      684.38428    
   2504000   297.59824      0.031564405    24.528842      738.34944     -55.890794      682.45864    
   2505000   301.6288       0.031564405    9.4026313      748.34937     -55.902103      692.44727    
   2506000   307.53047      0.031564405    17.395664      762.99158     -54.166456      708.82512    
   2507000   294.63445      0.031564405    21.912503      730.9962      -51.7512        679.245      
   2508000   297.32384      0.031564405    13.113877      737.66865     -52.446274      685.22237    
   2509000   317.62937      0.031564405    19.420476      788.04722     -51.339237      736.70798    
   2510000   312.29988      0.031564405    12.763387      774.82461     -49.907447      724.91716    
   2511000   290.4313       0.031564405    14.410373      720.56807     -49.871957      670.69611    
   2512000   301.05147      0.031564405    16.514626      746.917       -45.121407      701.79559    
   2513000   309.53277      0.031564405    16.304745      767.95935     -51.487491      716.47186    
   2514000   302.03851      0.031564405    22.589762      749.36586     -54.603804      694.76206    
   2515000   289.29861      0.031564405    12.094046      717.75782     -59.146521      658.6113     
   2516000   309.32378      0.031564405    18.18382       767.44083     -61.381508      706.05933    
   2517000   293.2534       0.031564405    17.29716       727.56977     -50.665683      676.90409    
   2518000   300.96862      0.031564405    16.034463      746.71145     -55.185728      691.52572    
   2519000   303.69686      0.031564405    16.053738      753.48028     -53.309141      700.17114    
   2520000   281.24216      0.031564405    16.398455      697.76955     -52.141963      645.62759    
   2521000   303.5464       0.031564405    18.093996      753.10699     -55.50765       697.59934    
   2522000   315.35172      0.031564405    20.472287      782.3963      -50.879993      731.51631    
   2523000   306.81577      0.031564405    25.39874       761.21838     -53.363748      707.85463    
   2524000   287.78379      0.031564405    15.418858      713.99951     -50.851119      663.14839    
   2525000   292.47559      0.031564405    15.492117      725.64        -49.862855      675.77714    
   2526000   313.95109      0.031564405    19.334182      778.92131     -54.515662      724.40565    
   2527000   301.23742      0.031564405    14.805547      747.37834     -50.584361      696.79398    
   2528000   288.9873       0.031564405    18.932813      716.98545     -42.812941      674.17251    
   2529000   310.89238      0.031564405    20.736729      771.33256     -47.779443      723.55311    
   2530000   305.11942      0.031564405    18.775244      757.00969     -46.064192      710.94549    
   2531000   297.56148      0.031564405    8.6644891      738.25824     -52.85203       685.40621    
   2532000   294.51917      0.031564405    16.074571      730.71017     -51.154771      679.5554     
   2533000   316.04658      0.031564405    21.584469      784.12028     -46.75547       737.36481    
   2534000   304.51719      0.031564405    7.7319774      755.51555     -53.625974      701.88957    
   2535000   298.32404      0.031564405    4.44626        740.15018     -55.381365      684.76881    
   2536000   313.9416       0.031564405    26.42252       778.89777     -45.538301      733.35947    
   2537000   306.11719      0.031564405    17.505431      759.48518     -54.660279      704.82491    
   2538000   294.90239      0.031564405    2.6173298      731.66097     -57.408443      674.25253    
   2539000   291.41613      0.031564405    20.29637       723.01145     -46.222114      676.78934    
   2540000   292.5115       0.031564405    17.514863      725.72911     -57.266467      668.46264    
   2541000   295.22934      0.031564405    34.323707      732.47213     -65.178012      667.29412    
   2542000   311.66846      0.031564405    11.413346      773.25804     -60.125228      713.13281    
   2543000   290.09076      0.031564405    16.340387      719.72317     -53.755265      665.96791    
   2544000   306.22621      0.031564405    24.069683      759.75568     -54.284094      705.47159    
   2545000   309.48154      0.031564405    9.0303706      767.83224     -58.975717      708.85653    
   2546000   296.04137      0.031564405    15.300736      734.4868      -55.81361       678.67319    
   2547000   302.26547      0.031564405    19.880034      749.92896     -58.842689      691.08628    
   2548000   304.06145      0.031564405    5.0581277      754.38483     -55.154776      699.23005    
   2549000   287.74363      0.031564405    16.247485      713.89988     -57.293523      656.60636    
   2550000   298.25968      0.031564405    21.928141      739.99049     -56.904938      683.08555    
   2551000   304.94527      0.031564405    11.535422      756.57763     -52.69465       703.88298    
   2552000   304.93143      0.031564405    15.147994      756.54328     -55.928113      700.61517    
   2553000   315.00618      0.031564405    19.150263      781.53902     -54.551118      726.9879     
   2554000   304.46299      0.031564405    16.172932      755.38108     -51.173762      704.20731    
   2555000   291.32042      0.031564405    22.153992      722.77399     -54.011021      668.76296    
   2556000   291.96787      0.031564405    15.315828      724.38034     -54.468254      669.91209    
   2557000   297.7924       0.031564405    20.028902      738.83116     -56.701413      682.12975    
   2558000   305.07205      0.031564405    16.287879      756.89217     -59.968269      696.9239     
   2559000   302.22995      0.031564405    15.020605      749.84084     -64.069019      685.77182    
   2560000   309.65686      0.031564405    21.488108      768.26722     -57.490884      710.77633    
   2561000   305.74922      0.031564405    16.314281      758.57224     -50.463797      708.10845    
   2562000   305.05901      0.031564405    14.384903      756.85982     -53.740725      703.11909    
   2563000   308.57852      0.031564405    18.56002       765.59182     -56.26132       709.3305     
   2564000   294.73143      0.031564405    17.777804      731.2368      -53.670263      677.56654    
   2565000   302.78324      0.031564405    13.990411      751.21356     -57.499827      693.71373    
   2566000   293.56042      0.031564405    15.230753      728.3315      -59.821128      668.51037    
   2567000   304.20715      0.031564405    17.444527      754.74633     -53.493973      701.25236    
   2568000   307.23989      0.031564405    16.796562      762.27063     -51.795007      710.47562    
   2569000   292.88019      0.031564405    15.916051      726.64383     -51.589647      675.05418    
   2570000   283.3673       0.031564405    13.104242      703.04209     -55.583397      647.45869    
   2571000   316.82935      0.031564405    11.520135      786.06234     -56.967788      729.09455    
   2572000   307.24186      0.031564405    14.894111      762.27552     -54.227435      708.04808    
   2573000   301.70997      0.031564405    23.564924      748.55074     -53.499197      695.05155    
   2574000   291.87338      0.031564405    20.480092      724.14591     -54.197865      669.94805    
   2575000   302.42215      0.031564405    8.6960395      750.3177      -62.197727      688.11997    
   2576000   307.75292      0.031564405    30.89207       763.54347     -57.379961      706.16351    
   2577000   285.96215      0.031564405    17.270477      709.47997     -54.810514      654.66946    
   2578000   307.03715      0.031564405    13.490703      761.76763     -55.564486      706.20315    
   2579000   302.37286      0.031564405    17.878305      750.19541     -54.695532      695.49988    
   2580000   287.62896      0.031564405    19.534437      713.61538     -53.662645      659.95273    
   2581000   287.99062      0.031564405    13.210223      714.51268     -52.921084      661.59159    
   2582000   304.53884      0.031564405    9.561724       755.56926     -52.254714      703.31454    
   2583000   310.61657      0.031564405    16.88212       770.64827     -53.7521        716.89617    
   2584000   294.38567      0.031564405    24.628679      730.37897     -51.493823      678.88515    
   2585000   298.88869      0.031564405    18.162785      741.55108     -53.445461      688.10562    
   2586000   298.01751      0.031564405    14.042344      739.38967     -60.113403      679.27626    
   2587000   287.12254      0.031564405    8.5477558      712.35894     -59.614746      652.7442     
   2588000   308.81924      0.031564405    19.356381      766.18903     -60.728106      705.46093    
   2589000   294.70704      0.031564405    16.731571      731.1763      -68.919529      662.25677    
   2590000   303.37232      0.031564405    10.172092      752.67508     -65.034206      687.64087    
   2591000   290.81413      0.031564405    13.972812      721.51788     -62.023163      659.49472    
   2592000   306.99842      0.031564405    19.532725      761.67154     -65.901706      695.76984    
   2593000   305.3695       0.031564405    18.79308       757.63015     -59.75836       697.87179    
   2594000   293.08855      0.031564405    15.403949      727.16078     -62.065679      665.0951     
   2595000   287.2654       0.031564405    15.651737      712.71338     -64.521747      648.19163    
   2596000   311.97335      0.031564405    17.299635      774.01448     -58.953371      715.06111    
   2597000   297.56426      0.031564405    12.517379      738.26514     -57.63201       680.63313    
   2598000   290.52062      0.031564405    18.574747      720.78968     -53.374432      667.41525    
   2599000   305.17835      0.031564405    18.291024      757.15589     -56.590973      700.56492    
   2600000   298.86828      0.031564405    13.533263      741.50043     -57.608922      683.89151    
   2601000   298.23772      0.031564405    15.638312      739.936       -62.519722      677.41627    
   2602000   297.14726      0.031564405    16.969753      737.23055     -57.835672      679.39487    
   2603000   297.27989      0.031564405    11.840055      737.5596      -53.556891      684.00271    
   2604000   301.36203      0.031564405    16.215527      747.68751     -50.022011      697.6655     
   2605000   292.23291      0.031564405    21.014241      725.03791     -58.102996      666.93491    
   2606000   304.65303      0.031564405    30.028207      755.85255     -63.351956      692.5006     
   2607000   305.15629      0.031564405    14.690999      757.10118     -58.176835      698.92434    
   2608000   296.11021      0.031564405    0.45500965     734.6576      -51.78588       682.87172    
   2609000   286.27256      0.031564405    19.717199      710.25012     -49.322874      660.92725    
   2610000   300.22833      0.031564405    15.995243      744.87476     -53.890536      690.98423    
   2611000   309.36733      0.031564405    25.024046      767.54887     -53.209471      714.3394     
   2612000   291.6506       0.031564405    17.06265       723.59318     -57.546235      666.04695    
   2613000   294.60219      0.031564405    16.752642      730.91616     -55.48151       675.43465    
   2614000   292.41773      0.031564405    13.709241      725.49646     -54.685366      670.81109    
   2615000   315.31735      0.031564405    15.856592      782.31104     -54.601867      727.70917    
   2616000   289.40907      0.031564405    14.411569      718.03188     -46.873705      671.15818    
   2617000   286.60087      0.031564405    14.991657      711.06466     -43.113475      667.95119    
   2618000   311.06947      0.031564405    16.865033      771.77192     -42.033045      729.73888    
   2619000   290.72521      0.031564405    10.399167      721.29727     -52.011072      669.2862     
   2620000   296.88127      0.031564405    16.43256       736.57061     -50.780503      685.79011    
   2621000   299.00897      0.031564405    17.063681      741.8495      -47.272188      694.57731    
   2622000   317.5269       0.031564405    17.933905      787.79298     -49.821635      737.97135    
   2623000   298.83305      0.031564405    15.120848      741.41304     -54.342203      687.07084    
   2624000   288.66693      0.031564405    16.056748      716.19062     -52.907056      663.28356    
   2625000   300.62079      0.031564405    20.260413      745.84846     -58.817048      687.03141    
   2626000   303.80724      0.031564405    16.911925      753.75413     -55.80822       697.94591    
   2627000   289.28711      0.031564405    14.812283      717.72928     -55.382075      662.34721    
   2628000   284.27952      0.031564405    14.987517      705.30532     -52.909037      652.39628    
   2629000   309.62696      0.031564405    17.339613      768.19303     -49.604406      718.58862    
   2630000   304.39222      0.031564405    15.252024      755.20549     -54.867078      700.33841    
   2631000   290.2589       0.031564405    15.156871      720.14034     -53.111168      667.02918    
   2632000   295.44518      0.031564405    15.89276       733.00765     -52.181018      680.82663    
   2633000   302.07896      0.031564405    23.601186      749.46624     -49.755063      699.71117    
   2634000   297.27559      0.031564405    15.56766       737.54894     -50.99337       686.55557    
   2635000   294.91005      0.031564405    7.574018       731.67996     -48.451386      683.22857    
   2636000   298.93521      0.031564405    34.421805      741.66649     -51.189472      690.47702    
   2637000   309.76937      0.031564405    9.5735482      768.54633     -51.946021      716.60031    
   2638000   293.66361      0.031564405   -1.7866701      728.58752     -50.570955      678.01656    
   2639000   292.5068       0.031564405    15.467716      725.71743     -50.432463      675.28496    
   2640000   289.65817      0.031564405    9.6592727      718.64992     -51.31806       667.33186    
   2641000   305.64654      0.031564405    23.482872      758.31749     -52.590328      705.72716    
   2642000   310.53943      0.031564405    23.617354      770.45688     -58.294138      712.16274    
   2643000   292.77841      0.031564405    2.1400247      726.39131     -56.070428      670.32088    
   2644000   306.22574      0.031564405    16.496318      759.75451     -58.1504        701.60411    
   2645000   295.67202      0.031564405    30.591842      733.57043     -53.84084       679.72959    
   2646000   300.37354      0.031564405    19.567893      745.23504     -60.911062      684.32398    
   2647000   294.87004      0.031564405    2.6041749      731.58068     -57.51195       674.06874    
   2648000   291.53947      0.031564405    17.975846      723.31747     -53.979738      669.33773    
   2649000   294.49563      0.031564405    19.893322      730.65176     -45.148162      685.5036     
   2650000   309.46944      0.031564405    18.730319      767.80221     -44.89014       722.91207    
   2651000   312.9759       0.031564405    11.436197      776.50183     -49.353876      727.14796    
   2652000   292.87813      0.031564405    10.685141      726.63872     -47.132046      679.50667    
   2653000   294.10448      0.031564405    23.728822      729.68133     -51.681299      678.00003    
   2654000   305.01079      0.031564405    13.814738      756.74017     -52.506742      704.23343    
   2655000   294.97246      0.031564405    2.7470406      731.83481     -57.790806      674.044      
   2656000   296.23382      0.031564405    15.152807      734.96427     -59.723004      675.24126    
   2657000   294.54437      0.031564405    21.833261      730.77271     -55.135699      675.63701    
   2658000   300.28858      0.031564405    16.652207      745.02424     -57.049993      687.97425    
   2659000   293.42736      0.031564405    11.828499      728.00136     -59.538095      668.46326    
   2660000   306.8882       0.031564405    20.838571      761.39809     -52.671522      708.72657    
   2661000   298.86135      0.031564405    17.100477      741.48324     -59.11416       682.36908    
   2662000   305.72319      0.031564405    9.1349733      758.50767     -56.982176      701.52549    
   2663000   292.53439      0.031564405    12.349899      725.78587     -53.727538      672.05834    
   2664000   299.98949      0.031564405    22.735663      744.28219     -51.069137      693.21305    
   2665000   295.3512       0.031564405    20.793306      732.77447     -50.665386      682.10908    
   2666000   296.31179      0.031564405    17.85631       735.15772     -52.596109      682.56161    
   2667000   303.81404      0.031564405    13.951846      753.771       -55.22648       698.54452    
   2668000   301.74014      0.031564405    10.76561       748.6256      -53.93704       694.68856    
   2669000   287.38891      0.031564405    32.874552      713.01981     -53.790244      659.22957    
   2670000   303.96217      0.031564405    18.840959      754.13852     -62.222408      691.91612    
   2671000   308.26488      0.031564405    13.991336      764.81366     -59.250695      705.56297    
   2672000   291.992        0.031564405    16.377859      724.44021     -60.995012      663.4452     
   2673000   298.00853      0.031564405    16.073114      739.36739     -59.46905       679.89834    
   2674000   295.48112      0.031564405    16.012388      733.09681     -54.810758      678.28606    
   2675000   308.62837      0.031564405    19.164484      765.7155      -55.426448      710.28905    
   2676000   300.29526      0.031564405    15.534599      745.04081     -56.471684      688.56912    
   2677000   292.7416       0.031564405    10.989345      726.29999     -53.554438      672.74555    
   2678000   298.58632      0.031564405    11.114676      740.80089     -48.794375      692.00651    
   2679000   302.07485      0.031564405    18.392568      749.45603     -49.835599      699.62043    
   2680000   296.45335      0.031564405    16.625447      735.50894     -54.194913      681.31403    
   2681000   285.76362      0.031564405    15.242232      708.98741     -52.165605      656.82181    
   2682000   288.12396      0.031564405    10.939671      714.84349     -55.015043      659.82845    
   2683000   305.82287      0.031564405    17.942107      758.75496     -52.007278      706.74768    
   2684000   315.47209      0.031564405    22.768973      782.69496     -48.970898      733.72406    
   2685000   300.47066      0.031564405    16.042913      745.476       -57.139438      688.33656    
   2686000   297.42911      0.031564405    14.954072      737.92981     -60.389532      677.54028    
   2687000   311.00042      0.031564405    15.796599      771.6006      -66.025793      705.57481    
   2688000   290.26427      0.031564405    16.260435      720.15366     -62.193119      657.96054    
   2689000   299.31894      0.031564405    14.720908      742.61855     -59.392567      683.22599    
   2690000   296.35159      0.031564405    21.040102      735.25648     -56.55306       678.70342    
   2691000   297.18686      0.031564405    16.809052      737.32879     -52.467076      684.86171    
   2692000   299.57016      0.031564405    15.237743      743.24183     -56.669654      686.57218    
   2693000   303.86549      0.031564405    17.813573      753.89867     -54.247089      699.65158    
   2694000   301.2968       0.031564405    19.112901      747.52566     -47.791467      699.7342     
   2695000   302.15415      0.031564405    17.438468      749.65277     -54.020295      695.63248    
   2696000   307.65271      0.031564405    18.973515      763.29484     -49.59444       713.7004     
   2697000   301.1924       0.031564405    15.544594      747.26664     -53.674163      693.59247    
   2698000   304.84871      0.031564405    17.238207      756.33805     -53.433283      702.90477    
   2699000   290.68455      0.031564405    17.080353      721.19639     -52.201075      668.99532    
   2700000   305.57394      0.031564405    6.0901972      758.13737     -55.265809      702.87156    
   2701000   312.83826      0.031564405    19.554271      776.16035     -55.714027      720.44632    
   2702000   298.88816      0.031564405    15.425153      741.54976     -53.512229      688.03753    
   2703000   302.44552      0.031564405    17.011091      750.37568     -50.133985      700.24169    
   2704000   307.56353      0.031564405    19.774444      763.07359     -54.384397      708.68919    
   2705000   293.51536      0.031564405    20.092042      728.2197      -50.650033      677.56967    
   2706000   293.13561      0.031564405    15.648467      727.27752     -53.844906      673.43261    
   2707000   308.23377      0.031564405    16.976164      764.73649     -52.285243      712.45125    
   2708000   307.56608      0.031564405    16.55672       763.07993     -51.802208      711.27772    
   2709000   303.7975       0.031564405    17.399291      753.72998     -51.935417      701.79456    
   2710000   302.09252      0.031564405    17.669073      749.49986     -50.649528      698.85034    
   2711000   284.07308      0.031564405    12.787294      704.79313     -49.918646      654.87449    
   2712000   304.22026      0.031564405    22.498159      754.77884     -52.410683      702.36816    
   2713000   300.84734      0.031564405    20.119588      746.41054     -47.79891       698.61163    
   2714000   299.30625      0.031564405    3.2140457      742.58705     -51.458177      691.12888    
   2715000   291.0654       0.031564405    9.3218156      722.14128     -54.547524      667.59375    
   2716000   294.64952      0.031564405    10.946541      731.03359     -60.441288      670.5923     
   2717000   304.09108      0.031564405    21.279413      754.45836     -58.425099      696.03326    
   2718000   295.05989      0.031564405    10.478387      732.05173     -57.708526      674.3432     
   2719000   295.90969      0.031564405    17.107226      734.16009     -55.033673      679.12642    
   2720000   303.3887       0.031564405    24.207601      752.71572     -55.267007      697.44871    
   2721000   305.22213      0.031564405    24.278497      757.26451     -55.116766      702.14774    
   2722000   299.39876      0.031564405    17.491204      742.81657     -57.550604      685.26597    
   2723000   307.49763      0.031564405    11.876576      762.91011     -51.436226      711.47388    
   2724000   291.12967      0.031564405    13.426464      722.30075     -53.241183      669.05956    
   2725000   293.70434      0.031564405    19.947522      728.68857     -57.225084      671.46348    
   2726000   298.66242      0.031564405    15.663594      740.9897      -54.459965      686.52973    
   2727000   299.9921       0.031564405    15.96885       744.28868     -54.538895      689.74978    
   2728000   289.96285      0.031564405    14.219174      719.40583     -57.429102      661.97672    
   2729000   301.97295      0.031564405    16.189494      749.20322     -56.563227      692.63999    
   2730000   298.923        0.031564405    17.312768      741.6362      -53.01905       688.61715    
   2731000   293.7693       0.031564405    18.651669      728.84973     -54.297201      674.55253    
   2732000   296.55267      0.031564405    22.076577      735.75536     -49.826934      685.92842    
   2733000   304.08102      0.031564405    17.960506      754.4334      -57.038123      697.39527    
   2734000   301.20063      0.031564405    10.618379      747.28706     -53.827154      693.45991    
   2735000   293.20711      0.031564405    14.474396      727.45491     -48.119147      679.33577    
   2736000   294.09336      0.031564405    23.734521      729.65374     -56.797063      672.85668    
   2737000   309.34624      0.031564405    20.647061      767.49654     -58.420903      709.07564    
   2738000   299.20097      0.031564405    5.9078597      742.32585     -57.506555      684.8193     
   2739000   276.12295      0.031564405    14.347263      685.06864     -50.366216      634.70243    
   2740000   299.2818       0.031564405    23.921788      742.5264      -56.196332      686.33007    
   2741000   291.11281      0.031564405    19.946064      722.25891     -50.665352      671.59356    
   2742000   302.82061      0.031564405    37.178453      751.30629     -51.931894      699.3744     
   2743000   297.52059      0.031564405    18.897139      738.15677     -60.989386      677.16739    
   2744000   307.34801      0.031564405    14.732793      762.53889     -56.822836      705.71605    
   2745000   304.25871      0.031564405    9.3634819      754.87426     -58.168354      696.7059     
   2746000   295.08112      0.031564405    23.026787      732.10438     -57.833093      674.27129    
   2747000   309.38665      0.031564405    18.611823      767.59682     -59.94774       707.64908    
   2748000   287.39573      0.031564405    10.043666      713.03674     -59.078581      653.95815    
   2749000   300.14331      0.031564405    23.308424      744.66382     -58.874671      685.78915    
   2750000   298.53147      0.031564405    13.767559      740.66481     -60.945557      679.71925    
   2751000   295.35342      0.031564405    14.289237      732.77997     -60.292275      672.4877     
   2752000   298.49348      0.031564405    14.232545      740.57056     -53.976055      686.59451    
   2753000   304.26148      0.031564405    17.102864      754.88113     -53.32754       701.55359    
   2754000   306.8956       0.031564405    17.472987      761.41643     -53.203265      708.21317    
   2755000   299.14157      0.031564405    16.464651      742.17847     -55.942572      686.2359     
   2756000   276.15684      0.031564405    17.905361      685.15273     -61.474557      623.67817    
   2757000   297.75869      0.031564405    11.116019      738.74752     -56.596555      682.15096    
   2758000   308.42296      0.031564405    18.692077      765.20586     -57.421627      707.78423    
   2759000   300.7546       0.031564405    19.890191      746.18046     -57.819008      688.36146    
   2760000   297.71399      0.031564405    16.604646      738.63662     -61.211724      677.4249     
   2761000   297.08517      0.031564405    16.908102      737.07651     -58.512975      678.56353    
   2762000   296.25368      0.031564405    19.651297      735.01356     -57.793598      677.21996    
   2763000   301.16387      0.031564405    16.694149      747.19586     -56.198174      690.99769    
   2764000   295.58794      0.031564405    7.3622992      733.36182     -53.351401      680.01042    
   2765000   297.91194      0.031564405    15.6702        739.12774     -54.432987      684.69476    
   2766000   301.01124      0.031564405    19.570868      746.81719     -55.593302      691.22389    
   2767000   299.56773      0.031564405    15.854623      743.2358      -54.351831      688.88397    
   2768000   305.36658      0.031564405    3.2548217      757.6229      -49.372171      708.25073    
   2769000   299.96601      0.031564405    19.869453      744.22394     -49.353818      694.87012    
   2770000   295.40575      0.031564405    12.556201      732.9098      -46.98955       685.92025    
   2771000   307.79751      0.031564405    12.079731      763.65412     -51.310952      712.34316    
   2772000   311.10963      0.031564405    20.413731      771.87156     -53.194923      718.67663    
   2773000   297.30338      0.031564405    20.967757      737.61788     -46.964064      690.65382    
   2774000   300.02167      0.031564405    14.922115      744.36204     -54.810831      689.55121    
   2775000   308.36067      0.031564405    12.968701      765.05133     -53.527035      711.52429    
   2776000   310.05756      0.031564405    18.316766      769.26135     -57.526814      711.73454    
   2777000   290.77672      0.031564405    18.286893      721.42505     -50.295853      671.1292     
   2778000   296.6983       0.031564405    10.540539      736.11665     -57.721994      678.39466    
   2779000   313.29621      0.031564405    36.00848       777.29654     -57.472704      719.82384    
   2780000   298.80596      0.031564405    17.095742      741.34583     -54.900329      686.44551    
   2781000   294.01677      0.031564405    11.677168      729.46371     -56.990351      672.47336    
   2782000   300.92324      0.031564405    19.465262      746.59886     -51.734447      694.86441    
   2783000   307.36747      0.031564405    27.21168       762.58715     -54.077196      708.50996    
   2784000   304.20382      0.031564405    27.589207      754.73807     -57.066083      697.67199    
   2785000   286.07783      0.031564405    20.31074       709.76699     -55.813882      653.95311    
   2786000   297.02764      0.031564405    12.088135      736.93375     -55.910964      681.02279    
   2787000   313.65471      0.031564405    31.196819      778.18598     -57.404291      720.78169    
   2788000   297.91346      0.031564405    21.636499      739.13151     -55.521056      683.61045    
   2789000   292.91281      0.031564405    10.89556       726.72476     -54.465343      672.25942    
   2790000   300.67743      0.031564405    12.383226      745.98899     -54.925547      691.06344    
   2791000   316.70963      0.031564405    13.157908      785.76533     -55.24779       730.51754    
   2792000   294.60809      0.031564405    18.741379      730.93079     -53.892825      677.03796    
   2793000   300.42442      0.031564405    15.291395      745.36128     -55.118086      690.24319    
   2794000   302.13277      0.031564405    11.886577      749.59972     -51.246438      698.35329    
   2795000   286.32039      0.031564405    14.398615      710.36878     -50.380784      659.988      
   2796000   301.85219      0.031564405    36.197958      748.9036      -51.632292      697.27131    
   2797000   284.54308      0.031564405    19.92355       705.95922     -57.444626      648.5146     
   2798000   298.47438      0.031564405    14.870405      740.52318     -57.178738      683.34444    
   2799000   317.41555      0.031564405    19.579056      787.51673     -58.308433      729.2083     
   2800000   295.87079      0.031564405    17.635439      734.06358     -55.769355      678.29423    
   2801000   290.19446      0.031564405    8.0174146      719.98046     -58.366375      661.61408    
   2802000   299.49077      0.031564405    17.817631      743.04486     -59.712283      683.33258    
   2803000   294.76676      0.031564405    15.609225      731.32446     -61.345771      669.97869    
   2804000   302.11467      0.031564405    8.928791       749.55482     -65.890452      683.66436    
   2805000   295.07336      0.031564405    16.829725      732.08515     -56.653178      675.43197    
   2806000   295.11251      0.031564405    22.579736      732.18228     -55.228643      676.95363    
   2807000   301.2177       0.031564405    24.4879        747.32941     -50.233876      697.09554    
   2808000   304.13875      0.031564405    27.478952      754.57662     -49.779404      704.79721    
   2809000   285.15921      0.031564405    14.387434      707.48786     -43.031624      664.45623    
   2810000   296.29285      0.031564405    15.53451       735.11073     -49.24543       685.8653     
   2811000   314.95873      0.031564405    20.374864      781.4213      -53.891661      727.52964    
   2812000   298.00992      0.031564405    15.488433      739.37083     -49.278919      690.09191    
   2813000   296.9118       0.031564405    13.132315      736.64636     -52.914939      683.73142    
   2814000   299.59104      0.031564405    25.515013      743.29363     -46.77471       696.51892    
   2815000   310.71585      0.031564405    16.996258      770.89458     -43.369149      727.52543    
   2816000   298.66664      0.031564405    6.8077844      741.00016     -47.981854      693.0183     
   2817000   298.03005      0.031564405    14.304895      739.42076     -46.589411      692.83135    
   2818000   296.79142      0.031564405    28.728766      736.3477      -48.502022      687.84568    
   2819000   300.80938      0.031564405    16.86891       746.31637     -39.442907      706.87346    
   2820000   306.52783      0.031564405    15.942322      760.504       -38.051702      722.4523     
   2821000   300.55838      0.031564405    16.038184      745.69363     -47.046135      698.6475     
   2822000   294.63518      0.031564405    15.611351      730.99799     -44.039241      686.95875    
   2823000   300.34773      0.031564405    17.643025      745.171       -45.670764      699.50024    
   2824000   289.15665      0.031564405    23.009146      717.40562     -50.241727      667.1639     
   2825000   299.37633      0.031564405    20.471785      742.76093     -47.928809      694.83212    
   2826000   306.79385      0.031564405    15.290011      761.16399     -49.89201       711.27198    
   2827000   298.89508      0.031564405    9.9750062      741.56692     -48.482243      693.08468    
   2828000   291.53643      0.031564405    14.924869      723.30992     -57.681072      665.62884    
   2829000   305.51273      0.031564405    24.896614      757.98549     -47.151521      710.83397    
   2830000   313.99035      0.031564405    14.012436      779.01872     -50.896579      728.12214    
   2831000   303.69921      0.031564405    10.884628      753.4861      -56.917822      696.56828    
   2832000   284.70904      0.031564405    11.601897      706.37097     -47.98791       658.38306    
   2833000   293.27561      0.031564405    20.533211      727.62487     -48.214719      679.41015    
   2834000   318.27162      0.031564405    16.777095      789.64067     -47.173664      742.46701    
   2835000   301.61471      0.031564405    7.1955529      748.31441     -53.271792      695.04261    
   2836000   288.97243      0.031564405    9.2394842      716.94857     -50.552145      666.39643    
   2837000   304.05949      0.031564405    18.050788      754.37998     -52.01546       702.36452    
   2838000   302.58179      0.031564405    20.273654      750.71377     -47.193979      703.51979    
   2839000   302.65667      0.031564405    15.049498      750.89955     -44.756751      706.1428     
   2840000   297.36143      0.031564405    6.9003182      737.7619      -44.70088       693.06102    
   2841000   297.11442      0.031564405    26.399928      737.14906     -51.519314      685.62975    
   2842000   300.78894      0.031564405    24.096021      746.26565     -48.21295       698.0527     
   2843000   293.0619       0.031564405    17.123036      727.09466     -46.594212      680.50045    
   2844000   308.5463       0.031564405    12.835826      765.51188     -43.099173      722.41271    
   2845000   297.26751      0.031564405    16.955131      737.52889     -45.579726      691.94917    
   2846000   303.01514      0.031564405    20.379836      751.78892     -42.027769      709.76115    
   2847000   308.5866       0.031564405    11.17486       765.61185     -43.748006      721.86384    
   2848000   307.8115       0.031564405    14.25074       763.68881     -45.90069       717.78812    
   2849000   293.5611       0.031564405    32.22744       728.33319     -47.404645      680.92855    
   2850000   307.69625      0.031564405    12.047121      763.40287     -51.062938      712.33993    
   2851000   295.17148      0.031564405    14.982006      732.32858     -55.380194      676.94839    
   2852000   300.27574      0.031564405    27.380687      744.99238     -51.12917       693.86321    
   2853000   296.86552      0.031564405    17.830758      736.53155     -50.742339      685.78921    
   2854000   297.18128      0.031564405    11.034394      737.31495     -51.852394      685.46255    
   2855000   291.76974      0.031564405    17.247879      723.88876     -51.769334      672.11943    
   2856000   297.88285      0.031564405    21.079692      739.05557     -48.964944      690.09063    
   2857000   306.26676      0.031564405    19.709663      759.85628     -49.827737      710.02854    
   2858000   296.14055      0.031564405    16.428099      734.73288     -52.649568      682.08331    
   2859000   301.65795      0.031564405    16.221996      748.42169     -54.083871      694.33782    
   2860000   306.63604      0.031564405    14.390914      760.77246     -58.145488      702.62698    
   2861000   297.45783      0.031564405    22.159072      738.00108     -55.719809      682.28127    
   2862000   283.10011      0.031564405    14.683746      702.37918     -56.131189      646.248      
   2863000   294.62468      0.031564405    3.5556454      730.97195     -56.36388       674.60807    
   2864000   308.27086      0.031564405    21.817622      764.82849     -54.374391      710.4541     
   2865000   289.28165      0.031564405    10.644291      717.71574     -58.771714      658.94403    
   2866000   294.1747       0.031564405    8.0565861      729.85554     -52.785303      677.07023    
   2867000   307.35396      0.031564405    33.800443      762.55365     -59.139413      703.41424    
   2868000   300.15083      0.031564405    10.684294      744.68248     -55.847559      688.83493    
   2869000   311.95072      0.031564405    19.213568      773.95834     -49.84934       724.109      
   2870000   291.13947      0.031564405    31.795559      722.32505     -51.910549      670.4145     
   2871000   296.76629      0.031564405    17.915984      736.28534     -52.041568      684.24377    
   2872000   303.95919      0.031564405    10.353245      754.13114     -54.934604      699.19653    
   2873000   303.57128      0.031564405    1.6933282      753.16872     -56.252354      696.91637    
   2874000   295.75967      0.031564405    35.220667      733.78789     -55.82906       677.95883    
   2875000   303.41793      0.031564405    27.835186      752.78824     -58.269981      694.51826    
   2876000   295.91839      0.031564405    10.509549      734.18169     -54.00501       680.17668    
   2877000   302.31236      0.031564405    11.919016      750.0453      -51.829472      698.21582    
   2878000   302.63042      0.031564405    21.530343      750.83442     -46.646101      704.18832    
   2879000   294.32801      0.031564405    18.876133      730.2359      -48.185839      682.05006    
   2880000   296.2398       0.031564405    16.418421      734.97911     -50.629545      684.34956    
   2881000   297.20109      0.031564405    17.430676      737.36409     -48.191407      689.17268    
   2882000   298.74057      0.031564405    19.354006      741.18359     -56.757832      684.42576    
   2883000   298.50314      0.031564405    16.143744      740.59452     -53.384812      687.20971    
   2884000   299.14928      0.031564405    10.882486      742.1976      -54.693856      687.50374    
   2885000   313.28717      0.031564405    9.6192571      777.27412     -56.022418      721.2517     
   2886000   302.54429      0.031564405    18.0134        750.62072     -57.291426      693.3293     
   2887000   290.51528      0.031564405    18.439346      720.77643     -55.898821      664.87761    
   2888000   297.15245      0.031564405    15.126711      737.24342     -52.659365      684.58406    
   2889000   310.58002      0.031564405    15.929483      770.55758     -54.155101      716.40248    
   2890000   301.36001      0.031564405    17.440133      747.6825      -52.594951      695.08755    
   2891000   292.82889      0.031564405    15.373488      726.51655     -50.428504      676.08805    
   2892000   302.59739      0.031564405    19.616836      750.75247     -45.886797      704.86567    
   2893000   298.94721      0.031564405    15.182152      741.69627     -49.215828      692.48045    
   2894000   302.22106      0.031564405    16.328203      749.81877     -52.355862      697.46291    
   2895000   296.97896      0.031564405    17.20931       736.81299     -51.284264      685.52873    
   2896000   298.61546      0.031564405    14.881174      740.87319     -45.386974      695.48622    
   2897000   295.83395      0.031564405    16.866648      733.97219     -49.67508       684.29711    
   2898000   303.41186      0.031564405    13.763143      752.77318     -44.521778      708.2514     
   2899000   293.49184      0.031564405    15.066699      728.16134     -45.663105      682.49823    
   2900000   291.57149      0.031564405    16.407068      723.39692     -49.840059      673.55686    
   2901000   311.17419      0.031564405    17.013189      772.03174     -53.378356      718.65338    
   2902000   295.22962      0.031564405    12.888607      732.47283     -46.525585      685.94724    
   2903000   302.87178      0.031564405    23.829383      751.43324     -44.743902      706.68934    
   2904000   306.66901      0.031564405    15.234441      760.85427     -46.840682      714.01359    
   2905000   304.65814      0.031564405    8.432201       755.86523     -49.569675      706.29556    
   2906000   291.53255      0.031564405    16.330889      723.3003      -49.506268      673.79403    
   2907000   291.63576      0.031564405    20.684686      723.55635     -52.113712      671.44264    
   2908000   313.45261      0.031564405    17.203696      777.68457     -49.480082      728.20449    
   2909000   304.02936      0.031564405    17.637541      754.30523     -51.923722      702.38151    
   2910000   290.37675      0.031564405    16.006439      720.43271     -51.544923      668.88779    
   2911000   297.65739      0.031564405    18.828576      738.4962      -48.630514      689.86568    
   2912000   307.21591      0.031564405    11.198176      762.21113     -49.625491      712.58564    
   2913000   306.71031      0.031564405    14.787351      760.95673     -52.220034      708.7367     
   2914000   294.80718      0.031564405    8.9991721      731.42473     -49.080728      682.34401    
   2915000   296.91396      0.031564405    16.596977      736.65172     -42.508833      694.14289    
   2916000   307.89708      0.031564405    20.314438      763.90115     -46.393884      717.50727    
   2917000   295.36306      0.031564405    15.88          732.8039      -49.968731      682.83517    
   2918000   294.76668      0.031564405    17.174392      731.32425     -54.876006      676.44825    
   2919000   307.70631      0.031564405    16.338544      763.42783     -53.261858      710.16597    
   2920000   303.08979      0.031564405    13.945931      751.97413     -54.58267       697.39146    
   2921000   292.67333      0.031564405    18.077546      726.1306      -60.319181      665.81142    
   2922000   302.60294      0.031564405    20.039989      750.76624     -58.963295      691.80295    
   2923000   318.85278      0.031564405    20.986472      791.08255     -53.735763      737.34678    
   2924000   298.98788      0.031564405    16.14627       741.79718     -57.132964      684.66422    
   2925000   301.49702      0.031564405    31.583855      748.02241     -54.742372      693.28004    
   2926000   303.55719      0.031564405    21.84585       753.13376     -52.354892      700.77886    
   2927000   312.45201      0.031564405   -3.9796461      775.20205     -54.187745      721.0143     
   2928000   298.77832      0.031564405    13.314289      741.27725     -47.707075      693.57017    
   2929000   294.86657      0.031564405    22.179883      731.57209     -53.464334      678.10775    
   2930000   302.23542      0.031564405    13.539921      749.85441     -43.941224      705.91319    
   2931000   289.78661      0.031564405    19.099642      718.96856     -45.626976      673.34158    
   2932000   304.26077      0.031564405    25.915865      754.87936     -43.083382      711.79598    
   2933000   307.82116      0.031564405    22.559769      763.71278     -49.689882      714.02289    
   2934000   308.06877      0.031564405    17.788834      764.32712     -55.635324      708.6918     
   2935000   294.1966       0.031564405    4.3241705      729.90987     -50.108931      679.80094    
   2936000   297.13274      0.031564405    17.373031      737.19452     -49.400482      687.79404    
   2937000   296.8924       0.031564405    31.130759      736.59823     -51.455393      685.14284    
   2938000   302.95862      0.031564405    20.338191      751.6487      -56.410354      695.23834    
   2939000   305.28067      0.031564405   -2.4850316      757.40976     -57.965485      699.44428    
   2940000   299.13744      0.031564405    8.0838121      742.16822     -50.213376      691.95485    
   2941000   290.1039       0.031564405    32.635918      719.75578     -51.500222      668.25556    
   2942000   307.72322      0.031564405    16.91634       763.46979     -47.791377      715.67841    
   2943000   309.147        0.031564405    7.6604887      767.00223     -47.624847      719.37738    
   2944000   274.66558      0.031564405    15.387145      681.45288     -49.828044      631.62483    
   2945000   290.72138      0.031564405    22.882589      721.28775     -52.558502      668.72925    
   2946000   306.79076      0.031564405    19.012662      761.15633     -52.252186      708.90415    
   2947000   306.89432      0.031564405    0.80760617     761.41326     -53.680563      707.7327     
   2948000   284.99073      0.031564405    17.479902      707.06985     -48.73613       658.33372    
   2949000   303.65613      0.031564405    28.876957      753.37922     -48.568677      704.81054    
   2950000   326.16792      0.031564405    20.20986       809.2316      -51.727838      757.50377    
   2951000   293.57525      0.031564405    13.919857      728.36829     -51.371147      676.99714    
   2952000   289.08278      0.031564405    16.622655      717.22236     -49.61874       667.60362    
   2953000   303.86988      0.031564405    10.572056      753.90955     -54.183883      699.72567    
   2954000   298.91769      0.031564405    20.669433      741.62302     -60.026278      681.59674    
   2955000   295.87315      0.031564405    17.456018      734.06943     -59.72349       674.34594    
   2956000   289.81353      0.031564405    17.022949      719.03537     -52.746003      666.28937    
   2957000   302.78423      0.031564405    13.791951      751.21602     -54.186225      697.02979    
   2958000   299.84883      0.031564405    16.678536      743.93322     -58.452126      685.4811     
   2959000   295.04922      0.031564405    18.040305      732.02525     -49.196443      682.8288     
   2960000   297.31202      0.031564405    6.3635911      737.63932     -51.179026      686.46029    
   2961000   313.85448      0.031564405    12.168553      778.68161     -50.206598      728.47501    
   2962000   297.00549      0.031564405    30.863474      736.87881     -51.750683      685.12813    
   2963000   293.85972      0.031564405    9.6889591      729.07407     -46.126441      682.94763    
   2964000   298.41983      0.031564405   -2.7669411      740.38783     -47.641117      692.74672    
   2965000   301.72496      0.031564405    7.7365288      748.58793     -51.559674      697.02826    
   2966000   313.06068      0.031564405    30.971584      776.71219     -49.090477      727.62171    
   2967000   295.80156      0.031564405    16.678083      733.89181     -51.292287      682.59952    
   2968000   300.08786      0.031564405    3.4018161      744.52624     -52.610385      691.91586    
   2969000   303.69752      0.031564405    18.60723       753.48193     -49.713814      703.76811    
   2970000   299.54685      0.031564405    27.395553      743.18399     -53.347193      689.8368     
   2971000   306.70179      0.031564405    27.230157      760.93558     -53.181919      707.75366    
   2972000   301.12718      0.031564405    18.581035      747.10483     -52.68926       694.41557    
   2973000   292.22331      0.031564405    13.846724      725.01409     -53.415385      671.59871    
   2974000   305.63218      0.031564405    18.524817      758.28187     -62.932578      695.34929    
   2975000   302.3695       0.031564405    15.507117      750.18705     -56.808172      693.37888    
   2976000   301.32476      0.031564405    4.9200448      747.59504     -54.300108      693.29493    
   2977000   301.85949      0.031564405    17.091373      748.92172     -55.238546      693.68317    
   2978000   285.00618      0.031564405    16.759282      707.1082      -55.768559      651.33964    
   2979000   309.34447      0.031564405    10.417841      767.49216     -59.200458      708.2917     
   2980000   308.51637      0.031564405    16.91211       765.43763     -62.213165      703.22446    
   2981000   300.78973      0.031564405    24.875407      746.26761     -60.500018      685.76759    
   2982000   300.87354      0.031564405    19.177528      746.47554     -62.240226      684.23532    
   2983000   284.20488      0.031564405    2.734182       705.12015     -56.620215      648.49993    
   2984000   298.3724       0.031564405    15.050648      740.27014     -50.805781      689.46436    
   2985000   302.65845      0.031564405    4.5955263      750.90396     -53.317053      697.58691    
   2986000   306.37094      0.031564405    23.103647      760.11475     -51.575046      708.5397     
   2987000   290.81188      0.031564405    26.786057      721.51228     -52.746563      668.76572    
   2988000   291.85247      0.031564405    8.8941739      724.09403     -60.413869      663.68017    
   2989000   298.47992      0.031564405    13.245825      740.5369      -62.180734      678.35616    
   2990000   311.54222      0.031564405    8.5372886      772.94483     -57.716417      715.22841    
   2991000   287.64041      0.031564405    32.012453      713.64378     -54.639995      659.00378    
   2992000   291.42026      0.031564405    20.020349      723.0217      -49.462946      673.55875    
   2993000   289.78933      0.031564405    9.0960941      718.97532     -54.324798      664.65052    
   2994000   299.45643      0.031564405    17.060847      742.95966     -47.561156      695.39851    
   2995000   301.69643      0.031564405    22.411785      748.51715     -54.425405      694.09175    
   2996000   304.32681      0.031564405    17.902948      755.04322     -57.186956      697.85626    
   2997000   299.22327      0.031564405    17.13787       742.38118     -51.946179      690.435      
   2998000   290.08604      0.031564405    15.48475       719.71145     -49.087948      670.62351    
   2999000   289.03358      0.031564405    19.032164      717.10028     -47.032809      670.06747    
   3000000   317.79218      0.031564405    12.701737      788.45117     -48.070603      740.38057    
   3001000   287.379        0.031564405    13.529478      712.99522     -55.582473      657.41275    
   3002000   289.80698      0.031564405    15.761919      719.01911     -53.553215      665.4659     
   3003000   309.75973      0.031564405    16.511457      768.52244     -49.018644      719.5038     
   3004000   307.12129      0.031564405    16.504528      761.97639     -45.333566      716.64283    
   3005000   294.3291       0.031564405    14.275391      730.2386      -48.0832        682.1554     
   3006000   294.10649      0.031564405    15.806933      729.6863      -48.026078      681.66022    
   3007000   291.21722      0.031564405    19.449279      722.51794     -51.85103       670.66691    
   3008000   298.60015      0.031564405    20.226836      740.8352      -53.534382      687.30082    
   3009000   299.0154       0.031564405    8.9455451      741.86545     -54.788605      687.07684    
   3010000   307.61483      0.031564405    20.818863      763.20088     -46.755273      716.4456     
   3011000   301.38784      0.031564405    19.15696       747.75153     -49.065848      698.68568    
   3012000   296.77643      0.031564405    23.019733      736.31052     -55.377469      680.93305    
   3013000   303.87759      0.031564405    23.340007      753.92868     -52.381155      701.54753    
   3014000   312.94875      0.031564405    12.91902       776.43446     -61.274746      715.15972    
   3015000   287.01063      0.031564405    21.882251      712.08127     -58.678977      653.4023     
   3016000   297.10432      0.031564405    37.26659       737.12402     -51.31458       685.80944    
   3017000   308.7511       0.031564405    28.917216      766.01998     -51.747738      714.27224    
   3018000   303.61266      0.031564405    17.56266       753.27139     -48.3445        704.92689    
   3019000   297.36854      0.031564405    10.728553      737.77955     -52.013594      685.76596    
   3020000   291.50246      0.031564405    14.836775      723.22564     -56.781853      666.44379    
   3021000   296.40094      0.031564405    22.318382      735.37891     -46.437732      688.94118    
   3022000   327.26251      0.031564405    13.690163      811.9473      -50.43023       761.51707    
   3023000   309.05832      0.031564405    11.014007      766.78221     -52.859348      713.92286    
   3024000   290.74279      0.031564405    13.957135      721.34087     -56.108842      665.23202    
   3025000   302.47778      0.031564405    17.390393      750.4557      -59.747252      690.70845    
   3026000   310.52945      0.031564405    15.167779      770.43211     -58.165905      712.26621    
   3027000   301.32875      0.031564405    17.26769       747.60493     -57.881598      689.72333    
   3028000   291.9098       0.031564405    15.73675       724.23625     -52.873737      671.36252    
   3029000   298.45819      0.031564405    16.089112      740.48301     -55.609282      684.87373    
   3030000   301.68594      0.031564405    22.254206      748.49114     -55.575182      692.91596    
   3031000   303.87847      0.031564405    19.449896      753.93085     -49.64631       704.28454    
   3032000   303.42743      0.031564405    13.920016      752.81182     -52.925467      699.88635    
   3033000   298.56368      0.031564405    15.687318      740.74473     -51.460393      689.28433    
   3034000   301.84966      0.031564405    17.478466      748.89732     -55.740792      693.15653    
   3035000   317.80643      0.031564405    19.792826      788.48652     -53.025999      735.46052    
   3036000   309.77204      0.031564405    11.764527      768.55298     -48.353496      720.19948    
   3037000   286.74185      0.031564405    16.704034      711.41444     -58.195655      653.21879    
   3038000   294.1794       0.031564405    21.037127      729.8672      -50.523201      679.344      
   3039000   298.18509      0.031564405    20.626521      739.80543     -55.751887      684.05354    
   3040000   304.33572      0.031564405    14.921225      755.0653      -60.719965      694.34534    
   3041000   302.61242      0.031564405    14.635182      750.78976     -58.782213      692.00754    
   3042000   295.49567      0.031564405    15.706947      733.1329      -57.292359      675.84054    
   3043000   305.98057      0.031564405    17.863512      759.14623     -57.710152      701.43607    
   3044000   301.4129       0.031564405    16.525833      747.8137      -57.90918       689.90452    
   3045000   297.14325      0.031564405    18.318168      737.22061     -57.118994      680.10161    
   3046000   298.24695      0.031564405    17.681524      739.95891     -61.527348      678.43157    
   3047000   299.81756      0.031564405    17.19879       743.85564     -54.428105      689.42753    
   3048000   291.88161      0.031564405    13.392383      724.16632     -52.308625      671.85769    
   3049000   296.81745      0.031564405    16.787027      736.41227     -48.252712      688.15956    
   3050000   301.64781      0.031564405    19.590343      748.39654     -49.258794      699.13774    
   3051000   293.85928      0.031564405    20.82071       729.07297     -46.603086      682.46988    
   3052000   307.10567      0.031564405    15.897272      761.93762     -51.080965      710.85666    
   3053000   301.87633      0.031564405    14.783168      748.96349     -49.982258      698.98123    
   3054000   297.84104      0.031564405    14.258033      738.95184     -45.915372      693.03646    
   3055000   303.28014      0.031564405    18.507598      752.44638     -42.417688      710.02869    
   3056000   324.57169      0.031564405    18.96806       805.2713      -51.117247      754.15405    
   3057000   302.88212      0.031564405    19.033584      751.45888     -52.649336      698.80954    
   3058000   295.13727      0.031564405    17.4333        732.24371     -56.773239      675.47047    
   3059000   299.67328      0.031564405    15.836227      743.49767     -61.184585      682.31308    
   3060000   300.28876      0.031564405    16.080738      745.02468     -56.728524      688.29616    
   3061000   287.70377      0.031564405    17.710927      713.80099     -57.435219      656.36577    
   3062000   309.69367      0.031564405    23.962854      768.35853     -56.866444      711.49209    
   3063000   305.19114      0.031564405    14.636379      757.18764     -53.188552      703.99909    
   3064000   285.08919      0.031564405    15.837995      707.31413     -49.935075      657.37905    
   3065000   292.20007      0.031564405    15.2018        724.95642     -50.953545      674.00288    
   3066000   309.72487      0.031564405    19.457992      768.43594     -45.229493      723.20645    
   3067000   295.98986      0.031564405    15.87359       734.35899     -45.402783      688.95621    
   3068000   290.88026      0.031564405    13.86607       721.68194     -44.279723      677.40222    
   3069000   302.97258      0.031564405    16.66966       751.68333     -51.435229      700.2481     
   3070000   300.00086      0.031564405    18.303502      744.31042     -46.84893       697.46148    
   3071000   294.5377       0.031564405    17.537284      730.75615     -40.752725      690.00343    
   3072000   302.96698      0.031564405    16.458834      751.66943     -46.910246      704.75918    
   3073000   291.73728      0.031564405    16.73377       723.80823     -43.889144      679.91908    
   3074000   292.6603       0.031564405    17.252853      726.09827     -42.097722      684.00055    
   3075000   306.05671      0.031564405    4.0828632      759.33513     -43.764626      715.5705     
   3076000   294.37271      0.031564405    18.504561      730.34682     -45.701972      684.64484    
   3077000   304.15695      0.031564405    18.621686      754.62177     -53.181788      701.43999    
   3078000   297.32112      0.031564405    16.360267      737.66189     -50.593257      687.06864    
   3079000   286.03484      0.031564405    16.710082      709.66032     -58.623762      651.03656    
   3080000   317.06207      0.031564405    16.781992      786.63975     -54.006221      732.63353    
   3081000   307.14728      0.031564405    13.680696      762.04086     -53.346448      708.69441    
   3082000   284.93611      0.031564405    13.784334      706.93435     -59.227758      647.7066     
   3083000   299.63957      0.031564405    14.411719      743.41404     -59.30175       684.11229    
   3084000   314.48941      0.031564405    18.420441      780.2569      -54.03096       726.22594    
   3085000   297.64068      0.031564405    20.562439      738.45472     -62.691306      675.76341    
   3086000   291.68703      0.031564405    16.094567      723.68357     -66.783575      656.9        
   3087000   304.03107      0.031564405    17.376332      754.30945     -70.780514      683.52894    
   3088000   304.17035      0.031564405    17.915591      754.65501     -73.865206      680.78981    
   3089000   307.22606      0.031564405    18.882008      762.23632     -68.770511      693.46581    
   3090000   302.16525      0.031564405    18.869225      749.68032     -58.98079       690.69953    
   3091000   301.97061      0.031564405    15.224269      749.19741     -53.50279       695.69462    
   3092000   312.94969      0.031564405    12.802739      776.43681     -58.639288      717.79752    
   3093000   300.60616      0.031564405    20.496398      745.81218     -60.197838      685.61434    
   3094000   288.43218      0.031564405    12.061818      715.60819     -53.912111      661.69608    
   3095000   301.81512      0.031564405   -0.30817744     748.81164     -47.947065      700.86457    
   3096000   299.06358      0.031564405   -2.696009       741.98497     -49.843231      692.14174    
   3097000   315.90821      0.031564405    14.774889      783.77698     -51.011784      732.76519    
   3098000   297.10785      0.031564405    31.499279      737.13277     -48.072876      689.05989    
   3099000   295.62157      0.031564405    14.743714      733.44526     -49.552208      683.89306    
   3100000   304.91267      0.031564405    16.268422      756.49675     -52.444409      704.05234    
   3101000   313.74234      0.031564405    17.056761      778.4034      -50.546573      727.85682    
   3102000   293.92182      0.031564405    15.557322      729.22815     -58.448471      670.77968    
   3103000   304.74616      0.031564405    17.735825      756.08362     -44.666226      711.41739    
   3104000   293.99355      0.031564405    14.896995      729.40609     -53.802695      675.6034     
   3105000   312.48437      0.031564405    17.296138      775.28233     -48.266888      727.01544    
   3106000   296.5874       0.031564405    17.498034      735.84152     -48.650091      687.19143    
   3107000   296.78941      0.031564405    15.309149      736.3427      -51.849129      684.49357    
   3108000   303.87392      0.031564405    15.467735      753.91957     -57.97196       695.94761    
   3109000   309.59518      0.031564405    13.708892      768.11418     -59.928789      708.1854     
   3110000   296.70663      0.031564405    15.29943       736.13734     -64.767511      671.36983    
   3111000   299.77634      0.031564405    17.411893      743.75337     -57.951262      685.80211    
   3112000   299.98266      0.031564405    8.4845203      744.26524     -58.949856      685.31539    
   3113000   305.35479      0.031564405    16.20632       757.59366     -55.437595      702.15606    
   3114000   301.75855      0.031564405    18.467678      748.67127     -54.929507      693.74176    
   3115000   296.82858      0.031564405    11.702055      736.4399      -46.807927      689.63197    
   3116000   297.11176      0.031564405    16.696383      737.14246     -46.635425      690.50704    
   3117000   321.42195      0.031564405    19.654654      797.45671     -44.878361      752.57835    
   3118000   302.81195      0.031564405    14.277859      751.28479     -47.216713      704.06807    
   3119000   290.06153      0.031564405    5.2251258      719.65065     -51.448518      668.20214    
   3120000   300.15838      0.031564405    19.073816      744.70121     -55.259821      689.44139    
   3121000   296.47929      0.031564405    21.913856      735.57329     -52.98187       682.59142    
   3122000   305.74053      0.031564405    8.5436889      758.55069     -54.318479      704.23221    
   3123000   303.2471       0.031564405    10.804687      752.36442     -55.727977      696.63644    
   3124000   297.36661      0.031564405    20.470257      737.77475     -52.257537      685.51721    
   3125000   301.37655      0.031564405    25.259552      747.72352     -45.413854      702.30967    
   3126000   307.96444      0.031564405    4.6084248      764.06827     -39.324075      724.7442     
   3127000   300.88561      0.031564405    16.151265      746.5055      -45.876452      700.62905    
   3128000   284.3326       0.031564405    17.126792      705.43702     -43.483425      661.95359    
   3129000   314.90828      0.031564405    22.52544       781.29613     -40.063693      741.23243    
   3130000   307.84313      0.031564405    17.40138       763.76729     -40.17433       723.59296    
   3131000   297.45409      0.031564405    9.4044398      737.99179     -38.104933      699.88685    
   3132000   289.60299      0.031564405    11.671929      718.513       -39.774216      678.73879    
   3133000   295.42154      0.031564405    21.529998      732.94899     -38.405744      694.54324    
   3134000   303.62125      0.031564405    22.376226      753.29269     -45.138399      708.15429    
   3135000   310.90636      0.031564405    13.270705      771.36725     -45.555363      725.81188    
   3136000   284.57312      0.031564405    10.396346      706.03375     -46.724477      659.30927    
   3137000   300.57303      0.031564405    18.765286      745.72997     -49.448508      696.28147    
   3138000   312.67724      0.031564405    20.758185      775.76085     -55.196518      720.56433    
   3139000   310.31793      0.031564405    13.798768      769.90733     -44.311915      725.59542    
   3140000   300.20653      0.031564405    15.858941      744.82067     -47.23354       697.58713    
   3141000   306.59822      0.031564405    33.83139       760.67862     -46.03504       714.64358    
   3142000   297.76138      0.031564405    15.949989      738.75419     -42.95202       695.80217    
   3143000   293.70329      0.031564405    12.388577      728.68596     -43.474759      685.2112     
   3144000   284.91493      0.031564405    10.20089       706.88179     -39.709858      667.17193    
   3145000   295.07239      0.031564405    21.82854       732.08274     -41.703241      690.3795     
   3146000   313.25869      0.031564405    7.7378318      777.20345     -46.530892      730.67256    
   3147000   296.33729      0.031564405    6.8456648      735.22098     -51.546704      683.67427    
   3148000   277.73316      0.031564405    8.7324         689.06364     -55.335119      633.72852    
   3149000   305.39973      0.031564405    24.885099      757.70516     -48.119413      709.58574    
   3150000   304.71646      0.031564405    31.255701      756.00994     -50.015276      705.99466    
   3151000   292.23051      0.031564405    14.810446      725.03195     -46.571087      678.46087    
   3152000   306.68418      0.031564405    5.5525505      760.89191     -43.208032      717.68387    
   3153000   299.07127      0.031564405    5.5747214      742.00405     -44.064552      697.9395     
   3154000   292.7941       0.031564405    24.080026      726.43023     -45.952329      680.4779     
   3155000   306.53509      0.031564405    15.645161      760.52201     -42.216448      718.30556    
   3156000   308.2697       0.031564405    18.516046      764.82563     -40.220397      724.60523    
   3157000   297.01278      0.031564405   -15.785612      736.8969      -46.062703      690.8342     
   3158000   290.91824      0.031564405    15.127085      721.77618     -44.731942      677.04424    
   3159000   296.82102      0.031564405    33.880133      736.42113     -47.533476      688.88765    
   3160000   312.0446       0.031564405    16.343143      774.19126     -45.8945        728.29676    
   3161000   292.73679      0.031564405   -9.6908796      726.28805     -46.548731      679.73931    
   3162000   276.83084      0.031564405    18.712522      686.82496     -43.702088      643.12287    
   3163000   296.55366      0.031564405    22.937157      735.7578      -48.963715      686.79408    
   3164000   315.82536      0.031564405    13.766478      783.57142     -48.045033      735.52639    
   3165000   303.67944      0.031564405    14.696297      753.43706     -52.416248      701.02081    
   3166000   284.21072      0.031564405    18.773621      705.13463     -51.61996       653.51467    
   3167000   299.0446       0.031564405    16.580767      741.9379      -50.171891      691.76601    
   3168000   304.68854      0.031564405    18.927308      755.94068     -48.281456      707.65922    
   3169000   290.39579      0.031564405    17.964985      720.47997     -44.025843      676.45413    
   3170000   292.13925      0.031564405    14.056646      724.80554     -48.348277      676.45726    
   3171000   305.67604      0.031564405    17.311739      758.39068     -51.631094      706.75959    
   3172000   305.94554      0.031564405    17.89816       759.05933     -55.37374       703.68559    
   3173000   288.4461       0.031564405    19.920644      715.64273     -49.266704      666.37603    
   3174000   300.4863       0.031564405    13.810185      745.5148      -53.069598      692.4452     
   3175000   316.99632      0.031564405    18.47848       786.4766      -56.864313      729.61228    
   3176000   298.98266      0.031564405    16.783881      741.78423     -53.344344      688.43988    
   3177000   301.88386      0.031564405    20.226287      748.98219     -52.377498      696.60469    
   3178000   287.03101      0.031564405    12.065737      712.13184     -54.661608      657.47023    
   3179000   305.25584      0.031564405    14.630768      757.34816     -50.056601      707.29156    
   3180000   306.41021      0.031564405    17.922868      760.21217     -53.97523       706.23694    
   3181000   289.37963      0.031564405    22.174269      717.95884     -52.357317      665.60153    
   3182000   297.57246      0.031564405    14.031769      738.28547     -49.402619      688.88285    
   3183000   301.09973      0.031564405    6.9925938      747.03673     -52.975061      694.06167    
   3184000   295.73386      0.031564405    11.546877      733.72386     -56.836648      676.88721    
   3185000   302.85501      0.031564405    22.77206       751.39164     -53.872669      697.51897    
   3186000   290.16765      0.031564405    16.110211      719.91393     -52.918656      666.99527    
   3187000   292.70767      0.031564405    6.5081967      726.21579     -55.339252      670.87654    
   3188000   302.32289      0.031564405    17.605348      750.07143     -56.60938       693.46205    
   3189000   295.63433      0.031564405    16.976089      733.47693     -60.584808      672.89212    
   3190000   299.04143      0.031564405    5.3484819      741.93003     -61.02878       680.90125    
   3191000   306.28406      0.031564405    16.262504      759.8992      -54.447826      705.45137    
   3192000   296.64743      0.031564405    41.279221      735.99045     -58.40625       677.5842     
   3193000   297.89023      0.031564405    4.8257988      739.07387     -61.653028      677.42084    
   3194000   310.1116       0.031564405    13.532746      769.39542     -58.291097      711.10432    
   3195000   292.68817      0.031564405    20.067957      726.16741     -55.201793      670.96562    
   3196000   292.03338      0.031564405    16.027563      724.54287     -57.833901      666.70897    
   3197000   309.26295      0.031564405    10.631722      767.28991     -53.261749      714.02816    
   3198000   307.15555      0.031564405    16.511993      762.0614      -58.916688      703.14471    
   3199000   301.61976      0.031564405    25.080838      748.32693     -66.141443      682.18549    
   3200000   289.5782       0.031564405    14.475549      718.45149     -62.864257      655.58723    
   3201000   292.19875      0.031564405    12.998308      724.95316     -54.821887      670.13127    
   3202000   318.80702      0.031564405    12.390926      790.96901     -56.217598      734.75141    
   3203000   307.3037       0.031564405    20.139408      762.42895     -54.344973      708.08398    
   3204000   276.24452      0.031564405    15.286432      685.37026     -50.652056      634.71821    
   3205000   290.90975      0.031564405    14.250742      721.75511     -56.705646      665.04947    
   3206000   315.23576      0.031564405    19.250126      782.10861     -52.251889      729.85672    
   3207000   307.7208       0.031564405    18.093052      763.46379     -57.571075      705.89272    
   3208000   288.52006      0.031564405    24.993886      715.82622     -53.570768      662.25545    
   3209000   293.95256      0.031564405    19.267344      729.30441     -55.827092      673.47731    
   3210000   293.56161      0.031564405    12.420181      728.33445     -43.446856      684.88759    
   3211000   311.5865       0.031564405    9.1820833      773.05468     -48.561582      724.4931     
   3212000   304.9025       0.031564405    19.417396      756.47151     -49.441372      707.03014    
   3213000   290.72577      0.031564405    28.91843       721.29866     -50.341388      670.95727    
   3214000   296.85576      0.031564405    20.720054      736.50732     -46.972009      689.53531    
   3215000   300.9726       0.031564405    7.4468662      746.72132     -43.987056      702.73427    
   3216000   307.49316      0.031564405    13.374926      762.899       -52.364403      710.5346     
   3217000   300.14229      0.031564405    29.746123      744.66131     -47.259724      697.40158    
   3218000   285.17388      0.031564405    4.6382535      707.52425     -49.283471      658.24078    
   3219000   301.56957      0.031564405    9.579462       748.20243     -51.713733      696.48869    
   3220000   311.01029      0.031564405    19.456303      771.6251      -48.563047      723.06205    
   3221000   295.58128      0.031564405    15.949108      733.34531     -49.87817       683.46714    
   3222000   287.03922      0.031564405    7.1417125      712.15221     -52.148938      660.00327    
   3223000   299.07243      0.031564405    8.9973532      742.00695     -53.867804      688.13915    
   3224000   308.31001      0.031564405    22.572168      764.92563     -58.961056      705.96457    
   3225000   298.8254       0.031564405    19.177787      741.39406     -55.570793      685.82327    
   3226000   286.59649      0.031564405    14.584576      711.05378     -54.125197      656.92858    
   3227000   314.20031      0.031564405    17.920381      779.53964     -51.093608      728.44603    
   3228000   308.02428      0.031564405    15.905457      764.21673     -55.516211      708.70052    
   3229000   293.58336      0.031564405    15.891696      728.38841     -60.839241      667.54917    
   3230000   291.98536      0.031564405    8.8096669      724.42373     -58.72433       665.6994     
   3231000   299.98254      0.031564405    17.482285      744.26495     -59.017198      685.24775    
   3232000   304.86966      0.031564405    23.682064      756.39002     -61.063775      695.32625    
   3233000   297.55047      0.031564405    14.281809      738.23093     -62.6694        675.56153    
   3234000   300.96725      0.031564405    11.315939      746.70805     -62.128381      684.57966    
   3235000   301.53138      0.031564405    23.197431      748.10766     -59.432293      688.67537    
   3236000   298.71161      0.031564405    17.268214      741.11174     -60.618361      680.49337    
   3237000   299.61792      0.031564405    14.756921      743.36031     -61.165597      682.19471    
   3238000   304.89412      0.031564405    15.836033      756.45071     -57.12132       699.32939    
   3239000   300.84587      0.031564405    19.631712      746.4069      -49.061151      697.34574    
   3240000   296.88687      0.031564405    16.068556      736.58451     -51.93946       684.64505    
   3241000   297.48635      0.031564405    13.318062      738.07184     -51.086184      686.98565    
   3242000   296.67555      0.031564405    16.868733      736.06022     -47.153091      688.90713    
   3243000   295.80171      0.031564405    16.873472      733.89219     -43.684008      690.20818    
   3244000   297.59933      0.031564405    14.197307      738.35214     -45.355991      692.99615    
   3245000   308.55378      0.031564405    16.42791       765.53042     -42.687613      722.84281    
   3246000   295.73367      0.031564405    19.03062       733.72339     -49.750465      683.97292    
   3247000   292.28266      0.031564405    15.819359      725.16134     -47.341043      677.8203     
   3248000   310.54213      0.031564405    15.86265       770.46359     -47.636157      722.82744    
   3249000   314.82005      0.031564405    17.401893      781.07721     -44.912688      736.16453    
   3250000   290.62317      0.031564405    18.249027      721.04409     -49.723344      671.32074    
   3251000   295.35642      0.031564405    15.54893       732.78741     -53.157339      679.63007    
   3252000   295.04209      0.031564405    15.675698      732.00756     -52.182034      679.82553    
   3253000   292.31487      0.031564405    15.533756      725.24125     -49.328524      675.91273    
   3254000   287.5427       0.031564405    14.957172      713.40138     -48.29477       665.10661    
   3255000   301.25753      0.031564405    12.991002      747.42825     -52.084185      695.34406    
   3256000   310.19196      0.031564405    16.055601      769.5948      -54.239381      715.35542    
   3257000   302.95791      0.031564405    18.094198      751.64692     -51.733965      699.91296    
   3258000   303.67495      0.031564405    17.118431      753.42592     -50.069006      703.35691    
   3259000   290.5555       0.031564405    13.701798      720.87621     -43.17297       677.70324    
   3260000   297.37138      0.031564405    8.6684481      737.7866      -47.322386      690.46421    
   3261000   306.75154      0.031564405    16.811797      761.05903     -46.059673      714.99936    
   3262000   304.58893      0.031564405    22.539679      755.69354     -51.956185      703.73735    
   3263000   284.43686      0.031564405    27.908395      705.69569     -51.588914      654.10678    
   3264000   297.24278      0.031564405    15.898123      737.46752     -55.781806      681.68572    
   3265000   301.44313      0.031564405    10.382262      747.8887      -58.728367      689.16034    
   3266000   311.88058      0.031564405    19.463058      773.78432     -56.009988      717.77433    
   3267000   297.08969      0.031564405    21.508102      737.08772     -59.562865      677.52486    
   3268000   299.61123      0.031564405    22.193332      743.34371     -52.309371      691.03434    
   3269000   306.51733      0.031564405    14.933569      760.47795     -55.047972      705.42998    
   3270000   304.89394      0.031564405    13.072258      756.45028     -56.551547      699.89873    
   3271000   289.60294      0.031564405    22.076011      718.51288     -55.96425       662.54863    
   3272000   309.63856      0.031564405    30.640894      768.22179     -55.8433        712.37849    
   3273000   298.13316      0.031564405    21.634492      739.67658     -48.415909      691.26068    
   3274000   294.11212      0.031564405    16.087529      729.70027     -50.717043      678.98323    
   3275000   306.54712      0.031564405    11.633716      760.55185     -52.468083      708.08376    
   3276000   300.11717      0.031564405    16.433277      744.59896     -57.566403      687.03256    
   3277000   293.11969      0.031564405    16.718068      727.23802     -49.791123      677.4469     
   3278000   301.01258      0.031564405    17.393294      746.82051     -55.123056      691.69745    
   3279000   307.30005      0.031564405    18.107979      762.41989     -45.000001      717.41989    
   3280000   303.57092      0.031564405    12.283219      753.16781     -51.551961      701.61585    
   3281000   286.72557      0.031564405    17.612579      711.37404     -53.44505       657.92899    
   3282000   317.3571       0.031564405    19.843881      787.3717      -49.323437      738.04827    
   3283000   311.19975      0.031564405    11.539179      772.09517     -51.758903      720.33626    
   3284000   291.36056      0.031564405    6.2678358      722.87357     -58.34034       664.53323    
   3285000   296.108        0.031564405    30.7251        734.65211     -57.777297      676.87481    
   3286000   308.09307      0.031564405    17.550642      764.3874      -53.92693       710.46047    
   3287000   303.94727      0.031564405   -0.36123643     754.10155     -56.012221      698.08933    
   3288000   283.55305      0.031564405    14.486688      703.50294     -47.074497      656.42844    
   3289000   309.73922      0.031564405    16.835938      768.47155     -51.138872      717.33268    
   3290000   287.59908      0.031564405   -2.0875178      713.54126     -54.571129      658.97013    
   3291000   298.51538      0.031564405    30.769808      740.62489     -52.56303       688.06186    
   3292000   309.46582      0.031564405    18.292975      767.79323     -44.49845       723.29478    
   3293000   310.99642      0.031564405    8.5976216      771.5907      -43.112707      728.47799    
   3294000   278.37291      0.031564405    26.556805      690.65085     -44.591833      646.05902    
   3295000   299.95238      0.031564405    24.488985      744.19012     -44.064993      700.12513    
   3296000   320.08169      0.031564405    0.31328242     794.1315      -44.554161      749.57733    
   3297000   292.30787      0.031564405    8.8731416      725.22389     -44.612495      680.6114     
   3298000   290.40025      0.031564405    16.633498      720.49102     -45.899763      674.59126    
   3299000   297.06296      0.031564405    20.054877      737.02139     -42.665623      694.35577    
   3300000   309.18485      0.031564405    26.445158      767.09612     -41.866863      725.22926    
   3301000   314.64426      0.031564405    4.6044297      780.64107     -44.166637      736.47444    
   3302000   293.88802      0.031564405    7.3081552      729.14428     -45.68487       683.45941    
   3303000   303.75438      0.031564405    28.658944      753.62299     -47.956478      705.66651    
   3304000   293.43565      0.031564405    29.001078      728.02194     -47.515101      680.50684    
   3305000   301.35568      0.031564405   -2.4428816      747.67176     -41.862849      705.80891    
   3306000   293.57657      0.031564405    15.311384      728.37156     -38.329077      690.04248    
   3307000   304.48403      0.031564405    32.585773      755.43327     -45.726898      709.70637    
   3308000   311.50042      0.031564405    22.004552      772.84113     -38.468163      734.37297    
   3309000   291.01271      0.031564405   -25.99093       722.01056     -37.667405      684.34315    
   3310000   278.37105      0.031564405   -4.0798362      690.64624     -38.501188      652.14505    
   3311000   307.80402      0.031564405    5.7954088      763.67026     -38.784494      724.88576    
   3312000   278.54235      0.031564405    38.62209       691.07124     -41.357761      649.71348    
   3313000   294.5371       0.031564405    32.421227      730.75466     -39.619685      691.13497    
   3314000   316.01798      0.031564405    41.205596      784.04933     -37.681597      746.36773    
   3315000   296.7329       0.031564405   -23.635822      736.2025      -37.459553      698.74295    
   3316000   290.84716      0.031564405    21.127641      721.59981     -44.189229      677.41058    
   3317000   317.97138      0.031564405    24.627451      788.89576     -52.034941      736.86082    
   3318000   301.93743      0.031564405    8.5617911      749.11507     -54.26834       694.84673    
   3319000   286.21         0.031564405    9.0400185      710.0949      -52.997548      657.09736    
   3320000   289.29845      0.031564405    17.874732      717.75743     -54.737506      663.01993    
   3321000   301.16778      0.031564405    19.132072      747.20557     -54.647311      692.55826    
   3322000   303.68692      0.031564405    21.152127      753.45561     -56.24473       697.21088    
   3323000   307.24016      0.031564405    14.221433      762.2713      -56.703049      705.56825    
   3324000   303.82183      0.031564405    13.178874      753.79033     -61.502622      692.28771    
   3325000   289.12148      0.031564405    18.809976      717.31836     -48.1213        669.19706    
   3326000   293.99856      0.031564405    17.663732      729.41852     -51.856915      677.5616     
   3327000   305.7826       0.031564405    18.854084      758.65506     -51.152344      707.50272    
   3328000   314.35285      0.031564405    7.0056206      779.91809     -50.856543      729.06155    
   3329000   289.73173      0.031564405    14.75943       718.83241     -48.236266      670.59614    
   3330000   303.1044       0.031564405    19.733515      752.01038     -47.305733      704.70465    
   3331000   306.09279      0.031564405    13.218886      759.42464     -49.543311      709.88133    
   3332000   282.88531      0.031564405    16.534526      701.84625     -44.129051      657.7172     
   3333000   298.4105       0.031564405    17.406764      740.36468     -46.032649      694.33203    
   3334000   297.22546      0.031564405    9.775213       737.42456     -42.819193      694.60537    
   3335000   309.04604      0.031564405    15.785937      766.75175     -40.897674      725.85408    
   3336000   305.50737      0.031564405    22.726162      757.97221     -44.169507      713.8027     
   3337000   297.12336      0.031564405    16.839453      737.17125     -43.019987      694.15126    
   3338000   299.22502      0.031564405    15.67036       742.38552     -49.279444      693.10608    
   3339000   301.86688      0.031564405    20.082984      748.94005     -42.636265      706.30378    
   3340000   300.72807      0.031564405    3.7971972      746.11463     -53.157436      692.95719    
   3341000   305.9401       0.031564405    14.742272      759.04582     -48.361596      710.68422    
   3342000   297.60234      0.031564405    20.626095      738.35961     -47.813045      690.54656    
   3343000   307.50611      0.031564405    16.454668      762.93114     -46.147281      716.78386    
   3344000   307.01111      0.031564405    16.377095      761.70303     -51.447061      710.25596    
   3345000   311.59149      0.031564405    16.622723      773.06708     -50.682845      722.38423    
   3346000   296.13336      0.031564405    10.793261      734.71502     -55.87105       678.84397    
   3347000   293.97719      0.031564405    16.98782       729.36552     -57.540675      671.82485    
   3348000   314.16255      0.031564405    21.399584      779.44595     -50.345177      729.10077    
   3349000   317.56177      0.031564405    17.871641      787.87949     -55.367752      732.51174    
   3350000   288.66131      0.031564405    14.570255      716.17667     -51.554587      664.62208    
   3351000   291.1789       0.031564405    15.814907      722.42289     -52.452316      669.97057    
   3352000   301.89662      0.031564405    16.895036      749.01384     -53.449776      695.56406    
   3353000   307.83246      0.031564405    17.179461      763.74083     -49.632809      714.10802    
   3354000   299.36815      0.031564405    2.5189656      742.74064     -45.808676      696.93197    
   3355000   294.55546      0.031564405    18.112586      730.80022     -50.244997      680.55523    
   3356000   319.70834      0.031564405    29.726815      793.2052      -51.2725        741.9327     
   3357000   302.8937       0.031564405    16.185079      751.48762     -56.279556      695.20806    
   3358000   283.31498      0.031564405    23.544598      702.91227     -51.790041      651.12223    
   3359000   308.28258      0.031564405    15.935144      764.85759     -55.246821      709.61077    
   3360000   307.49745      0.031564405    12.941575      762.90965     -51.711424      711.19823    
   3361000   294.01457      0.031564405    16.576507      729.45824     -50.735344      678.7229     
   3362000   306.0576       0.031564405    19.869065      759.33734     -51.657994      707.67934    
   3363000   311.73106      0.031564405    17.451319      773.41335     -59.708034      713.70531    
   3364000   297.04169      0.031564405    15.550523      736.96863     -56.468185      680.50045    
   3365000   289.49457      0.031564405    12.235457      718.24402     -53.310493      664.93353    
   3366000   310.62372      0.031564405    15.96701       770.66601     -50.807862      719.85815    
   3367000   297.21189      0.031564405    17.70102       737.39089     -53.628046      683.76285    
   3368000   295.71822      0.031564405    15.730849      733.68506     -52.821172      680.86389    
   3369000   319.17518      0.031564405    15.633433      791.88242     -53.586674      738.29574    
   3370000   305.86803      0.031564405    16.661567      758.86701     -52.873003      705.99401    
   3371000   295.16358      0.031564405    13.814805      732.30897     -52.057373      680.2516     
   3372000   312.07924      0.031564405    16.09714       774.27721     -54.404976      719.87223    
   3373000   290.79758      0.031564405    15.658458      721.47681     -57.202416      664.27439    
   3374000   284.48288      0.031564405    16.853051      705.80986     -55.19334       650.61652    
   3375000   297.30234      0.031564405    17.996285      737.61531     -49.008587      688.60672    
   3376000   318.04015      0.031564405    16.004499      789.06638     -46.008407      743.05797    
   3377000   300.57688      0.031564405    11.28381       745.73953     -43.129854      702.60968    
   3378000   299.94301      0.031564405    16.115208      744.16688     -43.753147      700.41374    
   3379000   293.96022      0.031564405    15.778585      729.32341     -42.783286      686.54012    
   3380000   311.94439      0.031564405    18.007971      773.94263     -42.482768      731.45986    
   3381000   303.53505      0.031564405    12.83638       753.07883     -49.553795      703.52504    
   3382000   295.62305      0.031564405    15.764062      733.44894     -48.396839      685.0521     
   3383000   305.66848      0.031564405    22.147969      758.37191     -53.348822      705.02309    
   3384000   297.67719      0.031564405    14.927476      738.54531     -50.608591      687.93672    
   3385000   300.60023      0.031564405    17.065961      745.79745     -55.518976      690.27847    
   3386000   283.94575      0.031564405    12.808583      704.47723     -58.445081      646.03215    
   3387000   298.11217      0.031564405    15.820149      739.62451     -54.480458      685.14406    
   3388000   294.63476      0.031564405    10.77178       730.99696     -55.321671      675.67529    
   3389000   290.33037      0.031564405    10.851906      720.31766     -61.056131      659.26153    
   3390000   303.09165      0.031564405    18.686639      751.97873     -50.202876      701.77585    
   3391000   302.52421      0.031564405    25.712465      750.57091     -55.54196       695.02895    
   3392000   300.3943       0.031564405    7.6913403      745.28653     -61.787088      683.49945    
   3393000   297.88854      0.031564405    14.861348      739.06968     -57.254467      681.81521    
   3394000   302.40949      0.031564405    33.924256      750.28628     -56.896444      693.38984    
   3395000   291.45978      0.031564405    6.8392695      723.11974     -54.736536      668.3832     
   3396000   299.14075      0.031564405    10.328264      742.17644     -48.278848      693.89759    
   3397000   304.95253      0.031564405    11.444964      756.59564     -48.1529        708.44274    
   3398000   306.59833      0.031564405    20.630537      760.6789      -48.000206      712.6787     
   3399000   295.26659      0.031564405    17.542908      732.56454     -53.666852      678.89769    
   3400000   297.2189       0.031564405    7.4207376      737.40829     -51.467363      685.94093    
   3401000   300.8743       0.031564405    29.82772       746.47743     -46.522892      699.95454    
   3402000   299.61377      0.031564405    13.765532      743.35003     -50.01488       693.33515    
   3403000   292.80819      0.031564405    3.0527973      726.46518     -47.408341      679.05684    
   3404000   301.55505      0.031564405    28.844326      748.1664      -44.892207      703.27419    
   3405000   292.75185      0.031564405    11.826995      726.32541     -51.781557      674.54385    
   3406000   304.38502      0.031564405    13.575417      755.18762     -54.176276      701.01134    
   3407000   295.69243      0.031564405    23.113449      733.62107     -57.480135      676.14094    
   3408000   286.99876      0.031564405    24.273976      712.05183     -55.322846      656.72899    
   3409000   293.66992      0.031564405    17.0916        728.60316     -46.710161      681.893      
   3410000   311.23396      0.031564405    12.034614      772.18003     -49.337384      722.84264    
   3411000   310.16716      0.031564405    19.631128      769.53326     -42.050543      727.48272    
   3412000   305.63987      0.031564405    24.465958      758.30095     -47.131227      711.16973    
   3413000   297.9239       0.031564405    23.546359      739.1574      -50.196544      688.96085    
   3414000   292.99443      0.031564405    9.7463322      726.92725     -54.361728      672.56552    
   3415000   321.875        0.031564405    18.216456      798.58074     -52.191376      746.38936    
   3416000   299.47836      0.031564405    28.471962      743.01408     -52.734516      690.27956    
   3417000   297.6176       0.031564405    20.715391      738.39748     -55.624536      682.77294    
   3418000   295.4227       0.031564405    18.16204       732.95187     -55.838495      677.11337    
   3419000   304.56236      0.031564405    8.5433268      755.6276      -55.102868      700.52473    
   3420000   303.00051      0.031564405    12.471701      751.75263     -52.01708       699.73555    
   3421000   316.45589      0.031564405    20.693713      785.13579     -54.606325      730.52946    
   3422000   297.65837      0.031564405    18.835645      738.49861     -49.964693      688.53392    
   3423000   308.25068      0.031564405    5.1439486      764.77844     -52.948477      711.82996    
   3424000   304.4728       0.031564405    18.019254      755.4054      -58.529907      696.87549    
   3425000   280.91497      0.031564405    17.163722      696.95779     -53.90497       643.05282    
   3426000   293.26671      0.031564405    12.563436      727.60279     -52.824349      674.77844    
   3427000   314.53437      0.031564405    16.876951      780.36843     -53.814458      726.55398    
   3428000   297.1897       0.031564405    18.345641      737.33584     -50.350291      686.98555    
   3429000   300.62113      0.031564405    18.740106      745.84931     -45.691226      700.15808    
   3430000   303.064        0.031564405    14.801513      751.91014     -49.121813      702.78833    
   3431000   287.28422      0.031564405    18.36163       712.76007     -49.589685      663.17038    
   3432000   301.14671      0.031564405    17.603402      747.15328     -55.628535      691.52475    
   3433000   306.50117      0.031564405    16.531327      760.43785     -48.489706      711.94814    
   3434000   289.27584      0.031564405    20.163997      717.70134     -55.066033      662.63531    
   3435000   295.56628      0.031564405    19.622913      733.30808     -53.322705      679.98537    
   3436000   313.70712      0.031564405    18.935701      778.316       -55.313166      723.00284    
   3437000   305.46165      0.031564405    10.286431      757.85877     -56.23902       701.61975    
   3438000   287.8729       0.031564405    11.687833      714.22061     -50.588937      663.63167    
   3439000   299.64252      0.031564405    18.858746      743.42134     -56.424238      686.99711    
   3440000   313.78888      0.031564405    26.313539      778.51886     -53.544028      724.97484    
   3441000   310.99426      0.031564405    12.337881      771.58534     -50.44098       721.14436    
   3442000   292.80937      0.031564405    16.928076      726.46811     -56.539727      669.92838    
   3443000   301.72041      0.031564405    16.58282       748.57666     -54.55786       694.0188     
   3444000   306.49577      0.031564405    21.931758      760.42445     -53.379146      707.0453     
   3445000   300.17546      0.031564405    5.0075918      744.74359     -57.622329      687.12126    
   3446000   288.31347      0.031564405    12.878939      715.31367     -60.272672      655.041      
   3447000   309.99103      0.031564405    18.939083      769.09629     -55.638158      713.45814    
   3448000   307.06284      0.031564405    17.67907       761.83136     -56.995836      704.83553    
   3449000   292.41338      0.031564405    13.713672      725.48566     -56.488909      668.99675    
   3450000   300.60635      0.031564405    13.378013      745.81265     -49.082428      696.73022    
   3451000   303.60667      0.031564405    15.513157      753.25653     -51.948231      701.3083     
   3452000   298.53543      0.031564405    15.674858      740.67464     -52.104816      688.56982    
   3453000   302.52155      0.031564405    17.878709      750.5643      -50.965417      699.59888    
   3454000   305.33628      0.031564405    16.882567      757.54772     -51.775289      705.77243    
   3455000   313.46617      0.031564405    18.455622      777.7182      -55.747341      721.97086    
   3456000   293.67757      0.031564405    11.219776      728.62216     -61.625149      666.99701    
   3457000   296.28325      0.031564405    20.978445      735.0869      -54.047117      681.03978    
   3458000   318.77165      0.031564405    18.425725      790.88126     -60.087641      730.79362    
   3459000   294.91866      0.031564405    6.9171301      731.70133     -64.472896      667.22844    
   3460000   286.26217      0.031564405    14.98359       710.22433     -55.829735      654.3946     
   3461000   295.9697       0.031564405    18.571729      734.30897     -48.982885      685.32609    
   3462000   293.82331      0.031564405    20.836793      728.98372     -45.320885      683.66283    
   3463000   301.48986      0.031564405    18.103369      748.00464     -45.630272      702.37437    
   3464000   306.82147      0.031564405    14.133777      761.23252     -49.929573      711.30295    
   3465000   305.11953      0.031564405    8.0080845      757.00996     -49.276351      707.73361    
   3466000   296.39485      0.031564405    19.01797       735.36379     -52.88893       682.47486    
   3467000   304.85181      0.031564405    18.313509      756.34574     -50.526052      705.81969    
   3468000   296.40066      0.031564405    13.887832      735.37821     -49.991431      685.38678    
   3469000   279.97159      0.031564405    12.93513       694.61722     -56.805904      637.81132    
   3470000   300.96611      0.031564405    11.800262      746.7052      -52.634462      694.07074    
   3471000   298.89881      0.031564405    18.282351      741.5762      -47.900868      693.67533    
   3472000   292.78509      0.031564405    17.109855      726.40787     -47.237694      679.17017    
   3473000   307.79263      0.031564405    11.326942      763.642       -53.128518      710.51349    
   3474000   300.94787      0.031564405    15.953038      746.65995     -50.802766      695.85718    
   3475000   299.1453       0.031564405    14.027594      742.18773     -52.182676      690.00505    
   3476000   289.65816      0.031564405    16.670647      718.64989     -51.944941      666.70495    
   3477000   310.96017      0.031564405    17.050612      771.50075     -58.532776      712.96797    
   3478000   308.1503       0.031564405    12.267956      764.52939     -57.13019       707.3992     
   3479000   288.45013      0.031564405    14.145941      715.65272     -55.586485      660.06623    
   3480000   305.82023      0.031564405    18.234284      758.74843     -54.086003      704.66243    
   3481000   308.34073      0.031564405    19.148865      765.00186     -57.59625       707.40561    
   3482000   292.42875      0.031564405    14.985043      725.5238      -49.421476      676.10232    
   3483000   298.34559      0.031564405    16.111711      740.20363     -55.643753      684.55988    
   3484000   315.18887      0.031564405    18.154785      781.99228     -55.756268      726.23602    
   3485000   314.78731      0.031564405    24.94578       780.996       -55.528371      725.46763    
   3486000   293.78471      0.031564405    17.789659      728.88796     -53.59768       675.29028    
   3487000   302.45395      0.031564405    6.8616892      750.39659     -46.458099      703.9385     
   3488000   297.41763      0.031564405    19.929305      737.90133     -51.794796      686.10654    
   3489000   295.90984      0.031564405    16.140316      734.16046     -46.560214      687.60024    
   3490000   296.90864      0.031564405    14.487268      736.63852     -45.803541      690.83498    
   3491000   307.53253      0.031564405    20.15508       762.99668     -49.64316       713.35352    
   3492000   308.25776      0.031564405    17.063796      764.796       -51.06294       713.73306    
   3493000   300.79976      0.031564405    18.592356      746.29249     -53.344143      692.94834    
   3494000   302.74432      0.031564405    17.906415      751.11701     -50.884589      700.23242    
   3495000   286.79237      0.031564405    13.83616       711.53978     -49.378503      662.16128    
   3496000   312.59139      0.031564405    13.112869      775.54786     -45.444013      730.10385    
   3497000   310.71464      0.031564405    21.103856      770.89159     -48.497734      722.39386    
   3498000   281.69558      0.031564405    23.841705      698.8945      -46.037425      652.85708    
   3499000   302.42056      0.031564405    7.4803974      750.31376     -57.909914      692.40384    
   3500000   312.12975      0.031564405    17.34315       774.40252     -60.495626      713.9069     
   3501000   293.50856      0.031564405    16.905141      728.20283     -57.346085      670.85674    
   3502000   301.8283       0.031564405    17.397258      748.84433     -54.374458      694.46987    
   3503000   294.7344       0.031564405    13.899494      731.24418     -51.792904      679.45128    
   3504000   293.01291      0.031564405    14.950697      726.9731      -55.997615      670.97548    
   3505000   324.389        0.031564405    18.952815      804.81804     -58.914944      745.9031     
   3506000   297.51063      0.031564405    14.044515      738.13207     -52.416341      685.71573    
   3507000   296.17774      0.031564405    3.0140249      734.82514     -54.560337      680.26481    
   3508000   297.24688      0.031564405    9.1825783      737.4777      -56.754213      680.72349    
   3509000   298.39677      0.031564405    14.050031      740.33061     -57.776617      682.55399    
   3510000   301.71519      0.031564405    14.480983      748.5637      -50.187736      698.37596    
   3511000   308.61759      0.031564405    18.923918      765.68875     -48.300112      717.38864    
   3512000   301.3561       0.031564405    15.488856      747.67278     -51.409647      696.26313    
   3513000   293.90854      0.031564405    17.62163       729.19518     -47.884775      681.3104     
   3514000   300.44211      0.031564405    21.41926       745.40515     -50.058157      695.34699    
   3515000   304.74786      0.031564405    14.130716      756.08784     -57.64361       698.44423    
   3516000   299.15268      0.031564405    17.637061      742.20603     -57.317673      684.88836    
   3517000   316.7024       0.031564405    27.907434      785.74737     -56.936661      728.81071    
   3518000   307.61439      0.031564405    4.683345       763.19978     -62.927121      700.27266    
   3519000   286.08705      0.031564405    12.394313      709.78985     -58.442478      651.34737    
   3520000   291.32298      0.031564405    23.752325      722.78035     -57.163975      665.61638    
   3521000   306.92169      0.031564405    11.461019      761.48118     -60.45068       701.0305     
   3522000   296.64303      0.031564405    18.655477      735.97954     -55.057846      680.92169    
   3523000   308.7677       0.031564405    26.488703      766.06117     -57.39946       708.66171    
   3524000   305.26491      0.031564405    14.516796      757.37065     -48.174707      709.19594    
   3525000   302.23121      0.031564405    10.029364      749.84397     -52.425823      697.41815    
   3526000   298.96906      0.031564405    19.887508      741.75049     -48.96185       692.78864    
   3527000   290.15153      0.031564405    13.661232      719.87394     -52.514774      667.35917    
   3528000   301.32006      0.031564405    21.040832      747.58337     -44.693017      702.89036    
   3529000   300.65731      0.031564405    17.678554      745.93908     -45.037787      700.9013     
   3530000   297.21763      0.031564405    14.061726      737.40514     -53.665544      683.7396     
   3531000   297.44069      0.031564405    22.50361       737.95856     -49.073844      688.88472    
   3532000   299.75699      0.031564405    17.122246      743.70536     -49.128473      694.57689    
   3533000   310.01344      0.031564405    14.163158      769.1519      -51.245002      717.9069     
   3534000   296.76942      0.031564405    11.140193      736.2931      -56.37406       679.91904    
   3535000   280.27825      0.031564405    17.072182      695.37806     -55.484454      639.8936     
   3536000   301.11392      0.031564405    20.98476       747.07195     -47.402867      699.66908    
   3537000   305.9754       0.031564405    18.463093      759.13341     -49.164758      709.96865    
   3538000   289.92214      0.031564405   -1.8060401      719.30481     -51.182989      668.12182    
   3539000   304.56833      0.031564405    23.423911      755.64241     -52.229385      703.41303    
   3540000   311.85123      0.031564405    26.725904      773.71151     -54.517347      719.19416    
   3541000   294.61946      0.031564405    10.006146      730.959       -48.690713      682.26828    
   3542000   295.14241      0.031564405    15.842179      732.25646     -48.037827      684.21863    
   3543000   296.92403      0.031564405    16.759346      736.67672     -47.766557      688.91016    
   3544000   295.10837      0.031564405    25.706484      732.17201     -49.526275      682.64574    
   3545000   302.20095      0.031564405    18.058343      749.76888     -48.799361      700.96952    
   3546000   314.7025       0.031564405    3.7877277      780.78558     -47.237817      733.54777    
   3547000   300.63627      0.031564405    15.482679      745.88688     -45.919034      699.96785    
   3548000   295.80493      0.031564405    13.510513      733.90018     -45.280579      688.6196     
   3549000   293.52317      0.031564405    17.81781       728.23908     -52.021545      676.21753    
   3550000   302.38993      0.031564405    17.67004       750.23776     -49.913187      700.32457    
   3551000   306.57434      0.031564405    16.057295      760.61938     -51.679542      708.93983    
   3552000   314.73379      0.031564405    20.183381      780.86321     -50.93282       729.93039    
   3553000   297.5557       0.031564405    19.56874       738.2439      -47.561743      690.68215    
   3554000   288.13099      0.031564405    14.064642      714.86094     -47.178514      667.68242    
   3555000   301.63794      0.031564405    12.046382      748.37205     -47.305076      701.06697    
   3556000   307.87149      0.031564405    8.4520948      763.83767     -47.435539      716.40213    
   3557000   295.01981      0.031564405    20.016641      731.95228     -45.502584      686.4497     
   3558000   291.7303       0.031564405    22.638475      723.7909      -44.138849      679.65205    
   3559000   300.05732      0.031564405    16.504556      744.45047     -51.138003      693.31247    
   3560000   305.36952      0.031564405    14.152798      757.6302      -54.400698      703.2295     
   3561000   300.00312      0.031564405    19.944025      744.31601     -52.717604      691.59841    
   3562000   297.71386      0.031564405    19.364269      738.63629     -51.367463      687.26883    
   3563000   297.29624      0.031564405    16.167163      737.60017     -44.50361       693.09656    
   3564000   303.56922      0.031564405    10.215658      753.16361     -45.647527      707.51608    
   3565000   311.81446      0.031564405    15.861298      773.62028     -50.265828      723.35445    
   3566000   300.32554      0.031564405    17.93931       745.11595     -48.179061      696.93689    
   3567000   297.21929      0.031564405    17.986954      737.40926     -51.820815      685.58844    
   3568000   298.38086      0.031564405    14.476755      740.29114     -50.720568      689.57057    
   3569000   303.6709       0.031564405    17.457506      753.41587     -50.676693      702.73918    
   3570000   303.89293      0.031564405    17.654012      753.96674     -52.381221      701.58552    
   3571000   302.04983      0.031564405    14.728553      749.39397     -50.91457       698.4794     
   3572000   286.6307       0.031564405    16.118074      711.13867     -52.455769      658.6829     
   3573000   292.3916       0.031564405    16.940739      725.43161     -53.551221      671.88039    
   3574000   303.75203      0.031564405    18.015976      753.61715     -62.309614      691.30754    
   3575000   309.80127      0.031564405    15.575735      768.62548     -58.426626      710.19886    
   3576000   296.20621      0.031564405    19.189895      734.89577     -55.649697      679.24607    
   3577000   295.70711      0.031564405    16.933208      733.65749     -55.895835      677.76166    
   3578000   300.88205      0.031564405    15.8427        746.49666     -61.623267      684.87339    
   3579000   309.61442      0.031564405    21.014863      768.16192     -56.189154      711.97276    
   3580000   293.42799      0.031564405    14.779792      728.00294     -62.770725      665.23222    
   3581000   293.14323      0.031564405    17.431068      727.29643     -66.7321        660.56433    
   3582000   318.11371      0.031564405    16.185186      789.24888     -67.036848      722.21203    
   3583000   297.54554      0.031564405    18.117217      738.21869     -60.172144      678.04654    
   3584000   285.31522      0.031564405    15.387889      707.87492     -59.644565      648.23035    
   3585000   308.93258      0.031564405    11.931342      766.47025     -62.422946      704.04731    
   3586000   309.01592      0.031564405    15.88757       766.67702     -58.061313      708.6157     
   3587000   293.99162      0.031564405    16.480374      729.4013      -62.951909      666.4494     
   3588000   299.01318      0.031564405    12.598616      741.85994     -60.829212      681.03073    
   3589000   308.49338      0.031564405    17.045336      765.38058     -63.672053      701.70853    
   3590000   292.14134      0.031564405    19.999636      724.81071     -54.645577      670.16514    
   3591000   298.27099      0.031564405    14.626669      740.01855     -58.465019      681.55353    
   3592000   299.73443      0.031564405    17.754686      743.64938     -53.254187      690.3952     
   3593000   292.12019      0.031564405    14.952695      724.75824     -57.196742      667.5615     
   3594000   308.9974       0.031564405    18.611675      766.63108     -54.882524      711.74855    
   3595000   302.47623      0.031564405    17.942243      750.45186     -60.241539      690.21032    
   3596000   296.61169      0.031564405    17.592684      735.90177     -55.829535      680.07224    
   3597000   305.60373      0.031564405    15.313074      758.21127     -53.441007      704.77027    
   3598000   311.4602       0.031564405    17.472632      772.74134     -54.203182      718.53816    
   3599000   300.74357      0.031564405    16.127558      746.15308     -58.42842       687.72466    
   3600000   290.37043      0.031564405    14.325702      720.41703     -49.841869      670.57516    
   3601000   301.98021      0.031564405    11.827215      749.22124     -51.053445      698.16779    
   3602000   307.27618      0.031564405    21.947447      762.36067     -52.944254      709.41641    
   3603000   300.40136      0.031564405    18.849067      745.30406     -46.975664      698.3284     
   3604000   294.44581      0.031564405    17.01604       730.52818     -44.0818        686.44637    
   3605000   307.3696       0.031564405    17.916327      762.59245     -41.663608      720.92884    
   3606000   301.46532      0.031564405    10.216727      747.94376     -46.649714      701.29405    
   3607000   296.8181       0.031564405    26.20532       736.41389     -48.12914       688.28475    
   3608000   285.72749      0.031564405    31.169408      708.89777     -48.560554      660.33722    
   3609000   301.35201      0.031564405    11.044347      747.66265     -49.67787       697.98478    
   3610000   312.87475      0.031564405    17.691786      776.25089     -46.97515       729.27574    
   3611000   293.98108      0.031564405    13.675256      729.37517     -56.569407      672.80577    
   3612000   287.56009      0.031564405    16.351187      713.4445      -56.585369      656.85913    
   3613000   304.72822      0.031564405    15.885611      756.03911     -57.494626      698.54448    
   3614000   308.60081      0.031564405    17.506071      765.64713     -56.95682       708.69031    
   3615000   303.01399      0.031564405    14.843682      751.78606     -56.159168      695.62689    
   3616000   297.44674      0.031564405    19.590174      737.97356     -58.325065      679.6485     
   3617000   296.12584      0.031564405    17.11149       734.69637     -60.590057      674.10631    
   3618000   311.20341      0.031564405    17.583119      772.10424     -63.236192      708.86805    
   3619000   290.79028      0.031564405    14.190058      721.4587      -62.993722      658.46498    
   3620000   300.76782      0.031564405    19.874972      746.21325     -60.221968      685.99129    
   3621000   300.84779      0.031564405    28.384264      746.41167     -57.118796      689.29287    
   3622000   314.20732      0.031564405    29.334669      779.55701     -56.219243      723.33777    
   3623000   306.14099      0.031564405    13.798825      759.54423     -53.184714      706.35952    
   3624000   297.48329      0.031564405    10.455646      738.06423     -46.366567      691.69766    
   3625000   278.37028      0.031564405    21.327718      690.64434     -52.294098      638.35024    
   3626000   298.37556      0.031564405    20.662544      740.27799     -52.0484        688.22959    
   3627000   302.49996      0.031564405    10.039539      750.51073     -51.409811      699.10092    
   3628000   300.32881      0.031564405    19.017362      745.12405     -46.617202      698.50685    
   3629000   292.32363      0.031564405    10.347209      725.26299     -48.610332      676.65265    
   3630000   284.4473       0.031564405    13.222727      705.72159     -50.110114      655.61147    
   3631000   307.10841      0.031564405    20.346026      761.94444     -51.040233      710.90421    
   3632000   313.28974      0.031564405    17.786161      777.28048     -45.408         731.87248    
   3633000   300.21337      0.031564405    16.043726      744.83766     -53.665325      691.17233    
   3634000   296.82596      0.031564405    16.509763      736.4334      -51.12096       685.31244    
   3635000   304.41078      0.031564405    13.894758      755.25153     -45.715581      709.53595    
   3636000   293.47387      0.031564405    16.900357      728.11675     -61.276144      666.8406     
   3637000   301.86915      0.031564405    17.869465      748.94567     -57.744827      691.20085    
   3638000   301.526        0.031564405    16.559304      748.09433     -54.895366      693.19896    
   3639000   288.9643       0.031564405    12.778214      716.9284      -54.805278      662.12312    
   3640000   300.01727      0.031564405    14.335145      744.35112     -51.834301      692.51682    
   3641000   305.13409      0.031564405    25.123173      757.04609     -53.360102      703.68599    
   3642000   304.78191      0.031564405    15.230064      756.17231     -56.153723      700.01859    
   3643000   314.38396      0.031564405    15.53896       779.99528     -57.621355      722.37393    
   3644000   290.42595      0.031564405    17.011492      720.55479     -57.932204      662.62258    
   3645000   297.82026      0.031564405    14.613167      738.90028     -61.983949      676.91633    
   3646000   311.4815       0.031564405    18.189881      772.79419     -58.523161      714.27103    
   3647000   300.97097      0.031564405    18.894132      746.71727     -62.958661      683.75861    
   3648000   310.84163      0.031564405    10.807761      771.20665     -64.566667      706.63998    
   3649000   297.72516      0.031564405    17.245856      738.66432     -59.687103      678.97722    
   3650000   310.65739      0.031564405    15.080992      770.74954     -59.517264      711.23228    
   3651000   298.04224      0.031564405    24.419979      739.45101     -58.907844      680.54317    
   3652000   307.04204      0.031564405    15.534803      761.77978     -54.841081      706.9387     
   3653000   320.00557      0.031564405    18.231454      793.94263     -50.330383      743.61225    
   3654000   291.19388      0.031564405    13.922568      722.46003     -56.875157      665.58487    
   3655000   283.90853      0.031564405    16.661126      704.38488     -53.375913      651.00897    
   3656000   297.5257       0.031564405    15.31904       738.16946     -61.507259      676.6622     
   3657000   304.75713      0.031564405    18.845787      756.11085     -53.325771      702.78507    
   3658000   314.05673      0.031564405    17.323515      779.18341     -54.17832       725.00509    
   3659000   289.69964      0.031564405    14.848669      718.7528      -50.768372      667.98443    
   3660000   300.38637      0.031564405    14.558368      745.26687     -51.51475       693.75212    
   3661000   295.84082      0.031564405    13.852573      733.98923     -51.664861      682.32437    
   3662000   294.47752      0.031564405    18.055975      730.60685     -50.285854      680.321      
   3663000   304.16127      0.031564405    18.030981      754.63249     -50.577416      704.05507    
   3664000   305.57658      0.031564405    16.318744      758.14393     -54.641899      703.50203    
   3665000   287.67554      0.031564405    6.8369746      713.73095     -58.197383      655.53357    
   3666000   296.01117      0.031564405    14.131689      734.41187     -61.682526      672.72934    
   3667000   291.83088      0.031564405    20.292412      724.04046     -57.211444      666.82902    
   3668000   289.43778      0.031564405    13.37581       718.1031      -59.600979      658.50213    
   3669000   300.24622      0.031564405    27.680996      744.91914     -46.225391      698.69375    
   3670000   304.89007      0.031564405    11.285814      756.44066     -46.555239      709.88542    
   3671000   303.88437      0.031564405    11.747345      753.94551     -41.615555      712.32995    
   3672000   306.32433      0.031564405    18.037223      759.99911     -46.438344      713.56077    
   3673000   302.12992      0.031564405    20.704255      749.59267     -52.259891      697.33277    
   3674000   295.58853      0.031564405    16.389749      733.36329     -51.322478      682.04082    
   3675000   306.58654      0.031564405    12.578887      760.64967     -55.047442      705.60223    
   3676000   298.27642      0.031564405    17.696835      740.03203     -51.551639      688.48039    
   3677000   302.06758      0.031564405    31.766175      749.43798     -54.805198      694.63279    
   3678000   286.64874      0.031564405    10.64714       711.18342     -50.614617      660.5688     
   3679000   290.08241      0.031564405    14.321479      719.70246     -47.397459      672.305      
   3680000   313.82793      0.031564405    19.677213      778.61575     -46.326521      732.28922    
   3681000   309.41078      0.031564405    17.386918      767.65667     -52.128219      715.52845    
   3682000   294.8921       0.031564405    16.699005      731.63542     -57.047855      674.58756    
   3683000   305.46945      0.031564405    12.07669       757.87814     -54.335119      703.54302    
   3684000   308.14496      0.031564405    16.652267      764.51613     -53.411087      711.10504    
   3685000   289.11805      0.031564405    13.137492      717.30984     -51.472534      665.83731    
   3686000   303.03137      0.031564405    22.666653      751.82917     -54.948342      696.88083    
   3687000   313.98944      0.031564405    18.320028      779.01647     -51.275766      727.7407     
   3688000   307.70766      0.031564405    11.09015       763.4312      -53.768009      709.66319    
   3689000   292.16728      0.031564405    18.606917      724.87508     -54.502675      670.3724     
   3690000   302.70114      0.031564405    19.97396       751.00987     -54.739975      696.26989    
   3691000   308.77361      0.031564405    16.28308       766.07583     -53.063101      713.01273    
   3692000   303.54477      0.031564405    16.823189      753.10295     -51.254363      701.84859    
   3693000   295.89714      0.031564405    23.974914      734.12897     -52.500363      681.6286     
   3694000   288.51176      0.031564405    13.243462      715.80563     -58.304948      657.50068    
   3695000   308.25497      0.031564405    10.528147      764.78908     -61.195236      703.59384    
   3696000   289.55787      0.031564405    23.590378      718.40105     -62.296121      656.10493    
   3697000   295.09112      0.031564405    10.652951      732.1292      -60.32182       671.80738    
   3698000   302.55894      0.031564405    15.156041      750.65706     -57.68777       692.96929    
   3699000   302.94571      0.031564405    34.549081      751.61666     -58.64614       692.97052    
   3700000   299.99999      0.031564405    12.401977      744.30824     -51.173874      693.13437    
   3701000   301.85082      0.031564405    7.88613        748.90022     -48.23125       700.66897    
   3702000   304.92342      0.031564405    21.356777      756.52342     -50.97099       705.55243    
   3703000   303.72457      0.031564405    21.953766      753.54903     -49.845093      703.70394    
   3704000   301.93484      0.031564405    8.4592799      749.10866     -59.643358      689.4653     
   3705000   312.52675      0.031564405    4.0176207      775.38747     -58.819422      716.56805    
   3706000   305.8813       0.031564405    15.178529      758.89993     -59.630451      699.26948    
   3707000   304.01857      0.031564405    33.484798      754.27844     -56.006941      698.2715     
   3708000   285.51365      0.031564405    25.285721      708.36723     -55.94907       652.41816    
   3709000   305.21957      0.031564405    14.28838       757.25817     -56.297328      700.96084    
   3710000   295.16436      0.031564405    16.258712      732.31091     -55.922873      676.38803    
   3711000   304.96975      0.031564405    15.96123       756.63836     -61.814417      694.82394    
   3712000   314.58477      0.031564405    18.192474      780.49348     -61.194143      719.29933    
   3713000   288.99538      0.031564405    17.353447      717.00551     -61.885959      655.11955    
   3714000   287.93782      0.031564405    16.627249      714.38166     -59.071589      655.31007    
   3715000   303.91549      0.031564405    14.884835      754.0227      -52.628902      701.3938     
   3716000   311.5771       0.031564405    19.884594      773.03138     -58.732086      714.2993     
   3717000   281.43511      0.031564405    14.646091      698.24828     -63.925653      634.32262    
   3718000   297.47807      0.031564405    16.398182      738.05128     -63.498128      674.55315    
   3719000   314.77664      0.031564405    13.743977      780.96952     -57.895939      723.07358    
   3720000   301.81933      0.031564405    14.979375      748.82208     -54.517615      694.30446    
   3721000   294.30343      0.031564405    14.219846      730.17493     -53.13405       677.04088    
   3722000   308.62766      0.031564405    28.798358      765.71374     -54.366304      711.34744    
   3723000   305.32146      0.031564405    15.53591       757.51096     -52.437185      705.07378    
   3724000   295.31308      0.031564405    15.9146        732.67989     -50.314167      682.36573    
   3725000   300.43867      0.031564405    21.993991      745.39662     -54.598459      690.79816    
   3726000   309.23732      0.031564405    18.543763      767.22631     -49.536654      717.68966    
   3727000   302.71708      0.031564405    15.910361      751.04941     -51.90472       699.14469    
   3728000   293.086        0.031564405    16.160344      727.15444     -56.516012      670.63843    
   3729000   301.47094      0.031564405    17.23195       747.95772     -55.670743      692.28697    
   3730000   316.22647      0.031564405    12.06332       784.56659     -52.18501       732.38158    
   3731000   312.38084      0.031564405    15.635833      775.02548     -49.522409      725.50308    
   3732000   291.15097      0.031564405    18.346692      722.35359     -53.972138      668.38145    
   3733000   286.58681      0.031564405    17.398092      711.02977     -53.567352      657.46242    
   3734000   295.1318       0.031564405    17.358981      732.23014     -57.801733      674.4284     
   3735000   325.0456       0.031564405    18.065645      806.4471      -58.639225      747.80788    
   3736000   297.94602      0.031564405    14.670963      739.21229     -57.243491      681.9688     
   3737000   285.57369      0.031564405    11.386502      708.5162      -56.06254       652.45366    
   3738000   312.80383      0.031564405    12.184137      776.07491     -54.778043      721.29687    
   3739000   309.35928      0.031564405    24.421571      767.52891     -54.860343      712.66857    
   3740000   300.75612      0.031564405    21.024941      746.18422     -52.618347      693.56587    
   3741000   280.79784      0.031564405    10.660654      696.66718     -47.416906      649.25028    
   3742000   302.81686      0.031564405    15.427859      751.29698     -51.432203      699.86478    
   3743000   313.75021      0.031564405    14.75281       778.42292     -56.768051      721.65487    
   3744000   300.17012      0.031564405    23.760715      744.73034     -51.322909      693.40743    
   3745000   293.53683      0.031564405    16.220011      728.27297     -56.414722      671.85825    
   3746000   298.064        0.031564405    14.292844      739.505       -50.7044        688.8006     
   3747000   300.90682      0.031564405    14.918277      746.55811     -54.141246      692.41687    
   3748000   305.3316       0.031564405    14.760336      757.53611     -58.238338      699.29777    
   3749000   287.83477      0.031564405    16.877023      714.12599     -52.802604      661.32338    
   3750000   304.83886      0.031564405    16.540454      756.31362     -60.045466      696.26815    
   3751000   291.47646      0.031564405    15.741292      723.16112     -58.587207      664.57392    
   3752000   299.94387      0.031564405    16.950892      744.16901     -57.0592        687.10981    
   3753000   302.81561      0.031564405    15.40621       751.29388     -56.91168       694.3822     
   3754000   303.7294       0.031564405    17.465605      753.56101     -52.81365       700.74736    
   3755000   308.62719      0.031564405    18.867379      765.71257     -53.135504      712.57706    
   3756000   293.37642      0.031564405    12.400623      727.87498     -54.583199      673.29178    
   3757000   298.3934       0.031564405    18.87128       740.32225     -55.951907      684.37034    
   3758000   306.92149      0.031564405    20.957224      761.48067     -61.654167      699.8265     
   3759000   312.12097      0.031564405    24.393082      774.38072     -58.542586      715.83813    
   3760000   308.61865      0.031564405    1.0882532      765.69139     -63.186645      702.50474    
   3761000   290.16709      0.031564405    2.1397047      719.91255     -57.903768      662.00879    
   3762000   303.31731      0.031564405    20.193964      752.5386      -57.847559      694.69104    
   3763000   303.02239      0.031564405    4.687772       751.80691     -49.696214      702.11069    
   3764000   292.00651      0.031564405    11.361234      724.4762      -57.850831      666.62536    
   3765000   302.10283      0.031564405    24.376354      749.52545     -55.466883      694.05856    
   3766000   302.25913      0.031564405    16.51171       749.91323     -56.225603      693.68763    
   3767000   300.00102      0.031564405    10.779009      744.31081     -54.76915       689.54166    
   3768000   299.67237      0.031564405    13.061286      743.49541     -51.932942      691.56247    
   3769000   286.46016      0.031564405    14.175656      710.71556     -51.731295      658.98427    
   3770000   295.98954      0.031564405    19.004271      734.35821     -53.449169      680.90904    
   3771000   319.39884      0.031564405    17.771788      792.43733     -50.605503      741.83183    
   3772000   304.42648      0.031564405    6.8426824      755.29048     -47.029227      708.26126    
   3773000   287.00271      0.031564405    16.159343      712.06165     -51.260112      660.80154    
   3774000   310.67367      0.031564405    16.59806       770.78993     -56.206374      714.58356    
   3775000   310.04951      0.031564405    20.115213      769.24137     -56.755251      712.48612    
   3776000   297.69666      0.031564405    7.0311603      738.59362     -57.605285      680.98834    
   3777000   275.38892      0.031564405    12.903931      683.24751     -56.918669      626.32884    
   3778000   294.94846      0.031564405    17.192234      731.77525     -59.861182      671.91407    
   3779000   307.24526      0.031564405    17.880995      762.28397     -58.323921      703.96005    
   3780000   302.70201      0.031564405    15.922469      751.01204     -60.169865      690.84217    
   3781000   304.69345      0.031564405    16.959144      755.95285     -55.09737       700.85548    
   3782000   301.23603      0.031564405    17.194637      747.37489     -56.937173      690.43772    
   3783000   300.41293      0.031564405    16.246804      745.33275     -56.400257      688.93249    
   3784000   304.10528      0.031564405    11.364824      754.49357     -56.302957      698.19061    
   3785000   308.06971      0.031564405    23.422524      764.32944     -62.132811      702.19663    
   3786000   293.08826      0.031564405    19.315857      727.16004     -51.885697      675.27434    
   3787000   309.31595      0.031564405    11.508206      767.42139     -56.462365      710.95903    
   3788000   303.09805      0.031564405    15.051233      751.99461     -57.027946      694.96667    
   3789000   298.32432      0.031564405    21.537061      740.15086     -55.447183      684.70368    
   3790000   301.35245      0.031564405    16.988628      747.66373     -64.271445      683.39228    
   3791000   308.03561      0.031564405    13.715577      764.24485     -54.637779      709.60707    
   3792000   300.01262      0.031564405    17.553577      744.33958     -53.034552      691.30503    
   3793000   291.55162      0.031564405    15.930421      723.3476      -50.553149      672.79446    
   3794000   308.92299      0.031564405    16.117737      766.44645     -55.225328      711.22112    
   3795000   309.78382      0.031564405    17.478826      768.58221     -58.941486      709.64072    
   3796000   303.41632      0.031564405    15.888461      752.78426     -55.797205      696.98706    
   3797000   301.68102      0.031564405    15.92073       748.47892     -55.49556       692.98336    
   3798000   290.7911       0.031564405    14.070548      721.46074     -54.776747      666.68399    
   3799000   288.45634      0.031564405    15.653284      715.66814     -56.292849      659.37529    
   3800000   309.42619      0.031564405    16.334357      767.6949      -56.760924      710.93398    
   3801000   309.29796      0.031564405    20.589995      767.37675     -49.76871       717.60804    
   3802000   297.63154      0.031564405    15.646221      738.43205     -49.843203      688.58885    
   3803000   299.02328      0.031564405    17.810291      741.885       -51.24475       690.64025    
   3804000   305.84365      0.031564405    17.76784       758.80651     -48.387379      710.41913    
   3805000   296.89964      0.031564405    12.945275      736.61619     -48.675754      687.94044    
   3806000   301.09355      0.031564405    22.762555      747.02139     -51.278764      695.74263    
   3807000   299.36153      0.031564405    17.930129      742.7242      -57.605827      685.11837    
   3808000   308.20839      0.031564405    14.868091      764.67351     -52.436503      712.237      
   3809000   302.6456       0.031564405    10.087316      750.87207     -49.613364      701.25871    
   3810000   283.90883      0.031564405    21.329118      704.38564     -43.571001      660.81464    
   3811000   298.92132      0.031564405    16.609244      741.63204     -44.219746      697.4123     
   3812000   298.05213      0.031564405    13.484711      739.47555     -50.310403      689.16515    
   3813000   303.30835      0.031564405    16.010427      752.51637     -54.366386      698.14999    
   3814000   310.64014      0.031564405    16.720816      770.70674     -46.280704      724.42604    
   3815000   305.6637       0.031564405    15.189137      758.36005     -57.102798      701.25726    
   3816000   291.89708      0.031564405    11.949021      724.2047      -56.345729      667.85897    
   3817000   293.15453      0.031564405    17.649556      727.32447     -50.622936      676.70153    
   3818000   300.51201      0.031564405    14.132803      745.57859     -51.225055      694.35354    
   3819000   311.99412      0.031564405    17.767869      774.06601     -50.027248      724.03876    
   3820000   298.84861      0.031564405    16.683146      741.45163     -51.532972      689.91866    
   3821000   291.36124      0.031564405    15.277686      722.87527     -52.489044      670.38623    
   3822000   302.29746      0.031564405    16.170471      750.00834     -48.517405      701.49094    
   3823000   319.49938      0.031564405    19.476729      792.68677     -54.783495      737.90327    
   3824000   291.63587      0.031564405    20.721999      723.55663     -52.47855       671.07808    
   3825000   289.45078      0.031564405    17.949059      718.13536     -46.311149      671.82421    
   3826000   290.59076      0.031564405    5.8883339      720.96369     -47.809739      673.15395    
   3827000   322.97685      0.031564405    11.595673      801.31447     -47.604245      753.71023    
   3828000   306.51132      0.031564405    18.140032      760.46303     -42.879933      717.58309    
   3829000   292.04104      0.031564405    20.482559      724.56187     -49.158066      675.40381    
   3830000   290.76298      0.031564405    16.443237      721.39098     -53.105152      668.28582    
   3831000   318.2498       0.031564405    16.658863      789.58651     -50.789886      738.79663    
   3832000   312.39733      0.031564405    18.286574      775.0664      -52.504736      722.56166    
   3833000   289.44852      0.031564405    17.740998      718.12976     -49.491025      668.63873    
   3834000   296.75358      0.031564405    10.684533      736.25382     -41.886402      694.36741    
   3835000   302.91236      0.031564405    25.389053      751.53391     -58.255468      693.27844    
   3836000   295.98773      0.031564405    12.389404      734.35372     -49.47113       684.88259    
   3837000   294.64685      0.031564405    15.219519      731.02697     -51.135865      679.8911     
   3838000   298.8986       0.031564405    16.897142      741.57567     -53.146988      688.42868    
   3839000   307.29141      0.031564405    32.183925      762.39847     -47.770647      714.62782    
   3840000   291.43074      0.031564405    12.906069      723.0477      -50.385935      672.66176    
   3841000   280.33554      0.031564405    14.378898      695.52021     -50.61502       644.90519    
   3842000   308.4804       0.031564405    11.916632      765.34838     -56.031521      709.31686    
   3843000   302.32183      0.031564405    16.688971      750.06879     -55.820644      694.24814    
   3844000   301.31069      0.031564405    17.374103      747.56013     -58.09435       689.46578    
   3845000   293.80736      0.031564405    16.625549      728.94415     -60.182597      668.76156    
   3846000   309.83212      0.031564405    11.66811       768.70204     -62.517485      706.18455    
   3847000   305.40681      0.031564405    16.056007      757.72271     -62.175434      695.54727    
   3848000   303.69651      0.031564405    18.710856      753.47942     -63.071409      690.40801    
   3849000   295.74905      0.031564405    16.462384      733.76155     -54.921939      678.83961    
   3850000   310.41466      0.031564405    13.863525      770.14732     -54.024381      716.12294    
   3851000   307.44811      0.031564405    15.320623      762.78723     -58.075137      704.7121     
   3852000   304.46558      0.031564405    15.710517      755.3875      -50.791397      704.59611    
   3853000   289.12257      0.031564405    14.044141      717.32108     -49.172016      668.14906    
   3854000   300.47465      0.031564405    17.084054      745.48589     -54.008543      691.47735    
   3855000   298.4091       0.031564405    20.076776      740.36121     -53.282637      687.07857    
   3856000   298.60556      0.031564405    17.342564      740.84863     -58.271807      682.57682    
   3857000   300.21339      0.031564405    12.711561      744.83768     -61.827314      683.01037    
   3858000   302.72387      0.031564405    18.83281       751.06626     -57.179326      693.88694    
   3859000   303.7407       0.031564405    17.076258      753.58904     -57.239419      696.34962    
   3860000   283.67447      0.031564405    8.9226283      703.80417     -56.269362      647.53481    
   3861000   287.64664      0.031564405    21.832227      713.65925     -49.377278      664.28198    
   3862000   310.96376      0.031564405    22.923467      771.50967     -50.962601      720.54707    
   3863000   312.13674      0.031564405    15.114493      774.41985     -51.06492       723.35493    
   3864000   285.49106      0.031564405    8.8009883      708.3112      -46.75999       661.55121    
   3865000   300.31781      0.031564405    28.45902       745.09677     -46.547015      698.54975    
   3866000   305.06798      0.031564405    19.787996      756.88206     -53.272831      703.60923    
   3867000   297.57487      0.031564405    15.178251      738.29146     -50.96682       687.32464    
   3868000   293.5253       0.031564405    15.13963       728.24436     -50.327011      677.91735    
   3869000   314.67191      0.031564405    31.172729      780.70969     -55.384017      725.32567    
   3870000   310.83839      0.031564405    12.162456      771.19861     -49.152668      722.04594    
   3871000   305.78131      0.031564405    1.6119733      758.65187     -54.494201      704.15767    
   3872000   294.67483      0.031564405    7.1537973      731.09637     -53.76885       677.32752    
   3873000   294.16288      0.031564405    7.7103694      729.82622     -48.571538      681.25468    
   3874000   287.2289       0.031564405    10.514713      712.62281     -54.843182      657.77963    
   3875000   309.1682       0.031564405    17.734557      767.05483     -61.205419      705.84942    
   3876000   311.78736      0.031564405    22.645199      773.55303     -60.296869      713.25616    
   3877000   295.88188      0.031564405    10.747867      734.09111     -60.977403      673.11371    
   3878000   296.85557      0.031564405    4.5537832      736.50685     -53.016288      683.49056    
   3879000   297.02492      0.031564405    25.194925      736.92702     -55.82532       681.1017     
   3880000   307.78376      0.031564405    20.211774      763.62        -59.613115      704.00688    
   3881000   302.90957      0.031564405    6.2633475      751.52698     -51.630164      699.89682    
   3882000   291.97817      0.031564405    24.464477      724.40588     -53.585148      670.82073    
   3883000   311.38601      0.031564405    21.676735      772.55727     -51.59055       720.96672    
   3884000   298.97821      0.031564405    14.849281      741.77319     -50.470978      691.30221    
   3885000   290.36554      0.031564405    9.8667107      720.40491     -53.060847      667.34407    
   3886000   291.60608      0.031564405    16.534698      723.48272     -52.344701      671.13802    
   3887000   304.49477      0.031564405    21.673275      755.45992     -60.755135      694.70479    
   3888000   295.67379      0.031564405    16.647044      733.57482     -56.41813       677.15669    
   3889000   299.65502      0.031564405    20.511382      743.45237     -50.682824      692.76954    
   3890000   317.59804      0.031564405    6.4224362      787.96949     -56.767187      731.20231    
   3891000   292.81913      0.031564405    11.780867      726.49234     -55.273245      671.21909    
   3892000   292.88098      0.031564405    16.398947      726.64577     -55.355245      671.29053    
   3893000   304.42949      0.031564405    29.627934      755.29797     -56.709999      698.58797    
   3894000   304.31103      0.031564405    22.160902      755.00405     -57.57382       697.43023    
   3895000   303.03438      0.031564405    12.090033      751.83665     -52.620404      699.21624    
   3896000   301.47088      0.031564405    12.06783       747.95756     -53.939819      694.01774    
   3897000   298.82516      0.031564405    18.565562      741.39347     -52.452892      688.94058    
   3898000   293.11678      0.031564405    10.329602      727.23082     -50.587076      676.64375    
   3899000   297.86479      0.031564405    12.023413      739.01075     -52.545146      686.46561    
   3900000   309.44616      0.031564405    28.290904      767.74446     -54.546198      713.19826    
   3901000   290.60248      0.031564405    20.288926      720.99277     -52.635484      668.35728    
   3902000   301.81259      0.031564405    11.526242      748.80536     -56.734888      692.07047    
   3903000   299.14753      0.031564405    11.746135      742.19326     -53.289137      688.90412    
   3904000   304.00029      0.031564405    25.587123      754.23309     -50.197643      704.03545    
   3905000   297.84002      0.031564405    13.533442      738.94929     -52.903023      686.04627    
   3906000   313.21472      0.031564405    18.495024      777.09436     -56.97256       720.1218     
   3907000   298.85586      0.031564405    32.636558      741.46963     -58.616775      682.85286    
   3908000   297.15502      0.031564405    11.059644      737.2498      -60.136107      677.11369    
   3909000   312.63427      0.031564405    10.396295      775.65424     -61.479395      714.17485    
   3910000   300.39374      0.031564405    43.540809      745.28514     -57.239134      688.04601    
   3911000   288.22817      0.031564405    11.545012      715.10204     -56.301284      658.80076    
   3912000   312.62356      0.031564405    11.732031      775.62766     -49.649169      725.97849    
   3913000   321.01839      0.031564405    20.942539      796.45547     -52.693613      743.76185    
   3914000   285.0612       0.031564405    13.030978      707.24469     -57.060185      650.18451    
   3915000   294.2222       0.031564405    16.121667      729.9734      -64.21372       665.75968    
   3916000   312.22563      0.031564405    17.783553      774.64039     -59.079981      715.56041    
   3917000   300.8421       0.031564405    16.284579      746.39755     -60.96283       685.43472    
   3918000   289.67915      0.031564405    13.26607       718.70195     -59.661061      659.04089    
   3919000   300.63249      0.031564405    13.887453      745.87749     -54.97622       690.90127    
   3920000   318.98628      0.031564405    20.88919       791.41375     -61.533823      729.87992    
   3921000   294.55549      0.031564405    17.215516      730.80029     -60.133185      670.6671     
   3922000   295.79815      0.031564405    14.928741      733.88337     -58.443835      675.43953    
   3923000   313.54593      0.031564405    15.438949      777.9161      -56.453209      721.4629     
   3924000   305.97718      0.031564405    25.223392      759.13781     -54.817299      704.32052    
   3925000   285.89186      0.031564405    14.391982      709.30557     -53.635541      655.67003    
   3926000   297.62338      0.031564405    15.660758      738.41182     -55.003585      683.40824    
   3927000   305.72943      0.031564405    15.913566      758.52315     -56.763421      701.75972    
   3928000   282.75352      0.031564405    14.573746      701.51928     -49.915492      651.60379    
   3929000   296.14165      0.031564405    17.173249      734.7356      -46.733953      688.00165    
   3930000   303.66934      0.031564405    15.452008      753.412       -48.424849      704.98715    
   3931000   305.92515      0.031564405    9.6973829      759.00872     -53.353315      705.6554     
   3932000   297.2989       0.031564405    28.908501      737.60677     -48.850221      688.75655    
   3933000   304.91915      0.031564405    39.663334      756.51282     -48.294488      708.21834    
   3934000   309.22907      0.031564405    10.329419      767.20586     -48.406738      718.79912    
   3935000   298.00565      0.031564405    15.461698      739.36022     -60.059319      679.30091    
   3936000   286.49002      0.031564405    18.154988      710.78964     -51.755848      659.03379    
   3937000   296.57615      0.031564405    25.62501       735.8136      -57.303683      678.50991    
   3938000   313.2927       0.031564405    22.327273      777.28782     -62.125943      715.16187    
   3939000   308.16503      0.031564405   -0.39267299     764.56594     -57.394114      707.17183    
   3940000   301.69114      0.031564405    15.524416      748.50402     -56.803876      691.70015    
   3941000   300.79597      0.031564405    31.784473      746.2831      -51.835531      694.44757    
   3942000   304.02415      0.031564405    16.068931      754.2923      -59.762989      694.52931    
   3943000   308.50169      0.031564405    8.706682       765.40119     -63.09741       702.30378    
   3944000   294.56618      0.031564405    12.827568      730.82681     -62.429507      668.3973     
   3945000   308.22147      0.031564405    24.740761      764.70596     -57.287549      707.41841    
   3946000   303.04349      0.031564405    2.0233904      751.85925     -61.686992      690.17226    
   3947000   285.76018      0.031564405    18.742757      708.97889     -52.704298      656.27459    
   3948000   311.80329      0.031564405    19.901057      773.59257     -50.445972      723.1466     
   3949000   301.87229      0.031564405    5.0729322      748.95346     -56.758948      692.19451    
   3950000   286.985        0.031564405    18.062339      712.0177      -54.477686      657.54002    
   3951000   305.04875      0.031564405    19.285637      756.83435     -51.764191      705.07016    
   3952000   304.4678       0.031564405    13.05625       755.39302     -54.94879       700.44423    
   3953000   300.89732      0.031564405    16.082239      746.53455     -55.575079      690.95947    
   3954000   294.73476      0.031564405    18.257758      731.24507     -47.19608       684.04899    
   3955000   304.62571      0.031564405    15.845248      755.78479     -46.354226      709.43056    
   3956000   303.01425      0.031564405    11.400405      751.78671     -49.651535      702.13518    
   3957000   297.8837       0.031564405    24.159454      739.05768     -53.215992      685.84169    
   3958000   307.08247      0.031564405    18.856314      761.88007     -57.781829      704.09824    
   3959000   304.86436      0.031564405    13.334541      756.37689     -53.811017      702.56587    
   3960000   302.60264      0.031564405    14.002979      750.76548     -54.682929      696.08256    
   3961000   301.7225       0.031564405    22.21625       748.58183     -56.000335      692.5815     
   3962000   294.08238      0.031564405    7.4673333      729.62648     -58.785696      670.84079    
   3963000   296.0451       0.031564405    12.189885      734.49606     -64.301042      670.19502    
   3964000   300.34492      0.031564405    21.129587      745.16402     -60.970062      684.19396    
   3965000   309.26561      0.031564405    18.795337      767.29651     -56.709519      710.58699    
   3966000   278.33966      0.031564405    11.982105      690.56836     -56.663312      633.90505    
   3967000   296.04457      0.031564405    14.815926      734.49473     -59.355498      675.13923    
   3968000   318.44249      0.031564405    13.98904       790.0646      -54.676832      735.38776    
   3969000   315.48728      0.031564405    15.586252      782.73264     -65.816799      716.91584    
   3970000   288.59272      0.031564405    17.233725      716.0065      -61.842844      654.16365    
   3971000   292.25266      0.031564405    16.596615      725.0869      -58.777625      666.30928    
   3972000   290.95918      0.031564405    19.996219      721.87775     -66.782097      655.09565    
   3973000   309.90501      0.031564405    16.97354       768.88286     -64.22605       704.65681    
   3974000   297.34858      0.031564405    14.962478      737.73002     -60.167558      677.56246    
   3975000   290.20632      0.031564405    15.675247      720.00987     -58.168677      661.84119    
   3976000   309.58014      0.031564405    14.232404      768.07685     -56.778941      711.29791    
   3977000   305.93499      0.031564405    16.796863      759.03315     -58.655226      700.37793    
   3978000   282.58248      0.031564405    19.041713      701.09492     -54.777588      646.31733    
   3979000   293.47549      0.031564405    17.016636      728.12078     -54.073337      674.04744    
   3980000   306.43693      0.031564405    16.135069      760.27847     -57.026188      703.25228    
   3981000   298.02985      0.031564405    10.290527      739.42028     -61.753617      677.66667    
   3982000   291.88792      0.031564405    16.573848      724.18198     -62.517186      661.66479    
   3983000   306.66755      0.031564405    22.359659      760.85065     -61.777635      699.07301    
   3984000   307.15783      0.031564405    17.159207      762.06705     -62.027283      700.03977    
   3985000   303.85619      0.031564405    14.921737      753.87559     -63.884118      689.99147    
   3986000   285.86493      0.031564405    10.401305      709.23877     -59.302052      649.93671    
   3987000   299.13032      0.031564405    10.382641      742.15057     -56.247304      685.90327    
   3988000   309.63491      0.031564405    13.565575      768.21274     -55.015137      713.1976     
   3989000   305.80024      0.031564405    20.406491      758.69883     -59.326389      699.37244    
   3990000   295.57581      0.031564405    16.155497      733.33173     -56.75187       676.57986    
   3991000   292.69982      0.031564405   -3.0774726      726.19632     -56.744497      669.45182    
   3992000   309.54713      0.031564405    13.985229      767.99496     -62.966022      705.02894    
   3993000   288.30677      0.031564405    22.013027      715.29705     -60.919749      654.3773     
   3994000   293.57192      0.031564405    14.518116      728.36002     -57.662967      670.69705    
   3995000   303.54231      0.031564405    16.009738      753.09684     -64.100836      688.996      
   3996000   300.04148      0.031564405    26.533402      744.41119     -66.407646      678.00354    
   3997000   298.58038      0.031564405    1.0501254      740.78615     -62.290374      678.49578    
   3998000   297.44382      0.031564405    17.413567      737.96631     -58.718429      679.24788    
   3999000   304.60442      0.031564405    19.876041      755.73197     -56.625553      699.10642    
   4000000   302.70224      0.031564405    15.614521      751.0126      -65.207717      685.80488    
Loop time of 5388.89 on 1 procs for 4000000 steps with 1500 atoms

Performance: 16.033 ns/day, 1.497 hours/ns, 742.268 timesteps/s, 1.113 Matom-step/s
100.0% CPU use with 1 MPI tasks x 1 OpenMP threads

MPI task timing breakdown:
Section |  min time  |  avg time  |  max time  |%varavg| %total
---------------------------------------------------------------
Pair    | 492.9      | 492.9      | 492.9      |   0.0 |  9.15
Bond    | 104.43     | 104.43     | 104.43     |   0.0 |  1.94
Kspace  | 4206.1     | 4206.1     | 4206.1     |   0.0 | 78.05
Neigh   | 0.03038    | 0.03038    | 0.03038    |   0.0 |  0.00
Comm    | 26.744     | 26.744     | 26.744     |   0.0 |  0.50
Output  | 0.10338    | 0.10338    | 0.10338    |   0.0 |  0.00
Modify  | 544.51     | 544.51     | 544.51     |   0.0 | 10.10
Other   |            | 14.1       |            |       |  0.26

Nlocal:           1500 ave        1500 max        1500 min
Histogram: 1 0 0 0 0 0 0 0 0 0
Nghost:           1638 ave        1638 max        1638 min
Histogram: 1 0 0 0 0 0 0 0 0 0
Neighs:              0 ave           0 max           0 min
Histogram: 1 0 0 0 0 0 0 0 0 0

Total # of neighbors = 0
Ave neighs/atom = 0
Ave special neighs/atom = 2
Neighbor list builds = 15491
Dangerous builds = 0
write_data	last_conf.data pair ij
System init for write_data ...
PPPM initialization ...
  using 12-bit tables for long-range coulomb (src/kspace.cpp:342)
  G vector (1/distance) = 0.17164655
  grid = 24 24 24
  stencil order = 5
  estimated absolute RMS force accuracy = 0.034360813
  estimated relative force accuracy = 0.00010347657
  using double precision FFTW3
  3d grid and FFT values/proc = 24389 13824
Generated 1 of 1 mixed pair_coeff terms from arithmetic mixing rule
Total wall time: 1:29:49
