LAMMPS (29 Aug 2024 - Update 1)
  using 1 OpenMP thread(s) per MPI task
package gpu 1 gpuID 0
# GCMC for CO2 molecular fluid, rigid/small/nvt dynamics
# Rigid CO2 TraPPE model
# [Potoff and J.I. Siepmann, Vapor-liquid equilibria of
# mixtures containing alkanes, carbon dioxide and
# nitrogen AIChE J., 47,1676-1682 (2001)].

# global model settings

units           real
atom_style      full
boundary        p p p
pair_style      lj/cut/coul/long  12
pair_modify     mix arithmetic shift yes
kspace_style    pppm 1.0e-4
bond_style      harmonic
angle_style     harmonic
neigh_modify    one 4000

# box, start molecules on simple cubic lattice
region          mbox block 0 ${lbox} 0 ${lbox} 0 ${lbox} units box
region          mbox block 0 120 0 ${lbox} 0 ${lbox} units box
region          mbox block 0 120 0 120 0 ${lbox} units box
region          mbox block 0 120 0 120 0 120 units box
create_box      2 mbox                                       bond/types 1                                angle/types 1                               extra/bond/per/atom 2                       extra/angle/per/atom 1                      extra/special/per/atom 2
Created orthogonal box = (0 0 0) to (120 120 120)
  1 by 1 by 1 MPI processor grid
molecule        co2mol ../CO2.txt
Read molecule template co2mol:
# CO2 molecule file. TraPPE model.
  1 molecules
  0 fragments
  3 atoms with max type 2
  2 bonds with max type 1
  1 angles with max type 1
  0 dihedrals with max type 0
  0 impropers with max type 0
create_atoms   	0 random ${nmols} 34578 mbox mol co2mol 464563 overlap 1.2
create_atoms   	0 random 500 34578 mbox mol co2mol 464563 overlap 1.2
Created 1500 atoms
  using lattice units in orthogonal box = (0 0 0) to (120 120 120)
  create_atoms CPU = 0.013 seconds

# rigid CO2 TraPPE model

pair_coeff      1   1  0.053649   2.800
pair_coeff      2   2  0.156973   3.050
bond_coeff      1       0       1.16
angle_coeff     1       0       180

# masses

mass 1 12.0107
mass 2 15.9994

write_data init_conf.data  pair ij
System init for write_data ...
PPPM initialization ...
  using 12-bit tables for long-range coulomb (src/kspace.cpp:342)
  G vector (1/distance) = 0.17038764
  grid = 27 27 27
  stencil order = 5
  estimated absolute RMS force accuracy = 0.029922947
  estimated relative force accuracy = 9.0112066e-05
  using double precision FFTW3
  3d grid and FFT values/proc = 32768 19683
Generated 1 of 1 mixed pair_coeff terms from arithmetic mixing rule

# MD settings

group           co2 type 1 2
1500 atoms in group co2
velocity       	all create 300 54654
timestep        0.25

# rigid constraints with thermostat
fix             myrigidnvt co2 rigid/nvt molecule temp 300 300 $(100*dt)
fix             myrigidnvt co2 rigid/nvt molecule temp 300 300 25
  500 rigid bodies with 1500 atoms

thermo 1000
thermo_style custom step temp density press ke pe etotal


variable    mvol equal vol
variable    mden equal density
variable	mtmp equal temp
variable    mpre equal press

fix mydat all ave/time 1 4000 4000 v_mtmp v_mden v_mpre file statistics.dat ## every 1ps

run 4000000 ## 1ns

CITE-CITE-CITE-CITE-CITE-CITE-CITE-CITE-CITE-CITE-CITE-CITE-CITE

Your simulation uses code contributions which should be cited:

- GPU package (short-range, long-range and three-body potentials): doi:10.1016/j.cpc.2010.12.021, doi:10.1016/j.cpc.2011.10.012, doi:10.1016/j.cpc.2013.08.002, doi:10.1016/j.commatsci.2014.10.068, doi:10.1016/j.cpc.2016.10.020, doi:10.3233/APC200086

@Article{Brown11,
 author = {W. M. Brown and P. Wang and S. J. Plimpton and A. N. Tharrington},
 title = {Implementing Molecular Dynamics on Hybrid High Performance Computers---Short Range Forces},
 journal = {Comput.\ Phys.\ Commun.},
 year =    2011,
 volume =  182,
 pages =   {898--911},
 doi =     {10.1016/j.cpc.2010.12.021}
}

@Article{Brown12,
 author = {W. M. Brown and A. Kohlmeyer and S. J. Plimpton and A. N. Tharrington},
 title = {Implementing Molecular Dynamics on Hybrid High Performance Computers - Particle-Particle Particle-Mesh},
 journal = {Comput.\ Phys.\ Commun.},
 year =    2012,
 volume =  183,
 doi =     {10.1016/j.cpc.2011.10.012},
 pages =   {449--459}
}

@Article{Brown13,
 author = {W. M. Brown and Y. Masako},
 title = {Implementing Molecular Dynamics on Hybrid High Performance Computers---Three-Body Potentials},
 journal = {Comput.\ Phys.\ Commun.},
 year =    2013,
 volume =  184,
 pages =   {2785--2793},
 doi =     {10.1016/j.cpc.2013.08.002},
}

@Article{Trung15,
 author = {T. D. Nguyen and S. J. Plimpton},
 title = {Accelerating Dissipative Particle Dynamics Simulations for Soft Matter Systems},
 journal = {Comput.\ Mater.\ Sci.},
 year =    2015,
 doi =     {10.1016/j.commatsci.2014.10.068},
 volume =  100,
 pages =   {173--180}
}

@Article{Trung17,
 author = {T. D. Nguyen},
 title = {{GPU}-Accelerated {T}ersoff Potentials for Massively Parallel
    Molecular Dynamics Simulations},
 journal = {Comput.\ Phys.\ Commun.},
 year =    2017,
 doi =     {10.1016/j.cpc.2016.10.020},
 volume =  212,
 pages =   {113--122}
}

@inproceedings{Nikolskiy19,
 author = {V. Nikolskiy and V. Stegailov},
 title = {{GPU} Acceleration of Four-Site Water Models in {LAMMPS}},
 booktitle = {Proceedings of the International Conference on Parallel
    Computing (ParCo 2019), Prague, Czech Republic},
 doi =     {10.3233/APC200086},
 year =    2019
}

CITE-CITE-CITE-CITE-CITE-CITE-CITE-CITE-CITE-CITE-CITE-CITE-CITE

PPPM initialization ...
  using 12-bit tables for long-range coulomb (src/kspace.cpp:342)
  G vector (1/distance) = 0.17038764
  grid = 27 27 27
  stencil order = 5
  estimated absolute RMS force accuracy = 0.029922947
  estimated relative force accuracy = 9.0112066e-05
  using double precision FFTW3
  3d grid and FFT values/proc = 32768 19683
Generated 1 of 1 mixed pair_coeff terms from arithmetic mixing rule
Per MPI rank memory allocation (min/avg/max) = 10.4 | 10.4 | 10.4 Mbytes
   Step          Temp         Density         Press          KinEng         PotEng         TotEng    
         0   306.19616      0.021145685   -32.722833      759.68112      45884.669      46644.35     
      1000   298.62698      0.021145685    9.9384343      740.90177     -14.427968      726.4738     
      2000   307.26198      0.021145685    11.59345       762.32545     -35.885149      726.4403     
      3000   308.22252      0.021145685    9.5297495      764.70858     -47.130511      717.57807    
      4000   300.48183      0.021145685    10.487962      745.50371     -51.982919      693.52079    
      5000   298.75712      0.021145685    10.701399      741.22465     -60.050578      681.17407    
      6000   308.28282      0.021145685    13.876848      764.85818     -68.858702      695.99948    
      7000   307.92998      0.021145685    11.946977      763.98276     -73.991378      689.99138    
      8000   300.83794      0.021145685    4.9860237      746.38723     -71.90957       674.47766    
      9000   283.92065      0.021145685    25.667048      704.41496     -43.557137      660.85782    
     10000   292.9987       0.021145685    15.216541      726.93784     -74.80888       652.12896    
     11000   312.75315      0.021145685    16.828084      775.94918     -80.96115       694.98803    
     12000   307.16248      0.021145685    1.6718285      762.07858     -76.836967      685.24162    
     13000   296.40965      0.021145685    19.379903      735.40051     -75.700838      659.69967    
     14000   305.26052      0.021145685   -0.73441153     757.35977     -79.586805      677.77297    
     15000   300.15664      0.021145685    10.069758      744.6969      -77.465182      667.23172    
     16000   299.60835      0.021145685    10.772941      743.33658     -84.843707      658.49288    
     17000   303.62447      0.021145685    8.5252386      753.30068     -86.777507      666.52317    
     18000   290.18028      0.021145685    22.664201      719.94526     -47.661531      672.28373    
     19000   293.35386      0.021145685    8.4771984      727.81901     -86.434526      641.38449    
     20000   310.55496      0.021145685    3.4174469      770.49541     -82.49133       688.00408    
     21000   297.36453      0.021145685    5.8920063      737.7696      -87.991671      649.77792    
     22000   301.22108      0.021145685    10.274358      747.3378      -90.724822      656.61298    
     23000   305.33762      0.021145685    16.965346      757.55106     -94.397823      663.15323    
     24000   292.87709      0.021145685    7.433451       726.63613     -92.887866      633.74826    
     25000   304.56969      0.021145685    5.7255464      755.6458      -89.921998      665.7238     
     26000   314.33795      0.021145685    7.9683092      779.88111     -92.771589      687.10952    
     27000   313.8056       0.021145685    10.388925      778.56035     -99.127843      679.4325     
     28000   280.4661       0.021145685    11.255435      695.84412     -94.374598      601.46952    
     29000   299.6826       0.021145685    11.218221      743.52078     -97.90401       645.61677    
     30000   301.04594      0.021145685    11.894716      746.90328     -97.703955      649.19932    
     31000   296.25825      0.021145685    10.660176      735.02488     -96.591932      638.43294    
     32000   294.14182      0.021145685    3.9432227      729.77396     -96.379165      633.39479    
     33000   329.8541       0.021145685    11.251154      818.37711     -95.639134      722.73798    
     34000   295.22849      0.021145685    9.4200195      732.47001     -98.662492      633.80752    
     35000   293.29796      0.021145685    15.407202      727.68032     -100.13899      627.54133    
     36000   302.81116      0.021145685    10.687342      751.28285     -108.42905      642.85379    
     37000   305.15751      0.021145685    8.1485259      757.10419     -104.26181      652.84237    
     38000   305.54174      0.021145685    11.076753      758.05749     -105.59944      652.45805    
     39000   282.17578      0.021145685    7.476148       700.08588     -104.93108      595.1548     
     40000   298.19329      0.021145685    11.477746      739.82577     -109.19281      630.63296    
     41000   309.0649       0.021145685    16.499028      766.79854     -112.63211      654.16642    
     42000   289.67908      0.021145685    11.162474      718.70178     -109.0129       609.68887    
     43000   288.13496      0.021145685    17.128022      714.87077     -118.59685      596.27392    
     44000   304.75235      0.021145685    8.2149675      756.09897     -124.26998      631.829      
     45000   297.81649      0.021145685    9.1824652      738.89093     -126.41642      612.47451    
     46000   298.24771      0.021145685    13.567742      739.96079     -121.72073      618.24006    
     47000   299.7643       0.021145685    9.0602803      743.7235      -119.56394      624.15956    
     48000   293.38715      0.021145685    12.048773      727.9016      -122.52618      605.37542    
     49000   310.28727      0.021145685    11.039047      769.83127     -119.65447      650.17679    
     50000   305.65459      0.021145685    10.259294      758.33745     -122.1304       636.20705    
     51000   284.90391      0.021145685    9.2256867      706.85446     -125.64515      581.20931    
     52000   293.76653      0.021145685    10.572015      728.84285     -121.1099       607.73295    
     53000   306.55258      0.021145685    11.182887      760.56539     -126.04916      634.51623    
     54000   308.21235      0.021145685    9.4244162      764.68333     -129.07754      635.60579    
     55000   298.3269       0.021145685    10.310803      740.15725     -126.26529      613.89197    
     56000   295.76573      0.021145685    8.6061877      733.80293     -121.15249      612.65044    
     57000   298.21062      0.021145685    5.6529666      739.86877     -127.52692      612.34185    
     58000   310.84548      0.021145685    11.061929      771.2162      -128.10967      643.10653    
     59000   283.64776      0.021145685    9.2191135      703.7379      -127.78427      575.95363    
     60000   286.21429      0.021145685    10.609876      710.10554     -129.02169      581.08385    
     61000   307.39159      0.021145685    14.170603      762.64701     -129.68633      632.96068    
     62000   312.58643      0.021145685    10.143334      775.53555     -131.00839      644.52716    
     63000   292.78578      0.021145685    7.6695954      726.40959     -138.3103       588.09929    
     64000   286.92878      0.021145685    11.949439      711.87822     -138.57195      573.30627    
     65000   313.63132      0.021145685    10.476011      778.12795     -141.37973      636.74822    
     66000   296.36711      0.021145685    16.597582      735.29498     -131.41823      603.87675    
     67000   285.99164      0.021145685    7.9547324      709.55315     -132.37393      577.17922    
     68000   303.77086      0.021145685    6.8857298      753.66387     -130.01645      623.64742    
     69000   301.99093      0.021145685    18.282508      749.24783     -135.77175      613.47608    
     70000   287.01005      0.021145685   -8.7225269      712.07985     -130.19924      581.88061    
     71000   299.44873      0.021145685    8.3284778      742.94055     -134.61038      608.33017    
     72000   288.38812      0.021145685    34.678368      715.49887     -143.36753      572.13134    
     73000   305.4857       0.021145685    4.3761614      757.91845     -146.94596      610.9725     
     74000   300.70692      0.021145685   -0.35431418     746.06216     -146.00954      600.05262    
     75000   301.03242      0.021145685    15.977731      746.86973     -147.84569      599.02404    
     76000   288.08064      0.021145685    11.391717      714.73602     -153.67881      561.0572     
     77000   304.45095      0.021145685    8.6802808      755.35119     -149.63284      605.71835    
     78000   298.38215      0.021145685    10.418135      740.29434     -146.71561      593.57873    
     79000   299.66936      0.021145685    9.2531028      743.48793     -147.35233      596.13561    
     80000   317.7545       0.021145685    11.039815      788.35767     -153.75605      634.60163    
     81000   297.00978      0.021145685    8.4064455      736.88945     -147.67499      589.21446    
     82000   293.33945      0.021145685    8.857258       727.78326     -150.81414      576.96912    
     83000   308.0401       0.021145685    9.2428705      764.25598     -153.6046       610.65138    
     84000   312.90104      0.021145685    13.143449      776.31612     -152.22354      624.09258    
     85000   320.10728      0.021145685    12.027098      794.19498     -150.1434       644.05158    
     86000   309.22558      0.021145685    10.644359      767.19719     -151.48039      615.71679    
     87000   288.1997       0.021145685    9.7715574      715.0314      -157.06227      557.96913    
     88000   304.30054      0.021145685    17.406457      754.97802     -148.27414      606.70387    
     89000   301.34516      0.021145685    10.200164      747.64564     -147.62959      600.01605    
     90000   300.66292      0.021145685    6.4914376      745.95299     -149.95568      595.99732    
     91000   286.33616      0.021145685    12.053919      710.40791     -142.62813      567.77978    
     92000   295.04461      0.021145685    13.429991      732.01381     -135.12823      596.88558    
     93000   310.12816      0.021145685    5.2082363      769.43651     -142.72381      626.7127     
     94000   293.49142      0.021145685    15.480839      728.16029     -145.21632      582.94398    
     95000   291.66894      0.021145685    7.5039179      723.63869     -145.18808      578.4506     
     96000   309.47344      0.021145685    8.959738       767.81212     -148.17251      619.63962    
     97000   302.29494      0.021145685    11.67263       750.00207     -148.61722      601.38485    
     98000   294.50015      0.021145685    9.5433523      730.66299     -147.92558      582.7374     
     99000   293.98583      0.021145685    7.6806445      729.38695     -150.59763      578.78933    
    100000   314.84059      0.021145685    16.398815      781.12817     -138.87076      642.25741    
    101000   287.41635      0.021145685    10.943319      713.08789     -144.69587      568.39203    
    102000   304.91021      0.021145685    8.7554322      756.49064     -145.96621      610.52444    
    103000   315.63251      0.021145685    12.043179      783.09296     -147.0503       636.04265    
    104000   312.04647      0.021145685    22.76705       774.19588     -146.67766      627.51823    
    105000   298.65846      0.021145685    10.202418      740.97988     -157.97679      583.00309    
    106000   291.20347      0.021145685   -2.5354886      722.48385     -151.05927      571.42457    
    107000   311.39839      0.021145685    12.115441      772.588       -150.88767      621.70033    
    108000   309.48876      0.021145685    14.818064      767.85014     -151.60577      616.24438    
    109000   289.22512      0.021145685    10.40267       717.57549     -148.20292      569.37257    
    110000   297.83171      0.021145685    7.7341242      738.92869     -147.16617      591.76252    
    111000   302.65277      0.021145685    9.1694172      750.88987     -152.21904      598.67083    
    112000   304.90528      0.021145685    10.697692      756.4784      -150.10044      606.37797    
    113000   290.5316       0.021145685    9.2248477      720.81692     -152.11456      568.70236    
    114000   294.68639      0.021145685    9.9811456      731.12507     -151.06673      580.05833    
    115000   308.48656      0.021145685    11.700281      765.36366     -150.83748      614.52618    
    116000   311.64522      0.021145685    12.843325      773.20038     -151.66656      621.53382    
    117000   284.75665      0.021145685    12.211342      706.4891      -152.91974      553.56936    
    118000   295.33259      0.021145685    8.3871058      732.72829     -156.43011      576.29818    
    119000   320.04759      0.021145685   -2.8406903      794.04688     -149.29641      644.75047    
    120000   300.94525      0.021145685    16.81036       746.65347     -155.63776      591.01572    
    121000   285.3311       0.021145685    6.3636341      707.91432     -153.68338      554.23093    
    122000   312.47523      0.021145685    10.979469      775.25966     -150.57293      624.68673    
    123000   300.98545      0.021145685    12.06797       746.7532      -153.52325      593.22995    
    124000   292.56662      0.021145685    3.1088569      725.86586     -154.26088      571.60498    
    125000   302.47681      0.021145685    2.5550895      750.4533      -150.94533      599.50797    
    126000   313.69886      0.021145685    13.630884      778.29551     -155.07372      623.22179    
    127000   290.18653      0.021145685    15.190498      719.96078     -151.62723      568.33355    
    128000   288.63764      0.021145685    12.340442      716.11794     -150.12731      565.99063    
    129000   304.4473       0.021145685    7.1687998      755.34214     -147.41202      607.93012    
    130000   304.6944       0.021145685    10.80132       755.95522     -150.04102      605.9142     
    131000   302.56772      0.021145685    11.05721       750.67885     -152.96642      597.71244    
    132000   300.52472      0.021145685    9.3559513      745.61012     -145.99093      599.61919    
    133000   297.45581      0.021145685    9.9098731      737.99607     -150.52584      587.47023    
    134000   299.29819      0.021145685    4.4038909      742.56706     -150.54221      592.02485    
    135000   310.26527      0.021145685    13.357703      769.77669     -151.11361      618.66308    
    136000   302.08864      0.021145685    12.201216      749.49024     -147.963        601.52724    
    137000   293.29927      0.021145685    10.109257      727.68359     -135.15978      592.52381    
    138000   303.73947      0.021145685    11.946924      753.58601     -135.79411      617.7919     
    139000   292.83546      0.021145685    9.6498694      726.53285     -143.33357      583.19928    
    140000   307.45327      0.021145685    9.2776838      762.80004     -148.89956      613.90048    
    141000   286.36196      0.021145685    7.1495131      710.47192     -139.32494      571.14698    
    142000   290.82794      0.021145685    10.212089      721.55214     -144.98635      576.56579    
    143000   311.26821      0.021145685    12.405075      772.265       -147.70939      624.55561    
    144000   314.53105      0.021145685    10.159346      780.36019     -139.43072      640.92947    
    145000   316.15565      0.021145685   -8.012129       784.39089     -143.08142      641.30947    
    146000   294.49794      0.021145685    8.6233292      730.65751     -139.58855      591.06897    
    147000   293.05874      0.021145685    14.58435       727.08682     -145.08281      582.00402    
    148000   302.66417      0.021145685    11.567875      750.91814     -142.9491       607.96904    
    149000   310.58635      0.021145685    7.245703       770.5733      -137.53906      633.03424    
    150000   302.00409      0.021145685    12.492554      749.28047     -133.34552      615.93495    
    151000   295.90864      0.021145685    5.8825111      734.15749     -133.84133      600.31616    
    152000   293.48668      0.021145685    9.6843606      728.14855     -135.69181      592.45673    
    153000   298.47654      0.021145685    9.5871296      740.52851     -142.71389      597.81462    
    154000   304.08269      0.021145685    10.072028      754.43753     -134.94686      619.49067    
    155000   300.461        0.021145685    12.764292      745.45203     -130.82812      614.62391    
    156000   300.22478      0.021145685    8.4580642      744.86595     -145.5669       599.29905    
    157000   313.44185      0.021145685    11.038639      777.65788     -141.60066      636.05722    
    158000   287.22073      0.021145685    9.1242431      712.60254     -141.09539      571.50715    
    159000   295.05911      0.021145685    11.501142      732.0498      -136.80798      595.24181    
    160000   326.44079      0.021145685    12.687959      809.90861     -137.93658      671.97203    
    161000   301.45773      0.021145685    9.7871051      747.92494     -126.93677      620.98817    
    162000   292.95924      0.021145685    12.658186      726.83996     -127.1078       599.73216    
    163000   309.86689      0.021145685    10.983421      768.78831     -129.91825      638.87006    
    164000   301.01234      0.021145685    7.1022055      746.81991     -127.73003      619.08987    
    165000   292.76615      0.021145685    13.533551      726.3609      -131.26139      595.09951    
    166000   311.89307      0.021145685    13.168373      773.8153      -124.66208      649.15322    
    167000   299.93273      0.021145685    8.9300214      744.14137     -129.47153      614.66984    
    168000   286.30129      0.021145685    11.018179      710.3214      -128.77166      581.54974    
    169000   306.94718      0.021145685    12.458327      761.54441     -132.69071      628.8537     
    170000   310.22487      0.021145685    4.3636518      769.67645     -129.18985      640.4866     
    171000   289.3803       0.021145685    9.151715       717.9605      -127.34243      590.61807    
    172000   296.29682      0.021145685    18.864565      735.12057     -119.57105      615.54952    
    173000   308.22215      0.021145685    0.54240143     764.70766     -118.966        645.74165    
    174000   300.00471      0.021145685    1.811084       744.31997     -124.61923      619.70073    
    175000   294.8712       0.021145685    15.036899      731.58357     -117.73987      613.8437     
    176000   321.14948      0.021145685    1.0364722      796.78072     -123.27902      673.5017     
    177000   295.55209      0.021145685    3.0306677      733.27288     -120.82398      612.4489     
    178000   284.14761      0.021145685    2.7816417      704.97806     -117.56802      587.41005    
    179000   311.5026       0.021145685    15.456137      772.84654     -113.84067      659.00587    
    180000   300.81201      0.021145685    11.0602        746.32288     -118.20423      628.11865    
    181000   295.20327      0.021145685    8.6603382      732.40746     -113.93241      618.47505    
    182000   293.01215      0.021145685    9.530092       726.97123     -111.68165      615.28957    
    183000   291.66237      0.021145685    6.1496289      723.62239     -111.68929      611.9331     
    184000   299.94424      0.021145685    9.2163148      744.16992     -112.86633      631.30359    
    185000   299.66174      0.021145685    10.988757      743.46905     -112.04032      631.42872    
    186000   312.662        0.021145685    16.709439      775.72305     -110.21461      665.50844    
    187000   306.85732      0.021145685    9.8151238      761.32146     -106.18292      655.13854    
    188000   309.65194      0.021145685    9.7022723      768.25499     -110.65503      657.59997    
    189000   295.99385      0.021145685    10.889582      734.36891     -101.6502       632.7187     
    190000   300.8125       0.021145685    11.643071      746.32411     -99.707127      646.61698    
    191000   300.17617      0.021145685    9.5819969      744.74536     -98.07468       646.67068    
    192000   295.72338      0.021145685    10.489766      733.69786     -100.49036      633.20751    
    193000   291.33379      0.021145685    10.069037      722.80716     -101.61211      621.19506    
    194000   319.54636      0.021145685    11.647116      792.80333     -97.391616      695.41171    
    195000   300.55229      0.021145685    8.8113015      745.67852     -102.38783      643.29069    
    196000   293.21055      0.021145685    10.80419       727.46346     -106.36605      621.09741    
    197000   293.45773      0.021145685    8.2140362      728.07672     -106.80371      621.27301    
    198000   315.76764      0.021145685    11.006757      783.42821     -104.96661      678.4616     
    199000   302.25019      0.021145685    11.547079      749.89105     -102.74899      647.14206    
    200000   292.01759      0.021145685    10.473505      724.50369     -102.31655      622.18714    
    201000   301.44232      0.021145685    5.1423941      747.88671     -99.825564      648.06115    
    202000   319.70457      0.021145685    12.927154      793.19586     -98.903294      694.29256    
    203000   294.18144      0.021145685    10.617796      729.87226     -103.76467      626.10759    
    204000   296.63993      0.021145685    10.987017      735.97184     -103.19798      632.77386    
    205000   309.10164      0.021145685    10.801588      766.88968     -101.47861      665.41107    
    206000   308.14681      0.021145685    8.1716196      764.52072     -98.838775      665.68195    
    207000   296.7712       0.021145685    9.5885024      736.29753     -94.63631       641.66121    
    208000   297.62761      0.021145685    16.243904      738.42231     -103.24771      635.17459    
    209000   300.0019       0.021145685    9.9994924      744.31299     -99.108213      645.20477    
    210000   300.84806      0.021145685    13.829848      746.41232     -91.445281      654.96704    
    211000   296.70276      0.021145685    6.7394984      736.12774     -93.147865      642.97987    
    212000   306.88257      0.021145685    11.150904      761.38412     -87.171927      674.21219    
    213000   299.62629      0.021145685    15.558376      743.38108     -82.940767      660.44031    
    214000   307.45561      0.021145685    15.614408      762.80585     -88.321227      674.48463    
    215000   298.54279      0.021145685    10.445907      740.6929      -88.654671      652.03823    
    216000   293.08103      0.021145685    10.497156      727.14212     -83.44471       643.69741    
    217000   312.012        0.021145685    11.575081      774.11038     -81.336406      692.77397    
    218000   305.9268       0.021145685    13.806692      759.01283     -76.937809      682.07502    
    219000   280.03931      0.021145685    11.460574      694.78526     -78.69878       616.08648    
    220000   288.67434      0.021145685    7.4286795      716.209       -92.007357      624.20165    
    221000   309.72859      0.021145685    9.0299459      768.44516     -93.658843      674.78632    
    222000   303.43184      0.021145685    11.766394      752.82277     -89.477867      663.3449     
    223000   295.08697      0.021145685    15.044331      732.11891     -84.642571      647.47634    
    224000   284.07457      0.021145685    9.344057       704.79684     -91.64128       613.15556    
    225000   302.02243      0.021145685    8.4004758      749.32597     -87.735501      661.59047    
    226000   303.05043      0.021145685    11.191305      751.87648     -75.294989      676.58149    
    227000   305.01414      0.021145685    14.441793      756.74849     -78.902047      677.84644    
    228000   306.79313      0.021145685    9.7336273      761.16222     -80.369765      680.79246    
    229000   290.85166      0.021145685    11.301578      721.61099     -79.451535      642.15945    
    230000   293.57576      0.021145685    10.441228      728.36955     -81.912768      646.45678    
    231000   298.23884      0.021145685    12.56251       739.93878     -82.844252      657.09452    
    232000   294.67174      0.021145685    10.391387      731.08872     -85.774541      645.31417    
    233000   311.86774      0.021145685    12.671113      773.75246     -85.180097      688.57236    
    234000   300.7503       0.021145685    11.000155      746.16979     -87.214498      658.95529    
    235000   287.18612      0.021145685    6.4653252      712.51669     -84.408524      628.10817    
    236000   308.47834      0.021145685    1.3463717      765.34327     -84.730364      680.61291    
    237000   306.39365      0.021145685    11.46122       760.17109     -74.07778       686.09331    
    238000   300.64394      0.021145685    13.922793      745.90591     -82.390327      663.51559    
    239000   297.62942      0.021145685    10.119988      738.42679     -79.72356       658.70323    
    240000   304.7647       0.021145685    9.1386059      756.12961     -72.843475      683.28613    
    241000   307.28395      0.021145685    12.210771      762.37995     -80.479452      681.9005     
    242000   286.84583      0.021145685    17.44838       711.67241     -77.014355      634.65805    
    243000   297.20208      0.021145685    4.7850183      737.36656     -79.989977      657.37658    
    244000   320.51456      0.021145685    15.352196      795.20546     -79.837562      715.3679     
    245000   294.11107      0.021145685    12.871409      729.69766     -83.993955      645.70371    
    246000   279.10322      0.021145685    8.3640094      692.46277     -82.385602      610.07717    
    247000   297.40267      0.021145685    0.39182432     737.86422     -83.185482      654.67874    
    248000   312.57868      0.021145685    10.576724      775.51633     -76.419238      699.09709    
    249000   307.36289      0.021145685    14.818704      762.57581     -75.249679      687.32613    
    250000   296.83089      0.021145685    11.6224        736.44561     -71.187186      665.25843    
    251000   294.53868      0.021145685    7.2280695      730.75859     -65.916795      664.84179    
    252000   295.57912      0.021145685    10.557886      733.33994     -70.461999      662.87794    
    253000   301.39982      0.021145685    12.482442      747.78126     -63.913624      683.86764    
    254000   302.4418       0.021145685    10.90531       750.36643     -65.73335       684.63308    
    255000   299.06108      0.021145685    9.4862362      741.97879     -71.08194       670.89685    
    256000   310.56963      0.021145685    18.251656      770.5318      -65.843827      704.68798    
    257000   290.74589      0.021145685    12.303404      721.34857     -70.918491      650.43008    
    258000   314.89704      0.021145685    8.9393392      781.26823     -69.568486      711.69975    
    259000   298.33732      0.021145685    11.37598       740.18311     -69.014869      671.16824    
    260000   309.92925      0.021145685    16.526883      768.943       -62.688213      706.25479    
    261000   290.77137      0.021145685    10.954741      721.41179     -68.79445       652.61734    
    262000   290.95255      0.021145685    8.7013354      721.86131     -73.036114      648.82519    
    263000   311.65309      0.021145685    11.110595      773.21992     -67.291097      705.92882    
    264000   298.47468      0.021145685    15.365219      740.5239      -61.963766      678.56013    
    265000   294.38524      0.021145685    10.778967      730.3779      -60.530271      669.84763    
    266000   298.71053      0.021145685    12.804764      741.10906     -63.167767      677.94129    
    267000   300.56226      0.021145685    11.812976      745.70325     -65.836814      679.86644    
    268000   309.46557      0.021145685    6.1525859      767.7926      -62.925975      704.86662    
    269000   300.75301      0.021145685    11.233137      746.17652     -63.608336      682.56818    
    270000   283.7787       0.021145685    10.667521      704.06277     -63.56011       640.50266    
    271000   297.23172      0.021145685    10.85367       737.4401      -58.425239      679.01486    
    272000   311.82105      0.021145685    12.607462      773.63662     -59.214282      714.42234    
    273000   295.8243       0.021145685    8.3827789      733.94825     -61.319695      672.62856    
    274000   297.99803      0.021145685    9.8376102      739.34132     -53.513469      685.82785    
    275000   306.37538      0.021145685    13.480578      760.12576     -55.646646      704.47912    
    276000   299.08938      0.021145685    11.801299      742.049       -58.174525      683.87448    
    277000   297.30786      0.021145685    8.6797019      737.629       -60.751493      676.87751    
    278000   323.62457      0.021145685    12.270802      802.92149     -58.579975      744.34151    
    279000   291.52479      0.021145685    15.193554      723.28105     -65.703479      657.57757    
    280000   303.7195       0.021145685    8.3278683      753.53646     -62.126907      691.40956    
    281000   312.43298      0.021145685    5.5673315      775.15484     -60.367446      714.78739    
    282000   300.66112      0.021145685    15.505332      745.94852     -62.645243      683.30328    
    283000   303.95106      0.021145685    18.051486      754.11097     -62.070493      692.04048    
    284000   292.46459      0.021145685    17.557892      725.6127      -56.711407      668.9013     
    285000   290.04981      0.021145685   -0.40623144     719.62158     -56.320753      663.30083    
    286000   308.6327       0.021145685   -15.97175       765.72623     -55.123875      710.60236    
    287000   308.11089      0.021145685    15.905343      764.4316      -54.396711      710.03489    
    288000   283.07612      0.021145685    1.4006104      702.31965     -52.575338      649.74431    
    289000   293.41849      0.021145685    8.5006964      727.97936     -55.889066      672.09029    
    290000   309.14253      0.021145685    8.0918989      766.99115     -57.094574      709.89657    
    291000   307.56774      0.021145685    20.835916      763.08405     -50.262346      712.8217     
    292000   290.04575      0.021145685    12.716303      719.6115      -50.761396      668.85011    
    293000   305.94936      0.021145685    9.2436287      759.06879     -55.740048      703.32875    
    294000   305.4222       0.021145685    10.513983      757.76089     -52.975713      704.78518    
    295000   298.09106      0.021145685    13.595229      739.57214     -48.934394      690.63774    
    296000   294.62951      0.021145685    15.666303      730.98395     -55.99256       674.99138    
    297000   297.68615      0.021145685    8.8154047      738.56756     -57.080715      681.48684    
    298000   286.8762       0.021145685    12.860115      711.74776     -54.418363      657.32939    
    299000   292.69041      0.021145685   -1.3137267      726.17298     -53.890543      672.28244    
    300000   310.12635      0.021145685    13.264566      769.43202     -49.668018      719.764      
    301000   299.00983      0.021145685    13.735507      741.85162     -47.940487      693.91113    
    302000   300.35824      0.021145685    11.313448      745.19708     -48.887844      696.30923    
    303000   297.91259      0.021145685    7.7641875      739.12934     -47.714316      691.41503    
    304000   291.80903      0.021145685    7.4646617      723.98625     -47.413152      676.5731     
    305000   299.66998      0.021145685    14.784366      743.48947     -48.825633      694.66384    
    306000   305.83024      0.021145685    12.791606      758.77325     -45.913865      712.85938    
    307000   300.48514      0.021145685    13.600964      745.51191     -48.010868      697.50104    
    308000   291.17835      0.021145685   -1.3839104      722.42151     -49.593022      672.82849    
    309000   300.98829      0.021145685    3.086144       746.76025     -47.851334      698.90892    
    310000   303.0158       0.021145685    8.2693439      751.79056     -47.311202      704.47936    
    311000   299.06535      0.021145685    14.136415      741.98937     -43.9081        698.08127    
    312000   293.78805      0.021145685    9.1346113      728.89625     -51.212021      677.68423    
    313000   295.82698      0.021145685    11.198544      733.9549      -46.698492      687.25641    
    314000   304.99721      0.021145685    10.447909      756.70648     -49.65348       707.053      
    315000   308.37825      0.021145685    14.105246      765.09495     -46.52617       718.56878    
    316000   297.10092      0.021145685    11.801573      737.11557     -44.369884      692.74569    
    317000   293.6488       0.021145685    6.4844542      728.55077     -47.218982      681.33179    
    318000   306.44819      0.021145685    11.349153      760.30641     -52.130086      708.17632    
    319000   292.69802      0.021145685    15.434973      726.19185     -52.274451      673.9174     
    320000   299.05298      0.021145685    12.822966      741.95868     -56.135868      685.82281    
    321000   299.88176      0.021145685    8.0914002      744.01492     -52.550956      691.46397    
    322000   306.91968      0.021145685    7.1891828      761.47618     -54.219538      707.25664    
    323000   291.20752      0.021145685    13.275863      722.49388     -54.258902      668.23498    
    324000   287.94921      0.021145685    18.987576      714.40993     -53.580405      660.82952    
    325000   296.56592      0.021145685    8.5499289      735.78823     -56.117641      679.67059    
    326000   306.90176      0.021145685    9.1239787      761.43173     -50.42169       711.01004    
    327000   296.05751      0.021145685    14.903013      734.52684     -54.171174      680.35567    
    328000   286.71973      0.021145685    7.6261131      711.35956     -57.600075      653.75948    
    329000   309.66657      0.021145685    8.211841       768.29129     -53.739095      714.5522     
    330000   312.73158      0.021145685    13.842943      775.89566     -55.448248      720.44741    
    331000   290.82592      0.021145685    6.3304557      721.54713     -53.960508      667.58662    
    332000   299.13532      0.021145685    2.5283267      742.16298     -54.519825      687.64316    
    333000   305.62923      0.021145685    13.219062      758.27455     -48.215965      710.05859    
    334000   295.65316      0.021145685    9.6443289      733.52365     -49.771103      683.75255    
    335000   305.19452      0.021145685    9.0582799      757.19602     -51.549387      705.64663    
    336000   299.2891       0.021145685    11.167185      742.5445      -44.232164      698.31234    
    337000   315.97945      0.021145685    16.689272      783.95372     -47.857657      736.09606    
    338000   284.91421      0.021145685    12.200613      706.88        -47.077996      659.80201    
    339000   293.55797      0.021145685    9.6906443      728.3254      -48.141212      680.18419    
    340000   312.61788      0.021145685    10.063861      775.61357     -50.324554      725.28902    
    341000   302.45782      0.021145685    10.705579      750.40619     -55.252476      695.15371    
    342000   296.97015      0.021145685    17.239756      736.79112     -52.410914      684.38021    
    343000   306.26342      0.021145685    10.932246      759.84798     -50.074603      709.77338    
    344000   299.76618      0.021145685   -3.9134801      743.72816     -47.6533        696.07486    
    345000   300.19125      0.021145685    14.637916      744.78276     -42.652008      702.13075    
    346000   306.53526      0.021145685    18.016163      760.52242     -44.933093      715.58933    
    347000   304.03814      0.021145685    8.2078671      754.32702     -46.67883       707.64819    
    348000   298.89663      0.021145685   -1.8981296      741.57078     -41.776944      699.79384    
    349000   299.66926      0.021145685    12.02075       743.48769     -51.113454      692.37424    
    350000   289.28106      0.021145685    14.123428      717.71429     -48.76336       668.95093    
    351000   300.6991       0.021145685    6.8598662      746.04276     -49.245169      696.79759    
    352000   307.13671      0.021145685    11.751979      762.01464     -48.988921      713.02572    
    353000   282.64019      0.021145685    10.674952      701.23811     -44.360673      656.87744    
    354000   302.06947      0.021145685    10.448567      749.44267     -50.987033      698.45564    
    355000   314.64392      0.021145685    12.348161      780.64024     -45.947876      734.69237    
    356000   293.09469      0.021145685    13.642556      727.176       -45.350318      681.82568    
    357000   287.85612      0.021145685    12.52671       714.17896     -45.170853      669.00811    
    358000   305.69321      0.021145685    2.2130226      758.43328     -44.276922      714.15636    
    359000   306.07032      0.021145685    10.218736      759.36891     -40.230707      719.1382     
    360000   307.22414      0.021145685    18.280682      762.23156     -41.220021      721.01154    
    361000   297.83907      0.021145685    10.980015      738.94694     -41.155832      697.79111    
    362000   279.30542      0.021145685    5.83938        692.96445     -46.337666      646.62678    
    363000   312.15717      0.021145685    10.278736      774.47055     -42.541074      731.92948    
    364000   301.54343      0.021145685    11.275575      748.13756     -48.669703      699.46786    
    365000   289.59653      0.021145685    11.528159      718.49697     -54.263331      664.23364    
    366000   303.39673      0.021145685    12.385911      752.73565     -44.079767      708.65588    
    367000   317.1026       0.021145685    10.61951       786.74029     -46.712049      740.02824    
    368000   300.29965      0.021145685    11.913386      745.05172     -48.180941      696.87078    
    369000   295.32451      0.021145685    10.426383      732.70825     -48.438347      684.2699     
    370000   294.81547      0.021145685    11.648099      731.4453      -47.562487      683.88281    
    371000   307.2728       0.021145685    11.512037      762.35228     -47.815983      714.53629    
    372000   297.24865      0.021145685    6.6282376      737.48209     -46.859014      690.62307    
    373000   283.0409       0.021145685    12.099653      702.23227     -48.990477      653.24179    
    374000   299.1198       0.021145685    11.316746      742.12448     -52.422542      689.70194    
    375000   308.04681      0.021145685    9.9951607      764.27262     -51.901121      712.3715     
    376000   288.45121      0.021145685    8.0865934      715.6554      -53.893783      661.76162    
    377000   288.11859      0.021145685    12.452821      714.83017     -48.09751       666.73266    
    378000   299.05245      0.021145685    16.485483      741.95737     -48.322377      693.63499    
    379000   312.87801      0.021145685    10.61895       776.25898     -44.078803      732.18017    
    380000   297.98737      0.021145685   -0.23562359     739.31489     -40.746043      698.56885    
    381000   286.33127      0.021145685    14.909886      710.39578     -43.843059      666.55272    
    382000   290.70163      0.021145685    29.108532      721.23876     -49.940043      671.29872    
    383000   314.52299      0.021145685    8.8772429      780.34021     -53.218157      727.12205    
    384000   302.00968      0.021145685    9.7811394      749.29434     -50.458361      698.83598    
    385000   305.86345      0.021145685    11.210592      758.85564     -49.361158      709.49448    
    386000   298.01967      0.021145685    10.625904      739.39502     -42.923413      696.47161    
    387000   297.78862      0.021145685    11.246811      738.82177     -48.095513      690.72625    
    388000   299.50752      0.021145685    10.908815      743.08641     -44.947943      698.13847    
    389000   304.92382      0.021145685    16.862529      756.52441     -38.448124      718.07628    
    390000   301.74169      0.021145685    2.9518621      748.62945     -47.037438      701.59201    
    391000   296.76538      0.021145685    14.3079        736.2831      -50.877453      685.40565    
    392000   301.60991      0.021145685    11.22986       748.3025      -49.849549      698.45295    
    393000   290.88803      0.021145685    0.94672984     721.70123     -50.154787      671.54644    
    394000   298.00287      0.021145685    11.40873       739.35333     -54.283348      685.06999    
    395000   301.12415      0.021145685    13.20414       747.09731     -54.358735      692.73857    
    396000   302.67087      0.021145685    13.460721      750.93478     -54.890089      696.04469    
    397000   306.36021      0.021145685    13.922117      760.08814     -51.449843      708.63829    
    398000   317.61662      0.021145685    1.4088595      788.01559     -51.02969       736.9859     
    399000   297.71245      0.021145685    6.3506598      738.6328      -51.921518      686.71128    
    400000   296.06433      0.021145685    14.567618      734.54377     -48.977322      685.56644    
    401000   321.50153      0.021145685    8.5987098      797.65417     -44.792372      752.8618     
    402000   317.03842      0.021145685    21.291129      786.58105     -45.107497      741.47355    
    403000   288.75647      0.021145685    6.0678071      716.41277     -45.679079      670.73369    
    404000   299.48969      0.021145685    19.094016      743.04218     -46.875678      696.16651    
    405000   312.85456      0.021145685    8.0329         776.2008      -42.561532      733.63927    
    406000   295.56389      0.021145685    4.5588266      733.30217     -44.251049      689.05112    
    407000   289.74948      0.021145685    10.331705      718.87645     -45.313284      673.56316    
    408000   304.13342      0.021145685    21.013616      754.5634      -50.164003      704.3994     
    409000   314.06999      0.021145685    3.6742374      779.21631     -47.228319      731.98799    
    410000   294.92113      0.021145685    3.4860778      731.70745     -43.195347      688.51211    
    411000   292.15633      0.021145685    6.4916024      724.84791     -42.812208      682.0357     
    412000   305.15216      0.021145685    17.030982      757.09091     -42.656216      714.43469    
    413000   298.67778      0.021145685    12.30536       741.0278      -46.821693      694.20611    
    414000   303.74263      0.021145685    12.535576      753.59383     -46.671635      706.9222     
    415000   313.38766      0.021145685    11.415437      777.52342     -48.57797       728.94545    
    416000   285.06073      0.021145685    6.6823243      707.24353     -50.526091      656.71744    
    417000   290.78406      0.021145685    14.119013      721.44326     -45.809191      675.63407    
    418000   312.53159      0.021145685    20.28448       775.39948     -43.285025      732.11446    
    419000   306.66833      0.021145685    8.6735845      760.85259     -41.63829       719.2143     
    420000   290.18265      0.021145685   -0.44973026     719.95116     -43.143752      676.80741    
    421000   298.81056      0.021145685    10.547462      741.35725     -43.070091      698.28716    
    422000   295.92713      0.021145685    15.105437      734.20338     -38.299266      695.90411    
    423000   317.83333      0.021145685    22.731236      788.55324     -37.960448      750.5928     
    424000   301.24253      0.021145685    6.9971735      747.39103     -40.915221      706.47581    
    425000   300.01923      0.021145685   -2.009594       744.35598     -41.431451      702.92453    
    426000   293.2001       0.021145685    0.67356568     727.43753     -39.624085      687.81345    
    427000   282.31681      0.021145685    8.5623359      700.4358      -39.031377      661.40442    
    428000   299.16871      0.021145685    16.040041      742.24583     -38.604406      703.64142    
    429000   314.15931      0.021145685    15.99504       779.43792     -40.581412      738.8565     
    430000   295.15001      0.021145685    13.34478       732.27532     -38.347325      693.92799    
    431000   302.8008       0.021145685    3.9346344      751.25714     -39.971605      711.28553    
    432000   290.31928      0.021145685   -8.8476193      720.29013     -44.859926      675.43021    
    433000   298.80324      0.021145685    12.219796      741.33906     -45.340289      695.99878    
    434000   319.17585      0.021145685    24.295287      791.88407     -42.972755      748.91132    
    435000   303.81666      0.021145685    5.576807       753.7775      -40.339371      713.43813    
    436000   289.55662      0.021145685    14.432929      718.39795     -42.520765      675.87718    
    437000   301.78129      0.021145685    13.052283      748.72771     -39.486687      709.24102    
    438000   298.77683      0.021145685    7.0677479      741.27355     -39.522445      701.7511     
    439000   308.21194      0.021145685    7.5940866      764.68232     -36.871683      727.81063    
    440000   280.66459      0.021145685    18.359333      696.33658     -37.106077      659.2305     
    441000   295.75774      0.021145685    13.893035      733.7831      -36.476034      697.30706    
    442000   316.14829      0.021145685    18.43993       784.37263     -38.53447       745.83816    
    443000   315.43953      0.021145685    5.9897945      782.61418     -36.453439      746.16074    
    444000   292.72812      0.021145685    5.7280797      726.26653     -36.493882      689.77265    
    445000   294.48643      0.021145685    13.208102      730.62895     -37.082583      693.54636    
    446000   306.23218      0.021145685    14.519106      759.77048     -37.661033      722.10944    
    447000   307.2446       0.021145685    9.133247       762.28233     -36.951416      725.33092    
    448000   284.17877      0.021145685    10.946616      705.05535     -38.197464      666.85789    
    449000   297.13937      0.021145685    11.737731      737.21096     -38.059795      699.15116    
    450000   303.83978      0.021145685    12.065362      753.83487     -40.518486      713.31638    
    451000   317.01472      0.021145685    14.496288      786.52225     -34.123761      752.39849    
    452000   298.49862      0.021145685    10.925126      740.58331     -37.825647      702.75766    
    453000   295.854        0.021145685    11.086087      734.02193     -36.316605      697.70533    
    454000   298.64708      0.021145685    12.518081      740.95164     -36.921854      704.02979    
    455000   300.45361      0.021145685    10.088657      745.43369     -38.349628      707.08406    
    456000   304.21425      0.021145685    11.844733      754.76394     -43.547849      711.21609    
    457000   297.68489      0.021145685    8.4068475      738.56441     -45.833348      692.73106    
    458000   289.10286      0.021145685    11.305261      717.27218     -44.817654      672.45452    
    459000   300.27187      0.021145685    7.412729       744.98279     -41.735183      703.24761    
    460000   315.53185      0.021145685    11.574312      782.84321     -41.178238      741.66497    
    461000   286.16042      0.021145685    9.6717512      709.97189     -42.010418      667.96147    
    462000   288.58071      0.021145685    9.6344227      715.97671     -44.820843      671.15586    
    463000   303.57427      0.021145685    11.390961      753.17613     -42.666146      710.50999    
    464000   300.42734      0.021145685    10.77107       745.36852     -46.455969      698.91255    
    465000   295.45337      0.021145685    12.301458      733.02794     -40.69678       692.33117    
    466000   302.68403      0.021145685    12.995377      750.96742     -40.838571      710.12885    
    467000   299.54013      0.021145685    9.954639       743.16731     -40.956094      702.21122    
    468000   303.77814      0.021145685    11.088865      753.68195     -36.278801      717.40315    
    469000   299.54739      0.021145685    11.33756       743.18534     -33.376428      709.80891    
    470000   291.07976      0.021145685    12.276811      722.1769      -32.329168      689.84773    
    471000   304.28781      0.021145685    11.876025      754.94646     -36.470589      718.47587    
    472000   303.25875      0.021145685    10.940286      752.39332     -44.654312      707.73901    
    473000   297.74509      0.021145685    12.96133       738.71377     -38.810745      699.90303    
    474000   283.74509      0.021145685    10.269547      703.97938     -36.518763      667.46062    
    475000   289.59478      0.021145685    10.688266      718.49262     -35.620381      682.87224    
    476000   309.08123      0.021145685    15.940833      766.83905     -38.563001      728.27605    
    477000   297.67079      0.021145685    11.03469       738.52944     -32.009233      706.52021    
    478000   306.06984      0.021145685    8.1703478      759.36772     -40.166404      719.20132    
    479000   300.37885      0.021145685    17.282173      745.2482      -34.105857      711.14234    
    480000   305.29434      0.021145685    13.917522      757.44368     -41.679916      715.76376    
    481000   297.60605      0.021145685    7.0882752      738.36881     -45.845611      692.5232     
    482000   292.09519      0.021145685    9.4776943      724.69621     -44.473397      680.22281    
    483000   305.08935      0.021145685    13.750695      756.93509     -41.315248      715.61984    
    484000   298.32924      0.021145685    14.950047      740.16306     -40.220679      699.94238    
    485000   309.68602      0.021145685    11.505462      768.33956     -41.115523      727.22404    
    486000   303.74032      0.021145685    8.6217966      753.58812     -46.207812      707.3803     
    487000   291.70309      0.021145685    13.010153      723.72341     -35.772004      687.95141    
    488000   304.98596      0.021145685    13.501389      756.67857     -33.674172      723.0044     
    489000   307.3633       0.021145685    11.500376      762.57682     -33.479941      729.09688    
    490000   298.22618      0.021145685    10.615391      739.90738     -34.911295      704.99609    
    491000   285.48703      0.021145685    10.206976      708.30119     -35.30054       673.00065    
    492000   307.77808      0.021145685    8.5810219      763.60589     -31.217416      732.38847    
    493000   318.34069      0.021145685    11.157141      789.81202     -29.083355      760.72867    
    494000   297.53366      0.021145685    13.029534      738.18922     -29.087715      709.1015     
    495000   292.6945       0.021145685    10.420006      726.18312     -34.046829      692.13629    
    496000   311.72937      0.021145685    9.1689543      773.40915     -37.639572      735.76958    
    497000   304.80311      0.021145685    17.371232      756.22492     -40.988512      715.23641    
    498000   284.99958      0.021145685    7.3414638      707.09181     -39.953418      667.1384     
    499000   289.30144      0.021145685    5.1322363      717.76485     -35.307506      682.45734    
    500000   303.20094      0.021145685    12.305713      752.2499      -33.522712      718.72719    
    501000   302.64238      0.021145685    12.735869      750.86409     -33.613534      717.25056    
    502000   310.00825      0.021145685    15.225302      769.13902     -33.783545      735.35547    
    503000   289.70893      0.021145685    14.621208      718.77584     -36.338643      682.4372     
    504000   293.20573      0.021145685    11.337915      727.45151     -38.041563      689.40995    
    505000   305.57363      0.021145685    0.037974691    758.13659     -34.845098      723.2915     
    506000   317.64168      0.021145685    7.9781519      788.07775     -42.958366      745.11939    
    507000   299.07776      0.021145685    44.004415      742.02017     -41.150219      700.86995    
    508000   291.03519      0.021145685    10.378131      722.06634     -41.095164      680.97118    
    509000   307.95899      0.021145685    5.324213       764.05475     -45.540152      718.5146     
    510000   309.95507      0.021145685    15.789577      769.00707     -40.522435      728.48464    
    511000   297.92295      0.021145685    16.714673      739.15504     -33.737852      705.41719    
    512000   292.99743      0.021145685   -3.8586651      726.93469     -34.241463      692.69323    
    513000   308.12075      0.021145685    7.5816217      764.45607     -32.676272      731.7798     
    514000   295.7461       0.021145685    28.147104      733.75423     -32.207903      701.54633    
    515000   294.25768      0.021145685    6.6802144      730.06141     -36.799087      693.26232    
    516000   306.04156      0.021145685    10.132687      759.29755     -29.459471      729.83808    
    517000   307.1927       0.021145685    23.151699      762.15354     -31.267372      730.88617    
    518000   295.98504      0.021145685    12.549819      734.34703     -29.37845       704.96858    
    519000   294.07128      0.021145685    5.3605049      729.59894     -27.131388      702.46755    
    520000   304.36837      0.021145685    10.624706      755.14631     -30.627646      724.51866    
    521000   304.27934      0.021145685    15.129608      754.92542     -30.805192      724.12023    
    522000   298.36099      0.021145685    14.489977      740.24184     -33.504327      706.73751    
    523000   290.89606      0.021145685    10.84376       721.72114     -30.822385      690.89876    
    524000   310.53277      0.021145685    13.635936      770.44036     -33.789594      736.65077    
    525000   311.83324      0.021145685    11.241529      773.66686     -40.586665      733.0802     
    526000   291.78115      0.021145685    11.189699      723.91709     -37.690525      686.22656    
    527000   283.66009      0.021145685    9.8294696      703.76851     -36.121437      667.64707    
    528000   303.53952      0.021145685    12.742938      753.08991     -29.067791      724.02212    
    529000   304.63761      0.021145685    11.218469      755.8143      -32.136672      723.67763    
    530000   303.16625      0.021145685    11.86396       752.16382     -36.969223      715.19459    
    531000   304.10727      0.021145685    9.7397216      754.49853     -35.900832      718.5977     
    532000   298.29546      0.021145685    11.291652      740.07925     -39.736607      700.34264    
    533000   314.75861      0.021145685    19.653823      780.92479     -40.215294      740.7095     
    534000   303.83514      0.021145685    8.8342381      753.82336     -38.52202       715.30134    
    535000   293.00764      0.021145685    6.7952643      726.96003     -45.102342      681.85768    
    536000   298.88291      0.021145685    18.223798      741.53673     -48.125571      693.41116    
    537000   308.60384      0.021145685    9.3286211      765.65463     -40.350309      725.30432    
    538000   288.41182      0.021145685    7.3412125      715.55768     -36.814948      678.74274    
    539000   291.41599      0.021145685    19.893762      723.0111      -44.13979       678.87131    
    540000   315.493        0.021145685    18.114571      782.74683     -34.430276      748.31655    
    541000   302.23892      0.021145685    2.1936978      749.86309     -36.421797      713.44129    
    542000   288.17922      0.021145685   -5.6794156      714.98059     -38.35658       676.62401    
    543000   310.44291      0.021145685    9.1749094      770.21741     -33.175623      737.04178    
    544000   302.80069      0.021145685    8.0262791      751.25686     -34.583662      716.6732     
    545000   292.42026      0.021145685    14.106869      725.50273     -36.776808      688.72592    
    546000   300.68441      0.021145685    20.058734      746.00632     -37.055028      708.95129    
    547000   305.84681      0.021145685    1.0157588      758.81436     -37.148778      721.66558    
    548000   288.1047       0.021145685    15.031808      714.7957      -41.884795      672.91091    
    549000   299.26654      0.021145685    13.340424      742.48853     -45.739159      696.74938    
    550000   298.61837      0.021145685    7.2299261      740.8804      -43.439457      697.44094    
    551000   295.78802      0.021145685    5.2669445      733.85822     -39.14491       694.71331    
    552000   293.75563      0.021145685    17.941845      728.81581     -38.096075      690.71973    
    553000   316.54193      0.021145685    3.8488617      785.34926     -40.085293      745.26397    
    554000   302.13544      0.021145685   -12.637825      749.60635     -32.474987      717.13136    
    555000   289.59511      0.021145685    12.333663      718.49345     -34.230286      684.26316    
    556000   288.74223      0.021145685    21.361975      716.37743     -42.191761      674.18567    
    557000   312.91582      0.021145685    19.380127      776.35277     -45.121147      731.23163    
    558000   298.39628      0.021145685   -5.7982773      740.3294      -41.217219      699.11219    
    559000   281.20935      0.021145685    14.877879      697.68816     -39.9352        657.75296    
    560000   310.1573       0.021145685    18.871122      769.50882     -40.607744      728.90108    
    561000   315.33568      0.021145685    1.702985       782.35651     -38.243788      744.11272    
    562000   307.66306      0.021145685    3.9494644      763.32052     -41.364969      721.95556    
    563000   295.2499       0.021145685    14.286326      732.52315     -39.802722      692.72043    
    564000   294.56643      0.021145685    26.578242      730.82744     -42.091838      688.7356     
    565000   301.97556      0.021145685    15.585825      749.20968     -41.033485      708.17619    
    566000   308.75615      0.021145685   -6.4784903      766.03252     -40.158943      725.87358    
    567000   300.55857      0.021145685    14.551902      745.69409     -41.817869      703.87622    
    568000   301.89424      0.021145685    24.561785      749.00794     -44.063607      704.94433    
    569000   299.01244      0.021145685    8.4413567      741.85811     -36.998631      704.85948    
    570000   306.68836      0.021145685    11.397995      760.90227     -34.513036      726.38923    
    571000   303.0611       0.021145685    21.722031      751.90294     -43.166278      708.73666    
    572000   298.44475      0.021145685    4.3213244      740.44964     -41.576683      698.87296    
    573000   293.97438      0.021145685    8.3072315      729.35855     -44.432949      684.9256     
    574000   308.1674       0.021145685    20.927028      764.57181     -42.277315      722.2945     
    575000   303.67882      0.021145685    13.125992      753.43553     -36.392678      717.04285    
    576000   303.60668      0.021145685    7.583799       753.25655     -35.968412      717.28814    
    577000   276.65292      0.021145685    10.536823      686.38351     -33.81464       652.56887    
    578000   302.94369      0.021145685    14.858711      751.61165     -32.054894      719.55675    
    579000   313.26137      0.021145685    0.58521766     777.21009     -38.658889      738.5512     
    580000   300.49819      0.021145685    11.764676      745.54429     -37.357257      708.18704    
    581000   296.46495      0.021145685    18.687283      735.53772     -42.723169      692.81455    
    582000   300.67866      0.021145685    8.8986743      745.99205     -38.608738      707.38331    
    583000   306.57618      0.021145685    7.3872087      760.62395     -42.590407      718.03354    
    584000   300.83942      0.021145685    10.529376      746.3909      -41.450251      704.94065    
    585000   290.36968      0.021145685    13.311108      720.41517     -41.072444      679.34273    
    586000   302.77702      0.021145685    12.649544      751.19813     -41.350476      709.84765    
    587000   301.40998      0.021145685    9.179785       747.80647     -42.262261      705.54421    
    588000   294.02346      0.021145685    9.3114447      729.4803      -40.834225      688.64608    
    589000   303.64638      0.021145685    9.206194       753.35504     -39.625527      713.72951    
    590000   310.98526      0.021145685    20.489025      771.56301     -39.060943      732.50207    
    591000   304.04615      0.021145685    14.809815      754.34687     -45.004903      709.34197    
    592000   290.83827      0.021145685    7.4903703      721.57777     -48.605059      672.97271    
    593000   295.84365      0.021145685    10.626167      733.99626     -45.423457      688.5728     
    594000   308.35804      0.021145685    14.451368      765.04479     -47.402285      717.6425     
    595000   293.08024      0.021145685    11.09515       727.14016     -41.324016      685.81615    
    596000   288.21606      0.021145685    9.055794       715.072       -36.625304      678.44669    
    597000   309.13712      0.021145685    12.642002      766.97771     -44.953143      722.02457    
    598000   305.23081      0.021145685    11.684031      757.28605     -40.883926      716.40213    
    599000   293.89719      0.021145685    9.8992757      729.16703     -37.287361      691.87966    
    600000   298.63466      0.021145685    11.091716      740.92082     -36.937944      703.98288    
    601000   300.78389      0.021145685    10.503895      746.25312     -38.918263      707.33485    
    602000   296.87356      0.021145685    7.4942557      736.55149     -36.24542       700.30607    
    603000   305.50871      0.021145685    8.8607019      757.97553     -35.877213      722.09832    
    604000   302.07788      0.021145685    13.02752       749.46354     -37.472654      711.99088    
    605000   300.4859       0.021145685    12.069597      745.5138      -43.177805      702.33599    
    606000   301.79856      0.021145685    10.432333      748.77053     -43.672799      705.09774    
    607000   289.57826      0.021145685    9.5562751      718.45165     -44.041176      674.41047    
    608000   282.69683      0.021145685    9.7543468      701.37863     -39.112447      662.26618    
    609000   310.8293       0.021145685    11.343509      771.17606     -40.396655      730.77941    
    610000   300.88775      0.021145685    9.9770588      746.51079     -38.139939      708.37085    
    611000   288.77463      0.021145685    10.991551      716.45783     -41.143117      675.31471    
    612000   308.91619      0.021145685    14.878919      766.42957     -38.611949      727.81762    
    613000   312.85315      0.021145685    11.177479      776.19728     -31.507839      744.68944    
    614000   287.8808       0.021145685    11.017895      714.24019     -34.269769      679.97043    
    615000   298.48646      0.021145685    12.315573      740.55312     -35.685961      704.86716    
    616000   307.33837      0.021145685    11.240896      762.51496     -36.246972      726.26799    
    617000   306.76186      0.021145685    12.219075      761.08464     -29.236483      731.84815    
    618000   297.7751       0.021145685    7.3579216      738.78822     -29.926022      708.8622     
    619000   302.48625      0.021145685    11.559116      750.47672     -29.40307       721.07365    
    620000   291.55903      0.021145685    11.519015      723.366       -28.027807      695.33819    
    621000   308.23824      0.021145685    12.510581      764.74757     -27.465741      737.28182    
    622000   298.95683      0.021145685    12.070639      741.72013     -28.646469      713.07366    
    623000   300.11709      0.021145685    11.560634      744.59878     -27.553049      717.04573    
    624000   291.81169      0.021145685    10.545912      723.99284     -27.66973       696.32312    
    625000   295.10632      0.021145685    11.188688      732.16692     -30.733445      701.43347    
    626000   307.09211      0.021145685    12.24978       761.90399     -32.792028      729.11197    
    627000   304.0883       0.021145685    9.1317338      754.45145     -30.940648      723.51081    
    628000   289.94334      0.021145685    11.020109      719.35743     -34.007434      685.35       
    629000   276.29727      0.021145685    13.264788      685.50114     -35.434263      650.06687    
    630000   309.4915       0.021145685    11.164757      767.85693     -37.584562      730.27237    
    631000   306.00716      0.021145685    10.29839       759.2122      -34.516759      724.69544    
    632000   297.54526      0.021145685    12.064881      738.218       -34.314417      703.90358    
    633000   305.18418      0.021145685    12.560485      757.17037     -34.240008      722.93036    
    634000   324.68031      0.021145685    11.42521       805.54081     -34.053573      771.48724    
    635000   300.39206      0.021145685    10.043514      745.28098     -32.037631      713.24334    
    636000   282.14287      0.021145685    8.7655951      700.00424     -29.34069       670.66355    
    637000   300.64356      0.021145685    15.354903      745.90497     -33.945554      711.95942    
    638000   315.28747      0.021145685    12.072034      782.23691     -35.025644      747.21127    
    639000   311.4202       0.021145685    8.7477089      772.64209     -43.328591      729.3135     
    640000   293.2889       0.021145685    11.760653      727.65784     -41.624586      686.03326    
    641000   295.55039      0.021145685    8.3613288      733.26866     -41.731209      691.53745    
    642000   308.49938      0.021145685    11.56324       765.39546     -44.025386      721.37007    
    643000   274.37346      0.021145685    8.4214896      680.72813     -40.686094      640.04204    
    644000   303.15563      0.021145685    12.082753      752.13747     -35.439207      716.69826    
    645000   308.11021      0.021145685    11.393637      764.42992     -37.778261      726.65166    
    646000   285.32608      0.021145685    11.076602      707.90188     -39.187619      668.71426    
    647000   291.97151      0.021145685    11.630807      724.38935     -39.865928      684.52343    
    648000   310.69183      0.021145685    14.069386      770.83499     -39.641208      731.19379    
    649000   305.08144      0.021145685    11.086024      756.91545     -42.77607       714.13938    
    650000   291.23496      0.021145685    10.03695       722.56196     -38.603055      683.9589     
    651000   285.88723      0.021145685    11.020573      709.2941      -34.944886      674.34921    
    652000   300.02156      0.021145685    12.089194      744.36177     -32.793085      711.56868    
    653000   315.45815      0.021145685    11.332109      782.66036     -34.754785      747.90558    
    654000   296.83476      0.021145685    11.766276      736.45523     -32.823966      703.63126    
    655000   279.98832      0.021145685    11.292923      694.65874     -36.137078      658.52167    
    656000   306.02224      0.021145685    10.270394      759.2496      -34.006665      725.24294    
    657000   311.06674      0.021145685    9.7909927      771.76517     -33.86505       737.90012    
    658000   305.15901      0.021145685    11.354624      757.10792     -39.314484      717.79343    
    659000   302.93008      0.021145685    14.501681      751.57787     -35.827844      715.75002    
    660000   302.28999      0.021145685    11.155102      749.98981     -35.851498      714.13831    
    661000   302.06867      0.021145685    7.5471072      749.44069     -35.028379      714.41231    
    662000   301.29903      0.021145685    13.149625      747.53119     -34.463807      713.06739    
    663000   292.12252      0.021145685    13.877406      724.76403     -33.92648       690.83755    
    664000   309.9471       0.021145685    11.886585      768.98729     -37.690087      731.29721    
    665000   300.39466      0.021145685    6.4729224      745.28744     -38.196884      707.09056    
    666000   295.64766      0.021145685    11.101985      733.50999     -34.20254       699.30745    
    667000   293.48974      0.021145685    13.530343      728.15613     -37.112027      691.0441     
    668000   299.03468      0.021145685    11.594773      741.91328     -37.640769      704.27251    
    669000   296.82861      0.021145685    8.9117116      736.43997     -37.830196      698.60978    
    670000   307.80154      0.021145685    10.939791      763.66411     -41.11058       722.55353    
    671000   305.65454      0.021145685    16.627138      758.33734     -35.994781      722.34256    
    672000   292.55217      0.021145685    14.335315      725.83        -34.569199      691.2608     
    673000   308.19412      0.021145685    12.661107      764.63811     -34.034602      730.60351    
    674000   304.98699      0.021145685    17.703242      756.68112     -38.073139      718.60798    
    675000   296.73454      0.021145685    15.617372      736.20658     -44.503945      691.70263    
    676000   294.14437      0.021145685    8.4582498      729.78028     -39.995707      689.78458    
    677000   307.28905      0.021145685    8.8731683      762.3926      -42.6709        719.7217     
    678000   300.38679      0.021145685    11.479778      745.26792     -43.061697      702.20622    
    679000   297.78187      0.021145685    18.52554       738.80502     -43.794766      695.01026    
    680000   295.70814      0.021145685    9.2625104      733.66006     -39.562598      694.09746    
    681000   310.93029      0.021145685    12.650616      771.42662     -39.927051      731.49957    
    682000   311.66964      0.021145685    13.056186      773.26097     -34.866499      738.39447    
    683000   298.97858      0.021145685    11.829824      741.77409     -35.011034      706.76306    
    684000   291.2341       0.021145685    10.77857       722.55982     -40.255321      682.3045     
    685000   304.23259      0.021145685    9.3600714      754.80945     -41.4664        713.34305    
    686000   295.58547      0.021145685    10.720487      733.35571     -36.88411       696.4716     
    687000   314.54928      0.021145685    14.221845      780.40543     -33.079509      747.32592    
    688000   303.19886      0.021145685    11.45521       752.24473     -35.558033      716.6867     
    689000   290.17622      0.021145685    8.3003461      719.93521     -35.433056      684.50215    
    690000   309.85992      0.021145685    11.109436      768.77099     -38.036944      730.73405    
    691000   289.12315      0.021145685    18.321742      717.32251     -34.909776      682.41274    
    692000   291.04613      0.021145685    9.0840744      722.09346     -29.035257      693.0582     
    693000   312.68447      0.021145685    13.719103      775.7788      -29.285809      746.49299    
    694000   307.67686      0.021145685    18.548501      763.35476     -34.145534      729.20923    
    695000   298.0811       0.021145685    6.9987535      739.54742     -32.15314       707.39428    
    696000   301.85527      0.021145685    4.2397241      748.91124     -31.657196      717.25405    
    697000   305.40398      0.021145685    15.098274      757.71569     -36.646834      721.06885    
    698000   292.25423      0.021145685    10.940361      725.09081     -34.564849      690.52596    
    699000   298.73951      0.021145685    9.6042702      741.18097     -32.556001      708.62497    
    700000   305.43988      0.021145685    6.1614469      757.80477     -31.896534      725.90824    
    701000   305.23194      0.021145685    11.080483      757.28887     -30.196999      727.09187    
    702000   295.59952      0.021145685    12.679883      733.39055     -28.39574       704.99481    
    703000   302.54601      0.021145685    10.669614      750.625       -30.972291      719.65271    
    704000   304.85595      0.021145685    11.14654       756.35603     -29.777362      726.57866    
    705000   297.8681       0.021145685    11.474989      739.01898     -31.543858      707.47512    
    706000   302.43877      0.021145685    13.547774      750.35893     -34.635498      715.72343    
    707000   297.59882      0.021145685    7.6202583      738.35089     -38.949704      699.40118    
    708000   302.40136      0.021145685    10.836602      750.26612     -30.978418      719.2877     
    709000   286.72208      0.021145685    10.273021      711.36539     -26.213219      685.15217    
    710000   308.21848      0.021145685    10.510994      764.69855     -26.194732      738.50382    
    711000   312.9615       0.021145685    7.395197       776.46611     -27.004929      749.46118    
    712000   287.48368      0.021145685    10.811761      713.25494     -29.03351       684.22143    
    713000   294.78465      0.021145685    18.43136       731.36885     -28.370321      702.99853    
    714000   313.16855      0.021145685    10.881104      776.9798      -29.861712      747.11808    
    715000   295.51916      0.021145685    11.800403      733.19118     -30.720578      702.4706     
    716000   284.00421      0.021145685    9.8361006      704.62227     -31.092683      673.52958    
    717000   295.87713      0.021145685    11.620534      734.07931     -35.650579      698.42873    
    718000   318.20607      0.021145685    11.393118      789.47804     -35.101012      754.37703    
    719000   297.56432      0.021145685    15.064123      738.26527     -29.800829      708.46444    
    720000   286.92765      0.021145685    19.781198      711.87542     -26.358838      685.51658    
    721000   298.53264      0.021145685    11.06131       740.66771     -31.541497      709.12621    
    722000   309.04179      0.021145685    10.1475        766.74119     -32.710692      734.0305     
    723000   299.56734      0.021145685    11.766054      743.23483     -33.458552      709.77628    
    724000   283.89272      0.021145685    12.807651      704.34567     -26.759017      677.58665    
    725000   306.48689      0.021145685    14.304627      760.40241     -31.437362      728.96505    
    726000   305.18094      0.021145685    8.4015652      757.16232     -34.003122      723.1592     
    727000   290.29693      0.021145685    11.496411      720.23468     -29.881869      690.35281    
    728000   306.77782      0.021145685    13.646501      761.12424     -26.418727      734.70551    
    729000   306.5576       0.021145685    12.362081      760.57785     -26.711787      733.86607    
    730000   303.27681      0.021145685    10.988094      752.43813     -28.045854      724.39228    
    731000   302.67425      0.021145685    15.582602      750.94317     -31.612646      719.33052    
    732000   301.2359       0.021145685    11.308417      747.37456     -32.700715      714.67385    
    733000   291.40006      0.021145685    5.9101524      722.97157     -31.310649      691.66092    
    734000   292.61601      0.021145685    11.195649      725.98838     -29.11794       696.87044    
    735000   299.65055      0.021145685    10.82774       743.44128     -31.594057      711.84722    
    736000   315.44611      0.021145685    11.714998      782.63049     -29.756044      752.87445    
    737000   300.0705       0.021145685    12.270343      744.48319     -33.343864      711.13933    
    738000   285.92942      0.021145685    12.07277       709.39878     -32.714856      676.68392    
    739000   304.35242      0.021145685    10.389077      755.10674     -36.565177      718.54156    
    740000   321.86451      0.021145685    12.233192      798.55472     -35.462256      763.09247    
    741000   296.84162      0.021145685    12.26271       736.47224     -35.89093       700.58131    
    742000   283.30307      0.021145685    12.043768      702.88272     -35.880272      667.00244    
    743000   303.56046      0.021145685    15.58283       753.14186     -42.095247      711.04662    
    744000   305.84104      0.021145685    9.0180717      758.80005     -39.659386      719.14066    
    745000   302.82328      0.021145685    4.9570057      751.31291     -39.751498      711.56141    
    746000   287.15282      0.021145685    8.2510788      712.43407     -37.407951      675.02612    
    747000   296.09317      0.021145685    12.872583      734.61533     -35.789461      698.82587    
    748000   297.0027       0.021145685    12.169122      736.87189     -32.999184      703.8727     
    749000   295.1002       0.021145685    14.917791      732.15172     -28.536011      703.61571    
    750000   296.35878      0.021145685    10.367874      735.27431     -29.691935      705.58238    
    751000   310.82485      0.021145685    10.70887       771.16502     -29.746684      741.41833    
    752000   300.31076      0.021145685    10.87339       745.07927     -35.483909      709.59536    
    753000   294.25159      0.021145685    15.155155      730.0463      -36.515768      693.53053    
    754000   298.00631      0.021145685    9.7879971      739.36186     -40.166203      699.19566    
    755000   306.63556      0.021145685    11.55902       760.77128     -42.114844      718.65644    
    756000   304.62984      0.021145685    11.199645      755.79503     -38.106599      717.68843    
    757000   292.55525      0.021145685    9.8179376      725.83764     -35.970932      689.86671    
    758000   307.77257      0.021145685    15.022838      763.59222     -30.210565      733.38165    
    759000   308.80401      0.021145685    14.600893      766.15127     -30.323823      735.82745    
    760000   304.21927      0.021145685    5.3155057      754.7764      -29.737901      725.0385     
    761000   281.81403      0.021145685    8.5106996      699.18838     -24.673686      674.5147     
    762000   293.22582      0.021145685    13.051974      727.50135     -27.348638      700.15271    
    763000   295.16398      0.021145685    15.416321      732.30998     -29.9863        702.32368    
    764000   317.03427      0.021145685    4.0317131      786.57077     -28.569593      758.00117    
    765000   301.66631      0.021145685    0.40582075     748.44242     -28.979808      719.46262    
    766000   293.82636      0.021145685    14.926473      728.9913      -24.05172       704.93958    
    767000   302.98703      0.021145685    16.097585      751.71916     -24.734025      726.98514    
    768000   292.15574      0.021145685    16.734232      724.84644     -22.710549      702.13589    
    769000   305.72134      0.021145685    12.106354      758.50308     -21.082876      737.4202     
    770000   311.6507       0.021145685    9.7411106      773.21397     -19.968142      753.24583    
    771000   299.24123      0.021145685    11.508023      742.42575     -22.915633      719.51012    
    772000   295.14843      0.021145685    11.48001       732.27138     -28.727295      703.54409    
    773000   300.08162      0.021145685    12.295298      744.51076     -30.551445      713.95932    
    774000   292.17462      0.021145685    12.275391      724.89328     -27.079428      697.81385    
    775000   306.58331      0.021145685    11.254293      760.64164     -23.191852      737.44979    
    776000   307.35833      0.021145685    9.953935       762.5645      -26.248837      736.31566    
    777000   292.64196      0.021145685    12.254409      726.05277     -28.418073      697.6347     
    778000   292.19054      0.021145685    10.855096      724.93277     -28.658535      696.27424    
    779000   303.44279      0.021145685    12.887082      752.84993     -30.045994      722.80394    
    780000   308.69864      0.021145685    9.8116218      765.88985     -32.866662      733.02318    
    781000   298.40333      0.021145685    14.736118      740.34688     -38.031783      702.3151     
    782000   298.37665      0.021145685    17.578521      740.28068     -36.119526      704.16116    
    783000   309.29561      0.021145685    9.7133742      767.37093     -31.270207      736.10073    
    784000   314.93746      0.021145685    13.012978      781.36852     -28.429758      752.93876    
    785000   295.45979      0.021145685    12.680535      733.04389     -28.627877      704.41602    
    786000   291.77299      0.021145685    14.108935      723.89683     -28.926702      694.97013    
    787000   308.53148      0.021145685    7.9868174      765.47509     -27.500074      737.97502    
    788000   305.28501      0.021145685    11.519319      757.42052     -26.589318      730.8312     
    789000   297.70773      0.021145685    13.367066      738.62109     -26.954626      711.66646    
    790000   297.70856      0.021145685    10.550958      738.62314     -27.572947      711.05019    
    791000   303.16705      0.021145685    10.773369      752.1658      -28.541943      723.62385    
    792000   298.66511      0.021145685    11.103821      740.99636     -29.318346      711.67802    
    793000   293.61287      0.021145685    13.0887        728.46163     -28.494967      699.96666    
    794000   297.83231      0.021145685    10.73337       738.93016     -34.541012      704.38915    
    795000   305.81721      0.021145685    11.442036      758.74093     -34.045819      724.69511    
    796000   292.98817      0.021145685    12.476814      726.91171     -34.197365      692.71435    
    797000   286.11096      0.021145685    10.149393      709.84919     -32.020726      677.82846    
    798000   308.43772      0.021145685    11.897306      765.24248     -32.821016      732.42146    
    799000   296.70544      0.021145685    10.09749       736.13437     -35.00822       701.12615    
    800000   299.61974      0.021145685    12.847893      743.36482     -33.437483      709.92734    
    801000   305.8445       0.021145685    11.059017      758.80863     -31.555125      727.2535     
    802000   300.87864      0.021145685    11.256297      746.48821     -31.647951      714.84026    
    803000   285.32731      0.021145685    12.155594      707.90491     -31.732011      676.1729     
    804000   289.54516      0.021145685    11.824987      718.36952     -37.055715      681.3138     
    805000   297.10197      0.021145685    14.716552      737.11817     -38.633555      698.48462    
    806000   306.08255      0.021145685    11.443373      759.39925     -33.674156      725.7251     
    807000   292.27426      0.021145685    10.877771      725.1405      -36.548945      688.59156    
    808000   302.32173      0.021145685    11.312348      750.06855     -39.911799      710.15675    
    809000   310.92451      0.021145685    14.742143      771.41228     -34.858716      736.55356    
    810000   311.05601      0.021145685    9.9091648      771.73852     -32.771249      738.96728    
    811000   276.42968      0.021145685    10.710565      685.82967     -33.728706      652.10096    
    812000   297.51758      0.021145685    11.299685      738.14931     -31.943071      706.20624    
    813000   299.33884      0.021145685    11.772652      742.66792     -27.92354       714.74438    
    814000   303.12571      0.021145685    11.394298      752.06324     -24.03244       728.0308     
    815000   299.11955      0.021145685    10.652365      742.12384     -24.845844      717.278      
    816000   306.85764      0.021145685    9.8800655      761.32227     -22.390311      738.93196    
    817000   298.07745      0.021145685    14.021765      739.53837     -28.459535      711.07884    
    818000   297.15078      0.021145685    10.275304      737.23928     -34.024025      703.21525    
    819000   294.76636      0.021145685    11.662185      731.32347     -32.393945      698.92952    
    820000   296.95764      0.021145685    12.8436        736.76008     -33.25874       703.50134    
    821000   298.80199      0.021145685    7.9304558      741.33598     -32.067901      709.26808    
    822000   305.65665      0.021145685    11.184777      758.34256     -35.874023      722.46854    
    823000   313.12015      0.021145685    14.706273      776.85973     -28.628248      748.23148    
    824000   304.52903      0.021145685    10.20733       755.54493     -29.090345      726.45458    
    825000   284.10251      0.021145685    13.594051      704.86615     -33.841255      671.02489    
    826000   297.42245      0.021145685    12.188936      737.91329     -29.826939      708.08636    
    827000   306.37233      0.021145685    8.4897966      760.1182      -30.841432      729.27677    
    828000   311.48498      0.021145685    12.727764      772.80282     -30.869819      741.933      
    829000   307.30417      0.021145685    11.817938      762.43013     -32.33488       730.09525    
    830000   279.51904      0.021145685    10.442288      693.49445     -31.806308      661.68815    
    831000   296.29979      0.021145685    10.526533      735.12796     -34.609081      700.51888    
    832000   313.58266      0.021145685    12.62808       778.00723     -33.337475      744.66975    
    833000   295.39776      0.021145685    11.537755      732.89        -31.906577      700.98342    
    834000   301.48564      0.021145685    13.389502      747.99418     -33.968668      714.02552    
    835000   314.83434      0.021145685    9.9167723      781.11268     -32.306918      748.80576    
    836000   288.6137       0.021145685    10.157761      716.05854     -28.853904      687.20464    
    837000   295.24201      0.021145685    12.880872      732.50356     -31.716891      700.78667    
    838000   304.69382      0.021145685    11.886         755.95377     -32.938112      723.01566    
    839000   291.89535      0.021145685    9.9810794      724.20041     -31.898699      692.30171    
    840000   298.09519      0.021145685    10.967942      739.58239     -30.748819      708.83358    
    841000   305.74383      0.021145685    11.529468      758.55888     -33.751633      724.80725    
    842000   310.95664      0.021145685    10.937541      771.492       -31.943972      739.54802    
    843000   300.03152      0.021145685    10.304271      744.38646     -32.937646      711.44882    
    844000   305.45556      0.021145685    17.013203      757.84367     -34.754633      723.08903    
    845000   299.24107      0.021145685    12.475275      742.42534     -35.345645      707.0797     
    846000   298.59147      0.021145685    9.4725661      740.81368     -33.197839      707.61584    
    847000   295.86614      0.021145685    12.839012      734.05206     -29.473387      704.57867    
    848000   302.18235      0.021145685    14.893008      749.72274     -30.317874      719.40487    
    849000   297.23642      0.021145685    10.524856      737.45176     -33.223125      704.22863    
    850000   301.46558      0.021145685    10.530372      747.94442     -33.388019      714.5564     
    851000   299.72496      0.021145685    12.702139      743.62588     -22.693057      720.93282    
    852000   293.38876      0.021145685    11.192454      727.90559     -27.464926      700.44066    
    853000   308.19868      0.021145685    11.10713       764.64943     -27.228569      737.42086    
    854000   304.81788      0.021145685    8.7828237      756.26155     -26.336714      729.92484    
    855000   294.47812      0.021145685    9.8878892      730.60833     -25.903109      704.70523    
    856000   291.02947      0.021145685    13.732811      722.05213     -29.191759      692.86037    
    857000   305.1289       0.021145685    12.14935       757.03321     -31.083636      725.94958    
    858000   309.15071      0.021145685    9.8253244      767.01145     -30.142178      736.86927    
    859000   294.84922      0.021145685    11.07064       731.52905     -26.484373      705.04468    
    860000   287.69157      0.021145685    10.548279      713.77071     -30.234365      683.53634    
    861000   316.55942      0.021145685    11.253566      785.39266     -33.653702      751.73896    
    862000   308.25973      0.021145685    12.831985      764.80088     -32.406512      732.39436    
    863000   287.22312      0.021145685    10.413358      712.60848     -34.124852      678.48363    
    864000   273.99619      0.021145685    10.419007      679.79209     -28.864747      650.92734    
    865000   302.05551      0.021145685    10.445396      749.40804     -30.232563      719.17548    
    866000   307.49814      0.021145685    12.832631      762.91136     -32.385601      730.52576    
    867000   292.5729       0.021145685    19.475393      725.88142     -31.400186      694.48123    
    868000   287.96843      0.021145685    5.1312698      714.45762     -35.897899      678.55972    
    869000   306.13394      0.021145685    5.4955887      759.52674     -37.826304      721.70043    
    870000   304.64803      0.021145685    14.999802      755.84015     -37.208744      718.63141    
    871000   291.82997      0.021145685    2.1655478      724.03821     -38.156661      685.88155    
    872000   306.96659      0.021145685    7.0734102      761.59258     -36.190635      725.40195    
    873000   303.18556      0.021145685    12.907807      752.21172     -37.460129      714.75159    
    874000   293.75511      0.021145685    11.858612      728.81452     -31.106802      697.70772    
    875000   301.41647      0.021145685    9.8975428      747.82256     -32.339549      715.48301    
    876000   308.91732      0.021145685    11.269905      766.43238     -27.24763       739.18475    
    877000   298.93366      0.021145685    12.894155      741.66265     -27.334966      714.32768    
    878000   302.12304      0.021145685    13.257728      749.57559     -31.752321      717.82327    
    879000   301.41299      0.021145685    9.379509       747.81395     -35.596079      712.21787    
    880000   285.51697      0.021145685    9.7559704      708.37547     -37.578405      670.79707    
    881000   298.59         0.021145685    12.00472       740.81001     -36.906392      703.90362    
    882000   300.45416      0.021145685    12.166796      745.43506     -35.42387       710.01119    
    883000   286.98087      0.021145685    10.790188      712.00744     -37.792722      674.21472    
    884000   300.12718      0.021145685    10.703099      744.62381     -39.628957      704.99486    
    885000   307.56991      0.021145685    13.516918      763.08942     -32.851436      730.23798    
    886000   304.30559      0.021145685    11.240427      754.99057     -41.088769      713.9018     
    887000   307.46622      0.021145685    13.031676      762.83217     -38.981939      723.85023    
    888000   303.11181      0.021145685    10.490793      752.02876     -37.416442      714.61232    
    889000   291.26607      0.021145685    10.470777      722.63914     -30.512584      692.12656    
    890000   290.91042      0.021145685    10.995427      721.75678     -33.338915      688.41787    
    891000   303.71756      0.021145685    12.890289      753.53163     -27.793083      725.73855    
    892000   294.76598      0.021145685    13.516348      731.32252     -33.653172      697.66934    
    893000   299.67699      0.021145685    10.938586      743.50688     -32.895503      710.61137    
    894000   296.12752      0.021145685    9.7303978      734.70053     -32.944395      701.75613    
    895000   300.63389      0.021145685    11.262197      745.88098     -32.138093      713.74289    
    896000   294.32742      0.021145685    10.909589      730.23444     -25.590437      704.644      
    897000   310.3217       0.021145685    11.868314      769.91669     -29.153098      740.76359    
    898000   311.65109      0.021145685    13.061607      773.21495     -27.990582      745.22437    
    899000   292.87981      0.021145685    9.8438482      726.64289     -26.057782      700.58511    
    900000   285.09582      0.021145685    9.4227518      707.33058     -27.695414      679.63516    
    901000   304.49068      0.021145685    11.495056      755.44978     -32.026181      723.4236     
    902000   313.34321      0.021145685    12.145034      777.41314     -35.227094      742.18604    
    903000   294.01337      0.021145685    13.826098      729.45528     -33.434343      696.02094    
    904000   286.90235      0.021145685    9.2483441      711.81264     -37.609675      674.20297    
    905000   306.20682      0.021145685    5.6430106      759.70756     -33.297255      726.41031    
    906000   307.75277      0.021145685    11.075891      763.5431      -34.815286      728.72782    
    907000   296.25551      0.021145685    11.459857      735.01808     -31.380292      703.63779    
    908000   288.95207      0.021145685    10.109039      716.89805     -35.423984      681.47407    
    909000   301.53204      0.021145685    11.549835      748.1093      -33.246491      714.86281    
    910000   302.19507      0.021145685    7.6157266      749.75431     -36.45211       713.3022     
    911000   295.151        0.021145685    10.467184      732.27776     -35.498115      696.77965    
    912000   304.96272      0.021145685    11.680245      756.62093     -34.684449      721.93648    
    913000   308.90916      0.021145685    11.212848      766.41215     -39.661513      726.75064    
    914000   295.06486      0.021145685    10.37953       732.06405     -35.794731      696.26932    
    915000   294.26942      0.021145685    11.07502       730.09054     -33.766974      696.32357    
    916000   312.1699       0.021145685    12.181636      774.50212     -32.302871      742.19925    
    917000   295.1186       0.021145685    9.628023       732.19737     -35.94875       696.24862    
    918000   292.17173      0.021145685    10.464577      724.88612     -42.697306      682.18882    
    919000   287.95235      0.021145685    12.101717      714.41771     -38.243439      676.17427    
    920000   305.3889       0.021145685    12.35758       757.67829     -40.00295       717.67534    
    921000   315.28899      0.021145685    9.041104       782.24067     -36.314426      745.92624    
    922000   299.11425      0.021145685    8.2755038      742.11069     -39.890998      702.21969    
    923000   275.42908      0.021145685    11.571398      683.34715     -39.046698      644.30045    
    924000   299.71773      0.021145685    12.329344      743.60794     -39.323566      704.28438    
    925000   313.65777      0.021145685    8.8584247      778.19358     -44.638356      733.55522    
    926000   301.20731      0.021145685    8.1249195      747.30364     -44.618454      702.68518    
    927000   291.84535      0.021145685    9.8190377      724.07636     -42.622364      681.454      
    928000   304.16448      0.021145685    18.029324      754.64047     -40.318598      714.32187    
    929000   299.62002      0.021145685    6.3812016      743.36553     -40.56159       702.80394    
    930000   299.51775      0.021145685    10.64007       743.11178     -43.403607      699.70818    
    931000   291.942        0.021145685    10.30973       724.31614     -40.93866       683.37748    
    932000   295.98773      0.021145685    10.984326      734.35371     -38.928743      695.42497    
    933000   295.17638      0.021145685    13.396155      732.34074     -38.938942      693.4018     
    934000   304.12085      0.021145685    11.88307       754.53221     -34.508135      720.02408    
    935000   301.51123      0.021145685    10.556932      748.05768     -40.044575      708.01311    
    936000   298.15063      0.021145685    10.479318      739.71992     -34.933906      704.78602    
    937000   292.79493      0.021145685    16.424859      726.4323      -34.373574      692.05873    
    938000   297.11653      0.021145685    10.056603      737.15431     -29.951251      707.20306    
    939000   307.97139      0.021145685    5.5105852      764.08551     -31.647677      732.43783    
    940000   306.63013      0.021145685    10.619481      760.75779     -29.224936      731.53286    
    941000   298.68805      0.021145685    18.065753      741.0533      -33.205215      707.84808    
    942000   295.06533      0.021145685    8.2033018      732.06523     -38.09395       693.97128    
    943000   291.85757      0.021145685    8.024866       724.10666     -37.924118      686.18255    
    944000   304.67676      0.021145685    14.067607      755.91144     -35.862179      720.04927    
    945000   307.36517      0.021145685    12.808722      762.58146     -37.863287      724.71818    
    946000   298.11788      0.021145685    14.75268       739.63868     -34.973635      704.66504    
    947000   290.86701      0.021145685    11.43698       721.64907     -29.526576      692.12249    
    948000   310.23648      0.021145685    8.1774744      769.70526     -25.764427      743.94083    
    949000   313.14959      0.021145685    13.421019      776.93277     -27.852485      749.08028    
    950000   299.24396      0.021145685    13.259032      742.43251     -29.238409      713.1941     
    951000   297.51354      0.021145685    12.391693      738.13928     -30.836566      707.30272    
    952000   306.1787       0.021145685    9.3235907      759.6378      -30.887626      728.75018    
    953000   304.87345      0.021145685    21.292891      756.39944     -27.70249       728.69695    
    954000   293.5034       0.021145685    14.820197      728.19003     -28.56353       699.6265     
    955000   290.42954      0.021145685    7.9116717      720.56369     -28.230901      692.33279    
    956000   310.56808      0.021145685    12.134703      770.52797     -29.702364      740.8256     
    957000   299.79347      0.021145685    11.732055      743.79586     -30.171085      713.62478    
    958000   294.28131      0.021145685    10.521897      730.12005     -31.651964      698.46809    
    959000   308.21035      0.021145685    11.176907      764.67836     -36.793503      727.88486    
    960000   309.69631      0.021145685    8.9665537      768.36509     -28.715062      739.65003    
    961000   304.58029      0.021145685    11.39708       755.67209     -31.692727      723.97936    
    962000   293.69547      0.021145685    12.196137      728.66655     -30.758882      697.90767    
    963000   297.22178      0.021145685    10.021457      737.41543     -31.997703      705.41773    
    964000   295.80067      0.021145685    8.6230327      733.88962     -30.377467      703.51215    
    965000   305.30176      0.021145685    13.621579      757.46208     -28.377827      729.08425    
    966000   308.46677      0.021145685    21.412826      765.31456     -30.97305       734.34151    
    967000   299.27332      0.021145685    10.551222      742.50536     -31.342615      711.16274    
    968000   309.85267      0.021145685   -1.051339       768.75303     -37.077961      731.67506    
    969000   304.3289       0.021145685    13.986188      755.04838     -34.766032      720.28235    
    970000   312.5171       0.021145685    15.434182      775.36353     -34.781668      740.58186    
    971000   297.96021      0.021145685    14.45528       739.2475      -34.485246      704.76225    
    972000   285.8832       0.021145685    13.400978      709.28411     -31.806225      677.47788    
    973000   286.92863      0.021145685    3.7649123      711.87784     -34.367528      677.51031    
    974000   309.5227       0.021145685    4.3838117      767.93435     -34.565372      733.36898    
    975000   304.6373       0.021145685    13.442022      755.81353     -35.175554      720.63798    
    976000   293.87237      0.021145685    12.794091      729.10544     -35.38537       693.72008    
    977000   301.23648      0.021145685    13.537469      747.37601     -32.436223      714.93979    
    978000   300.82115      0.021145685    9.9741145      746.34557     -36.122457      710.22311    
    979000   300.71296      0.021145685    11.155737      746.07714     -34.803233      711.27391    
    980000   298.36181      0.021145685    8.7927777      740.24387     -32.461822      707.78205    
    981000   307.57531      0.021145685    11.581395      763.10281     -32.359424      730.74339    
    982000   298.2654       0.021145685    11.37315       740.00468     -33.709788      706.29489    
    983000   309.95984      0.021145685    11.933915      769.0189      -38.877251      730.14165    
    984000   312.53523      0.021145685    10.950514      775.40851     -44.898382      730.51013    
    985000   302.77465      0.021145685    11.933954      751.19226     -47.138392      704.05387    
    986000   305.64021      0.021145685    12.380107      758.3018      -43.785132      714.51667    
    987000   300.12378      0.021145685    12.704666      744.61538     -39.886546      704.72884    
    988000   297.61876      0.021145685    10.882031      738.40035     -44.248021      694.15233    
    989000   294.76614      0.021145685    10.169074      731.32292     -39.146154      692.17677    
    990000   293.30666      0.021145685    9.6749317      727.70191     -37.281101      690.42081    
    991000   322.2216       0.021145685    11.726725      799.44068     -38.90186       760.53882    
    992000   296.65387      0.021145685    8.3791928      736.00644     -35.210307      700.79613    
    993000   292.28552      0.021145685    15.000597      725.16843     -38.071688      687.09674    
    994000   309.94974      0.021145685    12.202648      768.99384     -40.385951      728.60789    
    995000   305.71103      0.021145685    7.8971213      758.4775      -40.084857      718.39264    
    996000   290.55357      0.021145685    12.190292      720.87141     -34.916026      685.95539    
    997000   306.67429      0.021145685    18.020314      760.86738     -31.929817      728.93756    
    998000   301.89365      0.021145685    6.5237879      749.00647     -38.67035       710.33612    
    999000   286.68124      0.021145685    9.4799469      711.26407     -36.471411      674.79266    
   1000000   306.81776      0.021145685    18.363993      761.22333     -37.433662      723.78966    
   1001000   313.8937       0.021145685    6.9188086      778.77892     -41.282145      737.49678    
   1002000   301.512        0.021145685    9.330557       748.05958     -36.855974      711.20361    
   1003000   306.42197      0.021145685    14.598168      760.24135     -38.854115      721.38724    
   1004000   295.03601      0.021145685    11.159868      731.99247     -39.314179      692.67829    
   1005000   312.77726      0.021145685    11.818015      776.00901     -41.585851      734.42316    
   1006000   285.4383       0.021145685    8.8988272      708.18029     -39.166887      669.0134     
   1007000   297.08371      0.021145685    15.372565      737.07287     -39.768574      697.3043     
   1008000   318.55514      0.021145685    12.378949      790.34408     -42.962787      747.38129    
   1009000   301.78162      0.021145685    6.0540354      748.72853     -40.801873      707.92666    
   1010000   296.65807      0.021145685    9.0791685      736.01686     -33.555551      702.46131    
   1011000   288.43523      0.021145685    13.375678      715.61575     -31.470661      684.14509    
   1012000   304.30421      0.021145685    12.713391      754.98713     -36.908884      718.07825    
   1013000   298.96828      0.021145685    11.156169      741.74854     -32.468354      709.28019    
   1014000   301.9911       0.021145685    7.6633958      749.24825     -32.130025      717.11822    
   1015000   295.91         0.021145685    11.371923      734.16087     -32.180424      701.98045    
   1016000   288.99095      0.021145685    9.3536651      716.99452     -35.004932      681.98959    
   1017000   303.55776      0.021145685    16.464095      753.13516     -29.498601      723.63656    
   1018000   304.01065      0.021145685    2.3036214      754.25881     -34.173225      720.08558    
   1019000   295.38336      0.021145685    10.573476      732.85427     -32.994459      699.85981    
   1020000   301.99597      0.021145685    17.352522      749.26032     -35.949166      713.31115    
   1021000   305.23579      0.021145685    13.456419      757.2984      -35.634502      721.6639     
   1022000   289.64988      0.021145685    8.6233602      718.62933     -33.566133      685.0632     
   1023000   282.39163      0.021145685    12.104878      700.62141     -31.959759      668.66165    
   1024000   310.83602      0.021145685    12.783443      771.19273     -32.918047      738.27469    
   1025000   297.44229      0.021145685    7.7369702      737.96252     -37.245932      700.71659    
   1026000   286.65609      0.021145685    9.8767795      711.20167     -39.988811      671.21286    
   1027000   311.89388      0.021145685    14.63484       773.81731     -37.005319      736.81199    
   1028000   299.34216      0.021145685    9.6644778      742.67614     -33.934168      708.74197    
   1029000   296.36915      0.021145685    10.912985      735.30004     -33.553566      701.74648    
   1030000   297.06094      0.021145685    8.4281129      737.01638     -37.735144      699.28124    
   1031000   294.52491      0.021145685    11.319483      730.72443     -34.09507       696.62936    
   1032000   292.68938      0.021145685    11.241117      726.17041     -28.839196      697.33122    
   1033000   304.0483       0.021145685    11.395355      754.35223     -28.383602      725.96862    
   1034000   301.89364      0.021145685    10.880048      749.00644     -27.512305      721.49414    
   1035000   301.31342      0.021145685    10.674138      747.56691     -31.933654      715.63326    
   1036000   291.08455      0.021145685    11.611025      722.18879     -32.960957      689.22784    
   1037000   285.38379      0.021145685    16.030733      708.04506     -37.120264      670.92479    
   1038000   297.34978      0.021145685    11.810112      737.733       -32.320078      705.41292    
   1039000   310.15103      0.021145685    11.270482      769.49326     -33.59311       735.90015    
   1040000   300.66844      0.021145685    9.0629763      745.96668     -27.229909      718.73677    
   1041000   289.26581      0.021145685    9.9631111      717.67646     -33.555586      684.12087    
   1042000   293.97309      0.021145685    11.176186      729.35533     -37.212841      692.14249    
   1043000   303.73407      0.021145685    12.005362      753.57261     -36.692968      716.87964    
   1044000   297.22719      0.021145685    9.4529954      737.42885     -36.713921      700.71493    
   1045000   305.46407      0.021145685    9.7447567      757.86477     -32.460735      725.40404    
   1046000   284.81656      0.021145685    5.745382       706.63774     -37.851157      668.78658    
   1047000   294.43816      0.021145685    15.433086      730.5092      -32.126575      698.38262    
   1048000   308.65306      0.021145685    11.834912      765.77674     -34.784649      730.99209    
   1049000   312.31402      0.021145685    7.7541007      774.85968     -38.55264       736.30704    
   1050000   288.64905      0.021145685    10.565846      716.14625     -39.792561      676.35368    
   1051000   294.00339      0.021145685    10.068368      729.43052     -30.714105      698.71641    
   1052000   305.09292      0.021145685    11.291376      756.94395     -28.937768      728.00618    
   1053000   302.45185      0.021145685    13.300861      750.39136     -29.792267      720.5991     
   1054000   303.40811      0.021145685    1.5737772      752.76388     -26.415951      726.34793    
   1055000   302.22157      0.021145685    7.4657182      749.82005     -30.546832      719.27321    
   1056000   300.3295       0.021145685    14.955389      745.12577     -33.757958      711.36781    
   1057000   293.44078      0.021145685    11.548328      728.03466     -35.871599      692.16306    
   1058000   290.6788       0.021145685    7.4345928      721.18211     -33.184873      687.99724    
   1059000   305.10935      0.021145685    6.8778802      756.98471     -32.35606       724.62865    
   1060000   302.39234      0.021145685    14.190787      750.24374     -33.64047       716.60327    
   1061000   291.3834       0.021145685    15.912563      722.93024     -34.132         688.79824    
   1062000   309.75634      0.021145685    10.283977      768.51402     -26.973934      741.54008    
   1063000   300.50914      0.021145685    4.2240136      745.57145     -33.357309      712.21414    
   1064000   296.89009      0.021145685    14.305311      736.59249     -38.62732       697.96517    
   1065000   307.74937      0.021145685    13.622322      763.53466     -37.988469      725.54619    
   1066000   293.83418      0.021145685    14.653708      729.0107      -34.966671      694.04403    
   1067000   300.10866      0.021145685    7.7181888      744.57786     -32.559678      712.01818    
   1068000   306.54147      0.021145685    12.156703      760.53784     -31.923096      728.61474    
   1069000   300.2735       0.021145685    14.202395      744.98684     -28.784746      716.20209    
   1070000   306.4407       0.021145685    11.645775      760.28781     -29.473322      730.81449    
   1071000   295.01117      0.021145685    5.9309775      731.93083     -29.059839      702.87099    
   1072000   304.53111      0.021145685    11.127843      755.55008     -26.946225      728.60386    
   1073000   298.72551      0.021145685    12.612071      741.14623     -26.422834      714.7234     
   1074000   288.75438      0.021145685    11.80503       716.40757     -31.39126       685.01631    
   1075000   297.06793      0.021145685    8.0762622      737.03373     -31.982926      705.0508     
   1076000   303.59299      0.021145685    11.145301      753.22258     -37.72848       715.4941     
   1077000   299.75486      0.021145685    11.154676      743.70006     -36.26698       707.43308    
   1078000   293.39477      0.021145685    10.507423      727.92051     -36.463638      691.45688    
   1079000   302.49936      0.021145685    11.00118       750.50925     -39.893111      710.61614    
   1080000   301.4992       0.021145685    11.407806      748.02782     -45.428124      702.5997     
   1081000   296.02971      0.021145685    11.10771       734.45787     -43.113998      691.34387    
   1082000   304.14566      0.021145685    10.184307      754.59376     -42.70979       711.88397    
   1083000   304.76425      0.021145685    14.798398      756.1285      -37.093848      719.03465    
   1084000   299.37401      0.021145685    11.383761      742.75516     -36.103039      706.65212    
   1085000   293.22861      0.021145685    11.187315      727.50826     -32.063005      695.44525    
   1086000   309.67242      0.021145685    13.817672      768.3058      -33.416541      734.88926    
   1087000   312.26346      0.021145685    12.353304      774.73426     -32.862671      741.87159    
   1088000   307.4101       0.021145685    11.136956      762.69293     -28.95535       733.73759    
   1089000   293.46206      0.021145685    12.264954      728.08747     -29.129398      698.95807    
   1090000   304.09037      0.021145685    15.743173      754.45659     -32.534221      721.92237    
   1091000   304.13878      0.021145685    9.8721118      754.57669     -35.684171      718.89252    
   1092000   300.6413       0.021145685    10.436304      745.89935     -37.764336      708.13501    
   1093000   294.75599      0.021145685    17.299984      731.29773     -34.806155      696.49158    
   1094000   298.57224      0.021145685    18.51034       740.76596     -34.544875      706.22109    
   1095000   303.15042      0.021145685    10.41998       752.12455     -31.622078      720.50247    
   1096000   302.38385      0.021145685    10.660524      750.22267     -28.055123      722.16755    
   1097000   311.97516      0.021145685    19.498254      774.01898     -27.171805      746.84717    
   1098000   306.34145      0.021145685    3.7535111      760.04159     -30.823376      729.21821    
   1099000   302.19036      0.021145685   -3.185354       749.74261     -28.717563      721.02505    
   1100000   295.17572      0.021145685    0.033215587    732.3391      -25.721736      706.61736    
   1101000   303.58488      0.021145685    23.82316       753.20245     -25.80085       727.4016     
   1102000   306.53518      0.021145685   -4.593519       760.52222     -27.97395       732.54827    
   1103000   298.72328      0.021145685    7.3003307      741.1407      -32.671575      708.46913    
   1104000   307.11889      0.021145685    14.487073      761.97042     -32.716507      729.25391    
   1105000   306.74485      0.021145685    18.73974       761.04242     -32.495166      728.54726    
   1106000   299.06911      0.021145685    5.9754466      741.99871     -27.955512      714.0432     
   1107000   302.05378      0.021145685    10.306993      749.40375     -24.634375      724.76938    
   1108000   297.78308      0.021145685    31.163322      738.80803     -29.104805      709.70323    
   1109000   297.07572      0.021145685    22.121713      737.05306     -29.574497      707.47856    
   1110000   301.58939      0.021145685    13.074958      748.2516      -35.887181      712.36442    
   1111000   309.74532      0.021145685    7.7302244      768.48667     -34.735528      733.75115    
   1112000   298.91709      0.021145685    7.4630951      741.62153     -33.279418      708.34211    
   1113000   289.44512      0.021145685    6.0279405      718.12133     -32.431403      685.68992    
   1114000   299.5185       0.021145685    10.461841      743.11366     -30.180413      712.93325    
   1115000   306.9808       0.021145685    15.781959      761.62782     -30.651897      730.97592    
   1116000   304.22028      0.021145685    6.1633058      754.77891     -27.569652      727.20926    
   1117000   293.30457      0.021145685    11.574893      727.69672     -28.592419      699.1043     
   1118000   298.16418      0.021145685    11.602053      739.75355     -28.588187      711.16536    
   1119000   309.34334      0.021145685    15.585754      767.48936     -33.208472      734.28089    
   1120000   303.19847      0.021145685    0.19201981     752.24376     -30.725281      721.51848    
   1121000   290.95615      0.021145685    13.296674      721.87023     -35.423076      686.44716    
   1122000   300.61362      0.021145685    13.092783      745.83068     -34.332063      711.49862    
   1123000   312.77179      0.021145685    11.065859      775.99542     -38.040242      737.95518    
   1124000   301.97972      0.021145685    6.5367948      749.22001     -32.442108      716.77791    
   1125000   291.19189      0.021145685    18.868976      722.4551      -30.83773       691.61737    
   1126000   302.25418      0.021145685    12.9418        749.90095     -32.046097      717.85485    
   1127000   309.57115      0.021145685   -2.6132876      768.05457     -34.045218      734.00935    
   1128000   290.718        0.021145685    11.948602      721.27936     -30.9673        690.31206    
   1129000   308.53568      0.021145685    14.418743      765.48553     -30.788561      734.69697    
   1130000   303.81972      0.021145685    8.7097563      753.7851      -32.565354      721.21974    
   1131000   294.52968      0.021145685    8.2108475      730.73625     -35.622569      695.11368    
   1132000   290.75094      0.021145685    11.852411      721.36109     -37.76915       683.59194    
   1133000   308.25761      0.021145685    14.80122       764.79562     -36.194744      728.60088    
   1134000   317.08887      0.021145685    11.625614      786.70622     -34.976391      751.72983    
   1135000   301.03597      0.021145685    8.9157492      746.87853     -36.770817      710.10772    
   1136000   305.31974      0.021145685    13.206982      757.5067      -43.395843      714.11086    
   1137000   291.11703      0.021145685    11.4771        722.26938     -36.697444      685.57194    
   1138000   296.72619      0.021145685    12.327086      736.18586     -34.595526      701.59033    
   1139000   316.81066      0.021145685    10.558896      786.01599     -31.679303      754.33668    
   1140000   300.78923      0.021145685    10.453404      746.26636     -34.525115      711.74124    
   1141000   289.36323      0.021145685    10.470695      717.91815     -34.119648      683.79851    
   1142000   303.38619      0.021145685    7.6872602      752.70949     -32.191797      720.5177     
   1143000   320.82231      0.021145685    11.68176       795.96901     -35.432104      760.5369     
   1144000   301.95845      0.021145685    20.223392      749.16724     -32.393098      716.77414    
   1145000   291.34832      0.021145685    13.170384      722.8432      -29.819732      693.02347    
   1146000   300.76086      0.021145685    13.712881      746.19598     -26.467874      719.72811    
   1147000   299.02104      0.021145685    7.0780795      741.87945     -30.877486      711.00196    
   1148000   307.91322      0.021145685    13.782805      763.9412      -31.713843      732.22735    
   1149000   300.22049      0.021145685    16.383676      744.85531     -29.478621      715.37669    
   1150000   305.99106      0.021145685    15.304827      759.17226     -27.92092       731.25134    
   1151000   291.11264      0.021145685    1.8675656      722.25848     -30.743973      691.51451    
   1152000   301.04397      0.021145685    10.256657      746.89838     -30.199064      716.69931    
   1153000   302.34636      0.021145685    15.861173      750.12965     -31.251995      718.87766    
   1154000   287.74113      0.021145685    14.88908       713.89366     -29.373917      684.51975    
   1155000   302.37141      0.021145685    0.017376384    750.1918      -26.620787      723.57102    
   1156000   309.60078      0.021145685    20.2837        768.12807     -30.871497      737.25657    
   1157000   293.04494      0.021145685    9.6943821      727.05257     -29.015975      698.0366     
   1158000   291.7929       0.021145685    6.3223654      723.94624     -27.984945      695.96129    
   1159000   314.7355       0.021145685    17.529979      780.86744     -31.514324      749.35312    
   1160000   302.49898      0.021145685    13.393502      750.50831     -29.652103      720.8562     
   1161000   298.01288      0.021145685    9.6866045      739.37818     -30.606073      708.77211    
   1162000   304.33138      0.021145685    12.175976      755.05453     -29.119148      725.93539    
   1163000   299.6103       0.021145685    18.717069      743.34141     -24.204657      719.13675    
   1164000   303.55622      0.021145685    9.454149       753.13134     -27.263121      725.86822    
   1165000   302.79582      0.021145685    11.073523      751.24477     -27.817238      723.42754    
   1166000   299.2785       0.021145685    12.009315      742.5182      -31.985144      710.53305    
   1167000   298.02551      0.021145685    9.4755457      739.40951     -33.111038      706.29847    
   1168000   308.30625      0.021145685    10.419306      764.91631     -30.078587      734.83772    
   1169000   301.03488      0.021145685    11.481927      746.87584     -31.903266      714.97257    
   1170000   300.89069      0.021145685    15.481626      746.51809     -37.114239      709.40385    
   1171000   287.84698      0.021145685    15.002127      714.1563      -35.954977      678.20133    
   1172000   290.72681      0.021145685    7.8845427      721.30124     -34.435678      686.86556    
   1173000   298.13588      0.021145685    7.1032913      739.68333     -30.342005      709.34133    
   1174000   316.77806      0.021145685    21.484065      785.9351      -31.995861      753.93924    
   1175000   287.38413      0.021145685    14.295993      713.00795     -29.737743      683.27021    
   1176000   294.01342      0.021145685    6.8970256      729.45541     -29.322798      700.13261    
   1177000   303.75275      0.021145685    11.614718      753.61894     -32.824388      720.79455    
   1178000   299.41961      0.021145685    15.052905      742.86832     -37.849788      705.01853    
   1179000   280.70701      0.021145685    9.2969275      696.44182     -39.376723      657.0651     
   1180000   304.27684      0.021145685    6.8859487      754.91923     -36.111854      718.80737    
   1181000   300.08754      0.021145685    9.424312       744.52546     -28.744883      715.78057    
   1182000   300.27479      0.021145685    13.150432      744.99004     -35.750417      709.23962    
   1183000   296.74181      0.021145685    19.960247      736.22462     -33.911034      702.31358    
   1184000   295.41971      0.021145685    17.577702      732.94445     -30.725662      702.21879    
   1185000   298.69097      0.021145685    10.078017      741.06052     -30.635753      710.42476    
   1186000   295.7814       0.021145685    10.597815      733.8418      -26.382066      707.45974    
   1187000   311.76036      0.021145685    9.9257024      773.48605     -29.990818      743.49523    
   1188000   301.3958       0.021145685    17.277856      747.77128     -30.968235      716.80304    
   1189000   288.91793      0.021145685    13.633409      716.81335     -27.492612      689.32074    
   1190000   290.49887      0.021145685    9.8728984      720.73571     -29.234867      691.50084    
   1191000   303.13162      0.021145685    14.139057      752.07791     -28.907556      723.17035    
   1192000   290.75175      0.021145685    13.883274      721.3631      -29.204379      692.15872    
   1193000   302.54228      0.021145685    9.9022329      750.61572     -30.193033      720.42269    
   1194000   298.68237      0.021145685    13.400289      741.0392      -29.318461      711.72074    
   1195000   295.85554      0.021145685    11.076198      734.02575     -33.322062      700.70369    
   1196000   300.96604      0.021145685    11.126272      746.70504     -32.257063      714.44797    
   1197000   299.09834      0.021145685    11.480296      742.07122     -34.485079      707.58614    
   1198000   279.456        0.021145685    5.8419539      693.33805     -30.42529       662.91276    
   1199000   301.3255       0.021145685    13.473512      747.59687     -30.976736      716.62013    
   1200000   311.45362      0.021145685    12.640662      772.72501     -26.617037      746.10797    
   1201000   292.98939      0.021145685    10.966336      726.91474     -25.467807      701.44693    
   1202000   296.27397      0.021145685    8.5473067      735.06389     -25.57077       709.49312    
   1203000   309.37625      0.021145685    20.426143      767.57101     -29.290011      738.28099    
   1204000   301.40784      0.021145685    9.4609775      747.80116     -28.247821      719.55334    
   1205000   293.71133      0.021145685    4.4469658      728.70591     -28.606165      700.09974    
   1206000   309.87773      0.021145685    1.9009154      768.81518     -27.560557      741.25463    
   1207000   300.67464      0.021145685   -5.6103781      745.98208     -28.232821      717.74926    
   1208000   285.02705      0.021145685    16.945109      707.15997     -25.376839      681.78313    
   1209000   307.24352      0.021145685    17.190255      762.27963     -28.765999      733.51364    
   1210000   301.98108      0.021145685    8.9337891      749.22338     -31.89972       717.32366    
   1211000   300.79395      0.021145685   -2.7638621      746.27808     -31.468005      714.81007    
   1212000   293.06154      0.021145685    14.768787      727.09376     -34.03198       693.06178    
   1213000   317.05298      0.021145685    13.650122      786.61718     -32.206316      754.41086    
   1214000   318.26067      0.021145685    0.49003811     789.61349     -28.841592      760.7719     
   1215000   292.15166      0.021145685    10.425926      724.83632     -34.559656      690.27667    
   1216000   302.22244      0.021145685    22.931951      749.82221     -30.834003      718.9882     
   1217000   301.30106      0.021145685    6.541403       747.53625     -35.668033      711.86821    
   1218000   282.18906      0.021145685    9.8218173      700.11882     -37.157512      662.96131    
   1219000   305.77602      0.021145685    15.854616      758.63874     -38.059005      720.57974    
   1220000   305.69508      0.021145685    4.4045979      758.43791     -32.627074      725.81083    
   1221000   289.49993      0.021145685    13.575359      718.25731     -33.553408      684.7039     
   1222000   293.76308      0.021145685    14.716294      728.83431     -32.448008      696.3863     
   1223000   293.52355      0.021145685    9.7949835      728.24002     -30.107945      698.13207    
   1224000   297.04084      0.021145685    2.428746       736.9665      -31.692448      705.27406    
   1225000   292.19736      0.021145685    13.265882      724.94971     -31.951172      692.99854    
   1226000   297.17447      0.021145685    18.663552      737.29805     -34.363918      702.93413    
   1227000   297.9016       0.021145685    9.6568418      739.10208     -39.304876      699.7972     
   1228000   301.73598      0.021145685    10.334249      748.61529     -33.302298      715.31299    
   1229000   280.84202      0.021145685    13.290418      696.77679     -35.357154      661.41963    
   1230000   299.37641      0.021145685    13.672898      742.76112     -32.764115      709.99701    
   1231000   298.18124      0.021145685    12.333713      739.79587     -37.416857      702.37901    
   1232000   307.02861      0.021145685    11.340591      761.74643     -29.180351      732.56608    
   1233000   290.80135      0.021145685    10.848007      721.48617     -35.471652      686.01452    
   1234000   299.81854      0.021145685    11.305399      743.85807     -39.519518      704.33855    
   1235000   309.27954      0.021145685    8.9706197      767.33107     -42.79339       724.53768    
   1236000   302.93623      0.021145685    12.036099      751.59313     -40.059465      711.53367    
   1237000   300.91346      0.021145685    10.737362      746.57459     -34.250221      712.32437    
   1238000   303.50223      0.021145685    12.646416      752.99739     -34.196688      718.8007     
   1239000   297.72791      0.021145685    11.15571       738.67115     -37.193576      701.47757    
   1240000   294.52941      0.021145685    11.408529      730.73558     -38.794447      691.94113    
   1241000   309.22693      0.021145685    9.8912225      767.20053     -43.560732      723.63979    
   1242000   313.13004      0.021145685    11.365256      776.88427     -40.342594      736.54167    
   1243000   305.84163      0.021145685    12.217622      758.80151     -32.867238      725.93427    
   1244000   287.23737      0.021145685    11.203732      712.64384     -37.579892      675.06395    
   1245000   291.65353      0.021145685    10.198361      723.60045     -39.680112      683.92034    
   1246000   314.83472      0.021145685    11.213025      781.11363     -41.948155      739.16548    
   1247000   297.33897      0.021145685    14.192839      737.70618     -39.628121      698.07806    
   1248000   295.16191      0.021145685    9.4940412      732.30482     -41.48438       690.82044    
   1249000   300.43008      0.021145685    9.8755378      745.37531     -40.433184      704.94212    
   1250000   306.53182      0.021145685    12.115847      760.51389     -37.127051      723.38684    
   1251000   303.66753      0.021145685    17.909181      753.40751     -41.340545      712.06696    
   1252000   301.95684      0.021145685    12.754081      749.16323     -34.881563      714.28167    
   1253000   291.42602      0.021145685    6.958803       723.03599     -37.44971       685.58628    
   1254000   313.91053      0.021145685    11.578421      778.82067     -44.066864      734.7538     
   1255000   307.84552      0.021145685    11.022524      763.77322     -41.874133      721.89909    
   1256000   291.1281       0.021145685    10.864063      722.29684     -36.671206      685.62563    
   1257000   288.37671      0.021145685    9.8409309      715.47057     -35.396462      680.0741     
   1258000   299.87264      0.021145685    11.167235      743.9923      -25.603663      718.38863    
   1259000   315.00141      0.021145685    14.278188      781.52717     -26.705721      754.82145    
   1260000   293.66265      0.021145685    11.727479      728.58513     -32.096536      696.48859    
   1261000   292.26831      0.021145685    11.435541      725.12574     -38.364506      686.76123    
   1262000   302.37712      0.021145685    13.17923       750.20596     -35.594803      714.61116    
   1263000   304.05019      0.021145685    11.630023      754.35691     -36.936474      717.42043    
   1264000   284.45009      0.021145685    8.038331       705.72851     -35.421434      670.30708    
   1265000   301.95891      0.021145685    11.919104      749.16838     -33.372584      715.7958     
   1266000   313.73826      0.021145685    7.6311247      778.39327     -35.815829      742.57744    
   1267000   295.52542      0.021145685    9.6155943      733.20672     -35.207382      697.99934    
   1268000   304.40198      0.021145685    18.295938      755.2297      -33.029583      722.20012    
   1269000   309.21763      0.021145685    13.17268       767.17747     -28.771508      738.40597    
   1270000   297.6712       0.021145685    8.3176069      738.53045     -29.553997      708.97646    
   1271000   297.0818       0.021145685    8.91144        737.06812     -31.789402      705.27872    
   1272000   309.78095      0.021145685    11.737506      768.57507     -37.170578      731.4045     
   1273000   310.98606      0.021145685    11.493205      771.565       -35.509833      736.05516    
   1274000   290.67317      0.021145685    10.482219      721.16816     -40.209625      680.95853    
   1275000   289.65807      0.021145685    9.4017981      718.64966     -34.336489      684.31317    
   1276000   303.96066      0.021145685    11.220427      754.13478     -38.154281      715.9805     
   1277000   298.04509      0.021145685    12.193877      739.45809     -39.477838      699.98025    
   1278000   304.39531      0.021145685    10.080873      755.21314     -37.176511      718.03663    
   1279000   299.74952      0.021145685    11.353007      743.68683     -31.173026      712.51381    
   1280000   296.32946      0.021145685    11.26388       735.20155     -30.870162      704.33139    
   1281000   294.82967      0.021145685    10.075386      731.48055     -25.903141      705.57741    
   1282000   292.17771      0.021145685    11.517498      724.90095     -22.367266      702.53368    
   1283000   305.10763      0.021145685    15.84995       756.98043     -23.851396      733.12904    
   1284000   308.1554       0.021145685    11.063034      764.54204     -27.470474      737.07157    
   1285000   290.98597      0.021145685    9.7377196      721.9442      -29.60795       692.33625    
   1286000   300.14152      0.021145685    12.216932      744.65938     -32.646333      712.01305    
   1287000   305.94441      0.021145685    12.383565      759.05652     -36.988529      722.068      
   1288000   309.99574      0.021145685    9.1563731      769.10797     -38.507368      730.60061    
   1289000   291.10581      0.021145685    8.0336655      722.24155     -38.750765      683.49078    
   1290000   301.42724      0.021145685    9.784441       747.8493      -34.604215      713.24509    
   1291000   294.38412      0.021145685    15.047075      730.37512     -34.848743      695.52637    
   1292000   306.47026      0.021145685    12.901077      760.36115     -33.748468      726.61269    
   1293000   307.2275       0.021145685    10.840612      762.23989     -33.862714      728.37718    
   1294000   284.63667      0.021145685    10.42089       706.19142     -36.855004      669.33641    
   1295000   295.53815      0.021145685    9.5342756      733.23829     -36.507283      696.73101    
   1296000   315.25213      0.021145685    14.338172      782.14922     -35.359719      746.7895     
   1297000   304.56333      0.021145685    10.084695      755.63002     -38.839946      716.79008    
   1298000   289.41045      0.021145685    9.5601626      718.03529     -39.565899      678.46939    
   1299000   281.59674      0.021145685    8.5476124      698.64928     -33.402957      665.24632    
   1300000   309.8439       0.021145685    10.648195      768.73125     -38.172005      730.55925    
   1301000   296.3708       0.021145685    10.440741      735.30412     -31.721747      703.58237    
   1302000   288.23348      0.021145685    12.111963      715.11522     -33.575992      681.53923    
   1303000   310.86834      0.021145685    12.029445      771.27293     -36.637106      734.63582    
   1304000   304.19855      0.021145685    13.509717      754.72498     -37.484731      717.24025    
   1305000   290.13512      0.021145685    11.38975       719.83323     -36.039646      683.79359    
   1306000   299.61701      0.021145685    12.728736      743.35805     -29.511344      713.84671    
   1307000   318.3127       0.021145685    11.316313      789.74259     -35.054318      754.68828    
   1308000   297.96093      0.021145685    2.6049025      739.24927     -35.408164      703.84111    
   1309000   291.51393      0.021145685    12.16722       723.2541      -33.142718      690.11138    
   1310000   298.93051      0.021145685    16.465927      741.65484     -34.998968      706.65587    
   1311000   309.16239      0.021145685    11.699482      767.04041     -40.006401      727.03401    
   1312000   306.82958      0.021145685    8.4317471      761.25265     -33.277877      727.97477    
   1313000   307.38148      0.021145685    2.2312086      762.62192     -34.331189      728.29073    
   1314000   299.2862       0.021145685    13.986991      742.53731     -30.28378       712.25353    
   1315000   322.30228      0.021145685    11.891968      799.64084     -31.75976       767.88108    
   1316000   295.39271      0.021145685    3.2203267      732.87745     -32.897486      699.97997    
   1317000   289.04975      0.021145685    17.5711        717.14039     -31.281404      685.85899    
   1318000   304.47275      0.021145685    18.022711      755.40529     -32.951219      722.45407    
   1319000   315.2329       0.021145685    10.543178      782.10153     -32.43733       749.66419    
   1320000   297.19295      0.021145685    6.8598287      737.3439      -36.111913      701.23199    
   1321000   291.1626       0.021145685    17.939469      722.38244     -34.480149      687.90229    
   1322000   308.66262      0.021145685    11.078035      765.80048     -42.773806      723.02667    
   1323000   301.67068      0.021145685    10.187178      748.45327     -46.543869      701.9094     
   1324000   283.39059      0.021145685    11.99749       703.09986     -40.170134      662.92973    
   1325000   300.53696      0.021145685    13.954282      745.64047     -41.515367      704.12511    
   1326000   305.15653      0.021145685    10.994631      757.10175     -39.990817      717.11093    
   1327000   299.82772      0.021145685    11.55326       743.88084     -40.183362      703.69748    
   1328000   285.68372      0.021145685    13.439054      708.7892      -45.201478      663.58772    
   1329000   316.30236      0.021145685    22.532657      784.75487     -42.043568      742.7113     
   1330000   304.45275      0.021145685    9.3606063      755.35567     -38.533558      716.82212    
   1331000   298.8363       0.021145685    8.0869321      741.42111     -41.662738      699.75837    
   1332000   305.68696      0.021145685    10.531075      758.41778     -36.038101      722.37968    
   1333000   311.5461       0.021145685    11.637989      772.95446     -35.85038       737.10408    
   1334000   288.95052      0.021145685    10.457091      716.8942      -38.799024      678.09517    
   1335000   300.09529      0.021145685    11.154197      744.5447      -39.757886      704.78681    
   1336000   311.94674      0.021145685    14.232148      773.94847     -43.918813      730.02966    
   1337000   310.95848      0.021145685    10.912057      771.49657     -40.578392      730.91818    
   1338000   291.54681      0.021145685    6.8467933      723.33566     -41.018544      682.31712    
   1339000   295.96273      0.021145685    13.025642      734.2917      -37.218255      697.07345    
   1340000   301.38892      0.021145685    16.428488      747.75422     -37.282748      710.47147    
   1341000   298.51332      0.021145685    7.2237697      740.61977     -47.981092      692.63868    
   1342000   288.8965       0.021145685    7.847419       716.76018     -42.730967      674.02921    
   1343000   295.56216      0.021145685    16.462681      733.29786     -37.579715      695.71815    
   1344000   313.19532      0.021145685    14.411766      777.04622     -36.867983      740.17824    
   1345000   298.66264      0.021145685    2.6992631      740.99023     -36.069916      704.92031    
   1346000   288.83717      0.021145685    13.456098      716.61298     -36.519436      680.09355    
   1347000   306.17941      0.021145685    15.439531      759.63955     -40.310522      719.32903    
   1348000   309.80887      0.021145685    11.212715      768.64435     -41.330198      727.31415    
   1349000   290.3119       0.021145685    10.800537      720.27181     -38.48636       681.78545    
   1350000   291.77743      0.021145685    10.960682      723.90785     -40.942637      682.96522    
   1351000   311.72276      0.021145685    15.766858      773.39276     -35.280382      738.11238    
   1352000   300.86333      0.021145685    15.202179      746.45022     -41.905626      704.54459    
   1353000   298.52343      0.021145685    9.7927404      740.64486     -45.538965      695.1059     
   1354000   306.61995      0.021145685    8.8604819      760.73256     -43.508731      717.22382    
   1355000   303.40903      0.021145685    11.959055      752.76617     -39.551579      713.21459    
   1356000   299.96201      0.021145685    12.270781      744.21402     -43.61524       700.59878    
   1357000   299.57601      0.021145685    8.5314776      743.25633     -39.120672      704.13566    
   1358000   299.94436      0.021145685    10.836319      744.17023     -37.694941      706.47529    
   1359000   321.03456      0.021145685    11.827667      796.4956      -38.440249      758.05535    
   1360000   297.03454      0.021145685    11.733738      736.95088     -35.266739      701.68414    
   1361000   286.74506      0.021145685    11.350724      711.4224      -39.418169      672.00423    
   1362000   307.79652      0.021145685    11.087143      763.65164     -39.266295      724.38535    
   1363000   300.05413      0.021145685    10.119799      744.44257     -36.048245      708.39432    
   1364000   299.13557      0.021145685    10.267841      742.1636      -36.879117      705.28448    
   1365000   289.51934      0.021145685    9.022645       718.30546     -37.735635      680.56982    
   1366000   289.62035      0.021145685    9.8666469      718.55608     -39.376463      679.17961    
   1367000   306.83934      0.021145685    15.424337      761.27687     -34.370308      726.90656    
   1368000   302.22152      0.021145685    12.780224      749.81992     -33.068487      716.75143    
   1369000   288.02204      0.021145685    10.136009      714.59063     -33.871608      680.71902    
   1370000   304.40607      0.021145685    6.4565137      755.23986     -35.101638      720.13822    
   1371000   307.07143      0.021145685    10.731938      761.85268     -39.750577      722.10211    
   1372000   293.76558      0.021145685    14.539691      728.84051     -36.820819      692.01969    
   1373000   290.22876      0.021145685    9.8592831      720.06554     -34.235103      685.83044    
   1374000   301.85639      0.021145685    6.1105116      748.91402     -35.465107      713.44891    
   1375000   307.26487      0.021145685    17.013678      762.3326      -38.194178      724.13842    
   1376000   292.1786       0.021145685    3.3504359      724.90315     -35.055374      689.84778    
   1377000   287.34215      0.021145685    6.7986223      712.9038      -33.205897      679.6979     
   1378000   297.72069      0.021145685    9.7780198      738.65324     -36.848437      701.8048     
   1379000   315.31259      0.021145685    12.416212      782.29923     -36.355506      745.94372    
   1380000   297.68681      0.021145685    12.2224        738.56917     -35.780349      702.78883    
   1381000   297.95177      0.021145685    11.932522      739.22655     -32.644696      706.58185    
   1382000   304.24757      0.021145685    13.292771      754.84661     -27.129791      727.71682    
   1383000   301.23749      0.021145685    11.886023      747.37852     -25.539164      721.83936    
   1384000   300.196        0.021145685    10.396875      744.79455     -28.847457      715.94709    
   1385000   298.82503      0.021145685    10.882455      741.39314     -32.483739      708.9094     
   1386000   295.50508      0.021145685    8.5655696      733.15625     -28.179734      704.97652    
   1387000   304.31523      0.021145685    21.574744      755.01447     -28.896076      726.1184     
   1388000   313.90285      0.021145685    14.008839      778.80163     -30.686504      748.11513    
   1389000   299.86995      0.021145685    6.6806869      743.98562     -33.001053      710.98456    
   1390000   305.54535      0.021145685    8.4299464      758.06643     -33.330771      724.73566    
   1391000   310.41843      0.021145685    10.614871      770.15669     -33.436798      736.71989    
   1392000   286.74565      0.021145685    11.071674      711.42387     -33.734512      677.68935    
   1393000   295.35814      0.021145685    11.742834      732.79168     -29.636827      703.15485    
   1394000   306.99438      0.021145685    12.417401      761.66153     -29.420647      732.24088    
   1395000   306.3152       0.021145685    13.472923      759.97647     -28.852545      731.12392    
   1396000   299.38333      0.021145685    11.663503      742.77831     -23.337576      719.44073    
   1397000   292.22111      0.021145685    9.4869912      725.00862     -27.698491      697.31013    
   1398000   317.52149      0.021145685    12.671129      787.77957     -25.70863       762.07094    
   1399000   300.59586      0.021145685    10.33276       745.78662     -26.183807      719.60282    
   1400000   304.05204      0.021145685    10.616481      754.36149     -25.741065      728.62042    
   1401000   301.17135      0.021145685    12.009082      747.21443     -25.661196      721.55324    
   1402000   282.16968      0.021145685    8.9564396      700.07076     -28.237504      671.83325    
   1403000   300.19163      0.021145685    11.735863      744.78371     -31.418072      713.36564    
   1404000   308.6214       0.021145685    3.2127675      765.69819     -33.068352      732.62984    
   1405000   308.54142      0.021145685    17.203748      765.49976     -28.821955      736.6778     
   1406000   311.71691      0.021145685    11.823478      773.37825     -30.581151      742.79709    
   1407000   294.86207      0.021145685    17.731535      731.56093     -28.189219      703.37172    
   1408000   294.12069      0.021145685    12.334167      729.72154     -30.619267      699.10227    
   1409000   305.01355      0.021145685    10.220575      756.74702     -29.198727      727.54829    
   1410000   309.04869      0.021145685    11.793743      766.75831     -32.491315      734.26699    
   1411000   289.35863      0.021145685    9.2865473      717.90674     -28.613969      689.29277    
   1412000   299.81133      0.021145685    10.930224      743.84018     -32.561076      711.2791     
   1413000   307.70318      0.021145685    12.866118      763.42008     -31.996459      731.42362    
   1414000   299.1168       0.021145685    7.6056671      742.11703     -36.464067      705.65297    
   1415000   300.69366      0.021145685    13.39116       746.02927     -40.058759      705.97051    
   1416000   302.19923      0.021145685    11.6851        749.76462     -36.009308      713.75531    
   1417000   296.65767      0.021145685    11.242923      736.01585     -39.779661      696.23619    
   1418000   290.14712      0.021145685    8.5673609      719.863       -36.718104      683.1449     
   1419000   299.05372      0.021145685    12.399288      741.96052     -36.142902      705.81762    
   1420000   313.65189      0.021145685    10.996534      778.17898     -36.471381      741.7076     
   1421000   284.40312      0.021145685    8.7737456      705.61198     -34.537887      671.0741     
   1422000   294.01698      0.021145685    11.93695       729.46423     -34.438474      695.02576    
   1423000   302.66615      0.021145685    16.20768       750.92307     -37.820047      713.10302    
   1424000   306.52759      0.021145685    9.3305224      760.5034      -36.956278      723.54713    
   1425000   300.10305      0.021145685    10.263364      744.56394     -37.194878      707.36906    
   1426000   293.52297      0.021145685    13.157583      728.23859     -38.145593      690.093      
   1427000   301.54016      0.021145685    11.968178      748.12946     -35.919915      712.20954    
   1428000   303.07671      0.021145685    10.499259      751.94168     -34.84137       717.10031    
   1429000   292.6538       0.021145685    10.994673      726.08214     -34.083836      691.99831    
   1430000   322.0046       0.021145685    13.570058      798.90228     -31.374704      767.52758    
   1431000   306.4984       0.021145685    12.93437       760.43097     -29.887401      730.54357    
   1432000   285.26761      0.021145685    10.760729      707.75681     -32.001263      675.75554    
   1433000   281.36989      0.021145685    11.992762      698.08646     -34.898785      663.18768    
   1434000   288.42042      0.021145685    7.6165124      715.579       -37.412956      678.16604    
   1435000   320.38394      0.021145685    12.380159      794.88138     -37.794232      757.08715    
   1436000   309.90225      0.021145685    10.836403      768.87602     -35.18176       733.69426    
   1437000   302.14556      0.021145685    11.023934      749.63147     -31.354509      718.27696    
   1438000   310.47388      0.021145685    12.150723      770.29425     -31.795098      738.49915    
   1439000   300.99349      0.021145685    12.28549       746.77314     -35.038265      711.73488    
   1440000   295.04288      0.021145685    10.088482      732.00952     -36.24425       695.76527    
   1441000   298.65844      0.021145685    10.644268      740.97982     -36.350834      704.62898    
   1442000   295.93233      0.021145685    12.453855      734.21626     -32.503698      701.71257    
   1443000   293.32094      0.021145685    13.069498      727.73734     -33.801734      693.93561    
   1444000   294.12622      0.021145685    10.007121      729.73526     -35.601186      694.13407    
   1445000   305.33867      0.021145685    12.537101      757.55365     -31.829999      725.72365    
   1446000   297.28011      0.021145685    11.435189      737.56016     -44.446715      693.11344    
   1447000   284.1408       0.021145685    11.040518      704.96115     -40.907611      664.05354    
   1448000   308.93155      0.021145685    4.2751697      766.4677      -32.078337      734.38936    
   1449000   315.43461      0.021145685    11.623433      782.60195     -33.425291      749.17666    
   1450000   296.88107      0.021145685    17.294009      736.57011     -34.468377      702.10173    
   1451000   291.56671      0.021145685    11.01275       723.38505     -36.42449       686.96056    
   1452000   302.363        0.021145685    9.284644       750.17093     -39.027454      711.14347    
   1453000   308.33301      0.021145685    6.5725726      764.9827      -37.82722       727.15548    
   1454000   303.43105      0.021145685    13.919544      752.8208      -36.578194      716.24261    
   1455000   288.76981      0.021145685    17.922202      716.44587     -32.333786      684.11208    
   1456000   294.23162      0.021145685    12.51595       729.99677     -35.070033      694.92673    
   1457000   302.16074      0.021145685    8.3694234      749.66912     -37.93108       711.73804    
   1458000   292.42178      0.021145685    12.777413      725.50649     -35.981266      689.52522    
   1459000   293.90857      0.021145685    9.1199936      729.19527     -36.565978      692.62929    
   1460000   308.97678      0.021145685    8.5462694      766.5799      -32.436441      734.14346    
   1461000   303.27064      0.021145685    11.131863      752.42283     -35.178416      717.24441    
   1462000   300.41886      0.021145685    11.632071      745.34747     -39.17083       706.17665    
   1463000   308.01187      0.021145685    10.347419      764.18593     -45.403579      718.78235    
   1464000   295.05933      0.021145685    14.779294      732.05033     -40.63307       691.41725    
   1465000   295.97589      0.021145685    13.737556      734.32433     -41.352298      692.97203    
   1466000   299.46745      0.021145685    7.7496817      742.987       -37.985008      705.00199    
   1467000   298.99057      0.021145685    11.476198      741.80386     -34.496648      707.30721    
   1468000   303.11696      0.021145685    25.34324       752.04154     -40.041021      712.00051    
   1469000   308.13338      0.021145685    15.191006      764.4874      -35.795795      728.69161    
   1470000   296.59678      0.021145685    8.5197568      735.86479     -36.833461      699.03133    
   1471000   292.65498      0.021145685    8.6860998      726.08507     -33.447051      692.63802    
   1472000   301.02851      0.021145685    10.776973      746.86003     -33.505383      713.35465    
   1473000   307.30075      0.021145685    12.810945      762.42163     -34.561189      727.86045    
   1474000   289.67335      0.021145685    16.122181      718.68757     -35.349362      683.3382     
   1475000   286.07614      0.021145685    12.31883       709.76279     -37.133735      672.62906    
   1476000   307.53303      0.021145685    8.7958566      762.99791     -43.857929      719.13998    
   1477000   311.80727      0.021145685    11.00941       773.60243     -41.169622      732.43281    
   1478000   296.86646      0.021145685    15.491784      736.53386     -35.969611      700.56425    
   1479000   289.52144      0.021145685    7.7253065      718.31067     -37.462462      680.84821    
   1480000   291.54823      0.021145685    6.3926147      723.33919     -32.970571      690.36862    
   1481000   302.95506      0.021145685    17.06615       751.63985     -29.740243      721.8996     
   1482000   292.14216      0.021145685    11.242499      724.81276     -29.912307      694.90045    
   1483000   298.24297      0.021145685    9.8537104      739.94902     -26.615303      713.33372    
   1484000   302.41047      0.021145685    18.876757      750.28871     -32.037204      718.2515     
   1485000   293.50246      0.021145685    12.954193      728.1877      -28.043117      700.14459    
   1486000   298.2448       0.021145685    10.413503      739.95357     -33.698701      706.25487    
   1487000   297.11924      0.021145685    10.688019      737.16103     -35.111879      702.04915    
   1488000   302.22162      0.021145685    12.401837      749.82016     -34.415286      715.40487    
   1489000   283.95137      0.021145685    12.483673      704.49118     -35.09881       669.39237    
   1490000   286.57225      0.021145685    9.9369472      710.99364     -32.604779      678.38886    
   1491000   315.77386      0.021145685    13.154852      783.44365     -31.353202      752.09044    
   1492000   298.94239      0.021145685    11.659242      741.68432     -29.028016      712.6563     
   1493000   294.21878      0.021145685    13.128217      729.9649      -27.607156      702.35775    
   1494000   327.42636      0.021145685    12.025692      812.35382     -29.653004      782.70082    
   1495000   307.08786      0.021145685    10.335593      761.89343     -28.712448      733.18099    
   1496000   302.4009       0.021145685    10.926142      750.26497     -26.752002      723.51297    
   1497000   293.67101      0.021145685    11.177214      728.60588     -29.491921      699.11396    
   1498000   294.5143       0.021145685    11.494408      730.69811     -30.755012      699.9431     
   1499000   305.58778      0.021145685    11.009714      758.17169     -29.592949      728.57875    
   1500000   306.47052      0.021145685    11.155732      760.36181     -30.935399      729.42641    
   1501000   294.67983      0.021145685    11.268536      731.10879     -31.515948      699.59284    
   1502000   296.38374      0.021145685    11.509901      735.33624     -31.40389       703.93235    
   1503000   308.85539      0.021145685    12.130883      766.27874     -28.578596      737.70014    
   1504000   313.55259      0.021145685    8.6523721      777.93262     -30.736564      747.19605    
   1505000   290.38188      0.021145685    12.739856      720.44545     -34.559359      685.88609    
   1506000   292.8599       0.021145685    8.2667635      726.59348     -36.922363      689.67112    
   1507000   312.04443      0.021145685    11.582278      774.19082     -32.755215      741.43561    
   1508000   304.28087      0.021145685    10.978901      754.92924     -35.239948      719.68929    
   1509000   292.93743      0.021145685    10.76655       726.78583     -33.212416      693.57342    
   1510000   302.4418       0.021145685    12.19323       750.36645     -31.239723      719.12673    
   1511000   311.26799      0.021145685    14.028086      772.26447     -31.500619      740.76385    
   1512000   300.46598      0.021145685    10.353706      745.46437     -37.940588      707.52379    
   1513000   296.59337      0.021145685    10.42529       735.85631     -32.395571      703.46074    
   1514000   306.89761      0.021145685    13.566017      761.42143     -28.576795      732.84464    
   1515000   312.00666      0.021145685    9.9134868      774.09713     -32.02208       742.07505    
   1516000   301.60485      0.021145685    5.8005235      748.28995     -34.067344      714.22261    
   1517000   301.2496       0.021145685    10.952642      747.40857     -30.721272      716.6873     
   1518000   302.95945      0.021145685    11.469001      751.65076     -31.125853      720.52491    
   1519000   305.35824      0.021145685    11.787067      757.60222     -26.595187      731.00703    
   1520000   311.54737      0.021145685    12.119854      772.95761     -28.330226      744.62738    
   1521000   288.46902      0.021145685    11.073061      715.6996      -27.984279      687.71532    
   1522000   290.84357      0.021145685    11.135687      721.59092     -30.50048       691.09044    
   1523000   305.02943      0.021145685    14.2674        756.78642     -30.281964      726.50446    
   1524000   301.96638      0.021145685    6.8309845      749.18691     -37.158211      712.0287     
   1525000   297.07245      0.021145685    10.310108      737.04493     -36.858123      700.1868     
   1526000   302.73799      0.021145685    13.854031      751.10129     -32.05905       719.04224    
   1527000   298.69575      0.021145685    11.714838      741.07238     -28.996518      712.07586    
   1528000   311.9183       0.021145685    9.9104242      773.8779      -30.485134      743.39277    
   1529000   309.65541      0.021145685    12.445796      768.26362     -25.923276      742.34034    
   1530000   302.19883      0.021145685    18.935249      749.76363     -25.741419      724.02222    
   1531000   305.92187      0.021145685    6.9945635      759.0006      -31.540474      727.46013    
   1532000   290.91983      0.021145685    8.6850432      721.78011     -31.393441      690.38667    
   1533000   299.01495      0.021145685    12.852191      741.86434     -29.609295      712.25505    
   1534000   321.12492      0.021145685    12.764542      796.71978     -28.366187      768.35359    
   1535000   302.45902      0.021145685    12.89907       750.40916     -29.053101      721.35606    
   1536000   289.18519      0.021145685    10.371891      717.47642     -30.35295       687.12347    
   1537000   301.52082      0.021145685    10.535216      748.08146     -32.515887      715.56557    
   1538000   303.35922      0.021145685    12.100464      752.64258     -39.05202       713.59056    
   1539000   309.03255      0.021145685    9.5307016      766.71829     -38.081354      728.63693    
   1540000   285.07275      0.021145685    2.4815948      707.27335     -33.858547      673.4148     
   1541000   286.05776      0.021145685    17.075663      709.71719     -31.141319      678.57587    
   1542000   308.23642      0.021145685    14.532801      764.74306     -27.487459      737.2556     
   1543000   316.12765      0.021145685    7.2131047      784.32142     -26.940023      757.3814     
   1544000   303.06475      0.021145685   -9.0117611      751.912       -30.599777      721.31222    
   1545000   284.84584      0.021145685    7.3657036      706.71039     -29.877425      676.83296    
   1546000   299.21072      0.021145685    25.402508      742.35006     -33.173963      709.17609    
   1547000   296.56799      0.021145685    23.83828       735.79335     -35.849573      699.94377    
   1548000   300.56226      0.021145685    10.742908      745.70325     -33.466582      712.23667    
   1549000   292.89425      0.021145685   -1.3793122      726.67871     -31.031246      695.64747    
   1550000   298.99962      0.021145685    14.893771      741.82629     -30.349284      711.477      
   1551000   310.59345      0.021145685    19.19047       770.5909      -29.713512      740.87739    
   1552000   298.02758      0.021145685    9.0059008      739.41465     -29.643722      709.77093    
   1553000   300.13995      0.021145685    9.1732296      744.65549     -32.343672      712.31182    
   1554000   302.98421      0.021145685    16.52313       751.71219     -35.725926      715.98626    
   1555000   316.47266      0.021145685    13.399217      785.1774      -39.523732      745.65366    
   1556000   296.43646      0.021145685    6.6431093      735.46703     -33.558389      701.90864    
   1557000   279.37245      0.021145685    14.328278      693.13076     -38.701183      654.42958    
   1558000   306.06503      0.021145685    13.352188      759.35577     -36.190129      723.16564    
   1559000   304.20366      0.021145685    6.2855614      754.73766     -40.540026      714.19763    
   1560000   294.24665      0.021145685    10.136555      730.03406     -38.850302      691.18376    
   1561000   295.62261      0.021145685    12.771859      733.44785     -34.095118      699.35273    
   1562000   318.39701      0.021145685    10.535672      789.95175     -38.179605      751.77215    
   1563000   305.19345      0.021145685    13.750955      757.19337     -33.592059      723.60131    
   1564000   289.56046      0.021145685    10.968102      718.40747     -36.093281      682.31419    
   1565000   296.59001      0.021145685    9.5291131      735.848       -34.577888      701.27011    
   1566000   308.61463      0.021145685    12.374642      765.68139     -37.81116       727.87023    
   1567000   300.75116      0.021145685    11.297534      746.17193     -39.826336      706.34559    
   1568000   302.64647      0.021145685    14.010795      750.87424     -41.711239      709.163      
   1569000   286.63973      0.021145685    11.696581      711.16108     -38.144887      673.0162     
   1570000   301.41157      0.021145685    11.757809      747.81042     -37.274068      710.53635    
   1571000   307.17004      0.021145685    11.019225      762.09733     -35.019512      727.07782    
   1572000   295.99974      0.021145685    10.24648       734.38352     -37.014538      697.36898    
   1573000   287.15328      0.021145685    11.000001      712.4352      -33.666514      678.76869    
   1574000   303.87112      0.021145685    12.692981      753.91262     -36.794124      717.11849    
   1575000   308.04724      0.021145685    11.523947      764.27369     -34.931082      729.34261    
   1576000   298.03476      0.021145685    10.410826      739.43244     -38.728009      700.70443    
   1577000   291.47998      0.021145685    18.096664      723.16986     -35.120392      688.04946    
   1578000   305.85982      0.021145685    16.770369      758.84665     -35.943881      722.90277    
   1579000   303.73351      0.021145685    10.177074      753.57122     -37.938693      715.63253    
   1580000   306.34477      0.021145685    11.246283      760.04982     -31.582498      728.46732    
   1581000   293.42083      0.021145685    9.8642819      727.98517     -36.154661      691.83051    
   1582000   289.89633      0.021145685    10.686658      719.2408      -37.015293      682.22551    
   1583000   298.43972      0.021145685    10.091272      740.43717     -39.927124      700.51004    
   1584000   306.87695      0.021145685    10.874279      761.37018     -41.007152      720.36303    
   1585000   305.3412       0.021145685    7.9973704      757.55993     -43.210874      714.34905    
   1586000   307.51623      0.021145685    17.722272      762.95625     -45.724261      717.23199    
   1587000   291.98546      0.021145685    14.82681       724.42397     -40.838711      683.58526    
   1588000   297.49124      0.021145685    8.822068       738.08396     -40.733071      697.35088    
   1589000   308.59019      0.021145685    10.729265      765.62078     -36.177892      729.44288    
   1590000   300.17685      0.021145685    12.251092      744.74703     -36.183319      708.56371    
   1591000   286.68213      0.021145685    14.156324      711.26627     -33.656786      677.60948    
   1592000   303.18998      0.021145685    9.3517378      752.22271     -35.208423      717.01428    
   1593000   317.56888      0.021145685    9.9504583      787.89714     -34.182991      753.71415    
   1594000   293.89814      0.021145685    16.416009      729.16939     -35.906265      693.26312    
   1595000   296.41463      0.021145685    11.904348      735.41287     -37.31771       698.09516    
   1596000   301.35417      0.021145685    9.8129912      747.668       -37.017005      710.65099    
   1597000   310.34325      0.021145685    12.075989      769.97017     -32.009001      737.96117    
   1598000   302.451        0.021145685    13.125178      750.38926     -37.482953      712.90631    
   1599000   297.07712      0.021145685    10.318307      737.05652     -35.078528      701.97799    
   1600000   289.06044      0.021145685    11.549328      717.16693     -33.011276      684.15565    
   1601000   309.61321      0.021145685    11.838867      768.15891     -37.258254      730.90065    
   1602000   303.30454      0.021145685    10.222132      752.50693     -36.979951      715.52698    
   1603000   284.71541      0.021145685    9.5650759      706.38678     -35.315776      671.07101    
   1604000   303.11839      0.021145685    10.547655      752.04507     -36.038343      716.00673    
   1605000   312.10151      0.021145685    11.454726      774.33245     -35.2304        739.10205    
   1606000   298.55865      0.021145685    11.76006       740.73225     -41.628822      699.10343    
   1607000   294.01993      0.021145685    11.550777      729.47154     -43.268407      686.20314    
   1608000   304.80446      0.021145685    12.323685      756.22825     -41.45689       714.77136    
   1609000   296.49659      0.021145685    10.303533      735.61622     -35.734357      699.88187    
   1610000   293.94569      0.021145685    9.6669281      729.28736     -43.023265      686.26409    
   1611000   295.61292      0.021145685    10.105363      733.42381     -38.221559      695.20226    
   1612000   304.73318      0.021145685    15.713015      756.05142     -34.58166       721.46977    
   1613000   307.98224      0.021145685    8.5362073      764.11242     -39.180491      724.93193    
   1614000   297.25454      0.021145685    10.246612      737.49671     -37.085731      700.41098    
   1615000   283.30272      0.021145685    17.328482      702.88185     -36.313628      666.56822    
   1616000   309.5742       0.021145685    12.419402      768.06213     -32.059671      736.00246    
   1617000   308.20397      0.021145685    11.075034      764.66255     -31.616612      733.04594    
   1618000   292.40259      0.021145685    5.9957984      725.45889     -33.325546      692.13335    
   1619000   302.91198      0.021145685    13.666786      751.53297     -33.789017      717.74396    
   1620000   307.24727      0.021145685    18.755294      762.28894     -33.323505      728.96544    
   1621000   293.79759      0.021145685    7.7904601      728.91993     -37.831108      691.08882    
   1622000   297.71032      0.021145685    7.0762111      738.6275      -32.983464      705.64404    
   1623000   308.46079      0.021145685    25.742105      765.29973     -32.522086      732.77765    
   1624000   312.60397      0.021145685    23.207628      775.57906     -33.791816      741.78724    
   1625000   307.64227      0.021145685    9.3700478      763.26894     -32.416071      730.85287    
   1626000   306.03806      0.021145685    7.423709       759.28887     -33.330587      725.95828    
   1627000   295.87244      0.021145685    5.0539415      734.06768     -39.580616      694.48706    
   1628000   297.23301      0.021145685    12.655056      737.44328     -39.790009      697.65327    
   1629000   312.76616      0.021145685    11.983879      775.98146     -38.268757      737.7127     
   1630000   312.08513      0.021145685    10.773535      774.2918      -37.429667      736.86213    
   1631000   275.2299       0.021145685    7.1268242      682.85297     -38.147562      644.70541    
   1632000   295.44718      0.021145685    13.242336      733.0126      -37.460996      695.55161    
   1633000   307.42343      0.021145685    10.532832      762.72599     -37.733294      724.9927     
   1634000   307.24305      0.021145685    12.263311      762.27847     -36.173857      726.10461    
   1635000   282.07785      0.021145685    10.114953      699.84292     -40.078629      659.76429    
   1636000   285.80396      0.021145685    9.2376956      709.08751     -39.370676      669.71683    
   1637000   301.1591       0.021145685    14.080279      747.18402     -31.966275      715.21775    
   1638000   309.18478      0.021145685    6.0562811      767.09597     -33.803057      733.29291    
   1639000   302.67004      0.021145685    10.538412      750.93271     -37.244096      713.68862    
   1640000   286.46697      0.021145685    13.834231      710.73246     -36.951647      673.78081    
   1641000   313.77024      0.021145685    11.450051      778.47262     -38.780683      739.69193    
   1642000   301.26322      0.021145685    7.3513094      747.44235     -41.714981      705.72737    
   1643000   284.3621       0.021145685    7.2182982      705.51021     -39.064103      666.4461     
   1644000   297.77541      0.021145685    18.867953      738.78901     -34.752508      704.0365     
   1645000   311.31526      0.021145685    10.90202       772.38174     -38.483109      733.89863    
   1646000   300.38219      0.021145685    9.1287594      745.2565      -42.088684      703.16782    
   1647000   298.28449      0.021145685    11.254583      740.05204     -40.278237      699.77381    
   1648000   308.38253      0.021145685    14.301224      765.10555     -40.317804      724.78775    
   1649000   315.21858      0.021145685    8.1354966      782.06598     -39.353441      742.71254    
   1650000   299.44781      0.021145685    9.819202       742.93826     -45.585753      697.35251    
   1651000   279.57989      0.021145685    11.664362      693.64542     -44.206958      649.43846    
   1652000   316.3545       0.021145685    16.08936       784.88423     -45.888684      738.99555    
   1653000   300.82757      0.021145685    11.581861      746.3615      -40.035616      706.32588    
   1654000   287.10224      0.021145685    10.142392      712.30857     -39.064317      673.24425    
   1655000   297.88573      0.021145685    9.5493634      739.06271     -39.739172      699.32353    
   1656000   316.16474      0.021145685    11.291362      784.41344     -36.681183      747.73226    
   1657000   304.4204       0.021145685    12.56567       755.2754      -38.0316        717.2438     
   1658000   287.59546      0.021145685    10.468562      713.53226     -37.07682       676.45544    
   1659000   296.11732      0.021145685    10.129183      734.67523     -41.604209      693.07102    
   1660000   300.26642      0.021145685    12.064463      744.96927     -40.398119      704.57115    
   1661000   306.34251      0.021145685    15.381718      760.04422     -44.230321      715.8139     
   1662000   290.36004      0.021145685    9.6770576      720.39126     -39.681158      680.71011    
   1663000   296.66415      0.021145685    9.9284549      736.03194     -34.608681      701.42326    
   1664000   322.39803      0.021145685    9.6228429      799.8784      -39.43402       760.44438    
   1665000   301.09339      0.021145685    15.240079      747.02099     -42.330511      704.69048    
   1666000   289.05352      0.021145685    17.493402      717.14975     -43.860756      673.28899    
   1667000   304.69864      0.021145685    2.6415921      755.96573     -45.062973      710.90275    
   1668000   315.62677      0.021145685    6.5522317      783.07873     -41.233281      741.84545    
   1669000   298.46634      0.021145685    15.037345      740.50321     -42.003613      698.4996     
   1670000   285.94128      0.021145685    2.5650719      709.42821     -45.582437      663.84577    
   1671000   313.26223      0.021145685    9.0698697      777.21223     -38.403624      738.8086     
   1672000   306.87038      0.021145685    24.001337      761.35388     -39.158786      722.19509    
   1673000   295.8558       0.021145685    12.05527       734.02641     -35.695847      698.33056    
   1674000   294.21815      0.021145685    11.894667      729.96333     -41.54124       688.42209    
   1675000   294.26121      0.021145685    11.615596      730.07017     -38.962491      691.10768    
   1676000   296.03846      0.021145685   -7.7030806      734.47959     -45.201355      689.27824    
   1677000   312.35545      0.021145685    12.211751      774.96249     -41.363299      733.59919    
   1678000   309.8538       0.021145685    17.498717      768.75581     -36.621184      732.13463    
   1679000   298.02811      0.021145685    13.29659       739.41595     -33.26317       706.15278    
   1680000   296.38156      0.021145685    10.104918      735.33083     -40.923774      694.40705    
   1681000   296.94842      0.021145685   -3.189451       736.73722     -39.139879      697.59734    
   1682000   306.38194      0.021145685    8.4973964      760.14205     -33.98555       726.1565     
   1683000   303.52918      0.021145685    15.624294      753.06425     -32.635446      720.42881    
   1684000   285.68337      0.021145685    2.2313185      708.78831     -29.785839      679.00247    
   1685000   307.83997      0.021145685    4.5244879      763.75946     -28.699837      735.05963    
   1686000   312.71493      0.021145685    5.5568418      775.85436     -31.377037      744.47732    
   1687000   303.86941      0.021145685    28.738946      753.90837     -30.376894      723.53148    
   1688000   294.6596       0.021145685    30.695485      731.05859     -29.087367      701.97122    
   1689000   289.80678      0.021145685    18.008264      719.01861     -29.955077      689.06353    
   1690000   297.63964      0.021145685    5.1572418      738.45216     -31.153851      707.29831    
   1691000   311.58483      0.021145685    3.0458249      773.05056     -35.7914        737.25916    
   1692000   299.48872      0.021145685    14.63977       743.03976     -33.320035      709.71972    
   1693000   288.69257      0.021145685    19.848411      716.25421     -32.119767      684.13445    
   1694000   285.47913      0.021145685    8.2108641      708.28159     -30.112574      678.16901    
   1695000   308.12099      0.021145685    6.7798408      764.45668     -30.272262      734.18442    
   1696000   313.34687      0.021145685    14.12583       777.42221     -30.580681      746.84153    
   1697000   293.11037      0.021145685    17.053048      727.2149      -26.96583       700.24907    
   1698000   290.56632      0.021145685    5.2139298      720.90304     -26.194298      694.70875    
   1699000   311.4925       0.021145685    10.051429      772.82147     -34.321965      738.4995     
   1700000   302.32826      0.021145685    11.388373      750.08473     -32.089116      717.99562    
   1701000   295.16285      0.021145685    11.31457       732.30716     -32.870436      699.43672    
   1702000   305.88379      0.021145685    14.204036      758.90612     -35.546828      723.35929    
   1703000   304.75451      0.021145685    12.466761      756.10434     -38.544105      717.56024    
   1704000   288.0284       0.021145685    9.8660624      714.60641     -35.190072      679.41633    
   1705000   302.00695      0.021145685    11.418686      749.28757     -35.945825      713.34175    
   1706000   304.12211      0.021145685    12.31702       754.53534     -29.422644      725.1127     
   1707000   293.37987      0.021145685    11.43322       727.88353     -36.806063      691.07747    
   1708000   291.70066      0.021145685    9.0072993      723.71739     -33.739206      689.97818    
   1709000   284.39342      0.021145685    5.7174663      705.58792     -31.655047      673.93287    
   1710000   303.69949      0.021145685    12.965111      753.48681     -35.099059      718.38775    
   1711000   303.16838      0.021145685    14.469554      752.1691      -32.863894      719.3052     
   1712000   295.30447      0.021145685    2.1654614      732.65853     -36.656658      696.00187    
   1713000   297.31459      0.021145685    5.4247971      737.64568     -36.993891      700.65179    
   1714000   298.63069      0.021145685    14.94983       740.91096     -38.398501      702.51246    
   1715000   308.36139      0.021145685    13.842974      765.05312     -37.1995        727.85362    
   1716000   299.02049      0.021145685    0.79245995     741.87807     -35.935746      705.94232    
   1717000   297.46982      0.021145685    8.870798       738.03082     -33.185131      704.84569    
   1718000   309.34084      0.021145685    21.393642      767.48316     -38.346555      729.1366     
   1719000   310.03627      0.021145685    10.506815      769.20853     -36.255245      732.95329    
   1720000   297.07669      0.021145685    2.647961       737.05546     -37.214532      699.84092    
   1721000   290.07764      0.021145685    10.542954      719.69063     -34.888943      684.80169    
   1722000   302.82776      0.021145685    16.611329      751.32401     -34.968394      716.35562    
   1723000   301.49232      0.021145685    20.451813      748.01075     -36.513118      711.49763    
   1724000   296.14123      0.021145685    15.606643      734.73457     -37.265888      697.46868    
   1725000   314.80941      0.021145685   -6.9048235      781.05083     -40.314553      740.73628    
   1726000   292.70212      0.021145685   -5.1989361      726.20202     -37.960848      688.24118    
   1727000   303.60767      0.021145685    13.880293      753.259       -33.037525      720.22147    
   1728000   293.64347      0.021145685    13.951647      728.53755     -31.065325      697.47222    
   1729000   307.25565      0.021145685    16.340943      762.30974     -31.10169       731.20805    
   1730000   306.30065      0.021145685    11.868942      759.94036     -37.174396      722.76596    
   1731000   292.04054      0.021145685    4.0450728      724.56062     -38.139784      686.42084    
   1732000   291.88549      0.021145685    7.376424       724.17595     -39.210687      684.96526    
   1733000   291.23639      0.021145685    16.023905      722.5655      -41.16731       681.39819    
   1734000   303.65076      0.021145685    11.846158      753.3659      -35.426674      717.93922    
   1735000   313.23794      0.021145685    21.100798      777.15196     -40.131203      737.02076    
   1736000   305.49881      0.021145685    9.1023773      757.95098     -41.209191      716.74179    
   1737000   292.55288      0.021145685    5.4408434      725.83177     -41.41979       684.41198    
   1738000   288.41404      0.021145685    14.655969      715.56318     -35.994564      679.56862    
   1739000   293.88308      0.021145685    24.41996       729.13203     -43.137332      685.9947     
   1740000   307.88616      0.021145685    7.8169957      763.87405     -40.177692      723.69636    
   1741000   294.94438      0.021145685    11.283738      731.76514     -33.962432      697.8027     
   1742000   292.86813      0.021145685    12.483687      726.6139      -32.085612      694.52829    
   1743000   306.63756      0.021145685    11.260804      760.77625     -32.778296      727.99795    
   1744000   301.64923      0.021145685    7.6497527      748.40006     -32.025258      716.37481    
   1745000   288.55912      0.021145685    13.641247      715.92312     -29.843097      686.08003    
   1746000   306.37017      0.021145685    14.757673      760.11283     -33.888355      726.22447    
   1747000   306.94959      0.021145685    5.8770942      761.55039     -36.038442      725.51195    
   1748000   296.25345      0.021145685    14.43035       735.01296     -32.055763      702.9572     
   1749000   303.23028      0.021145685    15.85702       752.32267     -35.909392      716.41328    
   1750000   298.35071      0.021145685    2.042148       740.21633     -33.70059       706.51574    
   1751000   291.9954       0.021145685    11.686764      724.44863     -31.07629       693.37234    
   1752000   302.7561       0.021145685    11.319816      751.14622     -33.93012       717.2161     
   1753000   293.08597      0.021145685    11.362696      727.15437     -40.665656      686.48871    
   1754000   299.92465      0.021145685    11.779245      744.12133     -37.236619      706.88471    
   1755000   296.7735       0.021145685    11.177125      736.30323     -40.560031      695.7432     
   1756000   305.31699      0.021145685    12.314553      757.49987     -41.128946      716.37093    
   1757000   297.43826      0.021145685    11.060246      737.95253     -40.80741       697.14512    
   1758000   302.12225      0.021145685    8.483062       749.57363     -38.835961      710.73767    
   1759000   303.44469      0.021145685    10.621743      752.85464     -39.859779      712.99486    
   1760000   302.64896      0.021145685    12.431171      750.88041     -36.919845      713.96056    
   1761000   310.6987       0.021145685    11.230949      770.85204     -40.664183      730.18786    
   1762000   290.50469      0.021145685    10.944925      720.75015     -38.327509      682.42264    
   1763000   299.00395      0.021145685    8.3188868      741.83703     -38.315281      703.52175    
   1764000   311.47787      0.021145685    10.870096      772.78519     -41.152081      731.63311    
   1765000   298.24311      0.021145685    11.96291       739.94939     -36.782227      703.16716    
   1766000   279.63347      0.021145685    11.308164      693.77835     -40.059274      653.71907    
   1767000   299.46251      0.021145685    9.3518906      742.97475     -39.371249      703.6035     
   1768000   309.51448      0.021145685    11.093462      767.91395     -36.996838      730.91711    
   1769000   305.75157      0.021145685    12.937216      758.57806     -33.649407      724.92866    
   1770000   291.68786      0.021145685    13.559095      723.68563     -34.40014       689.28549    
   1771000   288.76888      0.021145685    7.9520705      716.44355     -32.636812      683.80674    
   1772000   291.35214      0.021145685    5.9936447      722.85269     -33.897464      688.95523    
   1773000   308.54708      0.021145685    11.100106      765.51382     -38.000699      727.51312    
   1774000   290.7086       0.021145685    11.982681      721.25604     -37.931625      683.32441    
   1775000   298.62455      0.021145685    12.310115      740.89574     -37.425529      703.47021    
   1776000   313.44503      0.021145685    11.773906      777.66575     -33.156058      744.5097     
   1777000   299.01691      0.021145685    10.681977      741.86919     -30.874165      710.99503    
   1778000   295.2704       0.021145685    11.489451      732.57401     -31.431666      701.14234    
   1779000   298.82082      0.021145685    10.786565      741.3827      -34.378896      707.00381    
   1780000   304.11013      0.021145685    11.481668      754.50562     -32.692043      721.81357    
   1781000   306.25537      0.021145685    11.589573      759.82802     -35.383388      724.44464    
   1782000   290.94609      0.021145685    11.900338      721.84527     -36.803445      685.04182    
   1783000   289.60126      0.021145685    10.116541      718.50871     -37.598682      680.91003    
   1784000   294.23409      0.021145685    12.337613      730.00288     -38.227603      691.77528    
   1785000   312.10765      0.021145685    10.992825      774.34768     -32.476827      741.87086    
   1786000   290.39477      0.021145685    12.831508      720.47744     -31.61184       688.8656     
   1787000   289.03456      0.021145685    10.191083      717.10271     -33.293336      683.80937    
   1788000   303.41535      0.021145685    9.8824115      752.78185     -31.169704      721.61215    
   1789000   310.35888      0.021145685    21.635391      770.00895     -31.85511       738.15384    
   1790000   288.35226      0.021145685    9.7501023      715.40991     -34.969098      680.44081    
   1791000   298.84683      0.021145685    6.2359288      741.44723     -36.718321      704.72891    
   1792000   318.57704      0.021145685    6.2255317      790.39841     -31.761959      758.63645    
   1793000   301.98172      0.021145685    14.414725      749.22497     -38.439005      710.78596    
   1794000   282.88229      0.021145685    9.9272941      701.83876     -34.893614      666.94515    
   1795000   311.67474      0.021145685    5.4498007      773.27362     -32.520191      740.75343    
   1796000   301.2198       0.021145685    17.294979      747.33463     -34.533722      712.8009     
   1797000   287.55995      0.021145685    10.061434      713.44415     -30.227558      683.2166     
   1798000   290.83563      0.021145685    5.0588422      721.5712      -33.605647      687.96556    
   1799000   313.27511      0.021145685    8.8727783      777.24419     -33.523373      743.72082    
   1800000   297.72011      0.021145685    19.273769      738.65181     -33.037327      705.61448    
   1801000   292.99974      0.021145685    12.157494      726.94042     -36.038572      690.90185    
   1802000   292.01261      0.021145685    1.0901141      724.49134     -34.77917       689.71217    
   1803000   313.8582       0.021145685   -0.73760134     778.69085     -29.164791      749.52606    
   1804000   308.8494       0.021145685    10.60095       766.26388     -30.618942      735.64494    
   1805000   290.57519      0.021145685    15.754156      720.92506     -30.998437      689.92662    
   1806000   281.3774       0.021145685    5.5790598      698.10509     -32.367821      665.73726    
   1807000   312.37849      0.021145685    11.600815      775.01965     -31.977962      743.04169    
   1808000   299.94199      0.021145685    25.286949      744.16434     -32.93508       711.22926    
   1809000   281.26062      0.021145685    7.7806111      697.81535     -32.736557      665.07879    
   1810000   302.97684      0.021145685    9.9083117      751.69388     -29.897267      721.79661    
   1811000   311.36401      0.021145685    15.595143      772.5027      -32.740309      739.76239    
   1812000   302.04718      0.021145685    17.377481      749.38737     -32.815774      716.5716     
   1813000   283.46738      0.021145685    13.715197      703.29037     -36.803189      666.48718    
   1814000   300.22913      0.021145685    5.063807       744.87674     -34.671661      710.20508    
   1815000   317.04641      0.021145685    8.5797655      786.60088     -37.180353      749.42053    
   1816000   301.73879      0.021145685    15.067256      748.62226     -29.499464      719.1228     
   1817000   289.25727      0.021145685    13.66653       717.65526     -32.985157      684.6701     
   1818000   287.54321      0.021145685    3.4574752      713.40262     -32.312642      681.08998    
   1819000   311.10004      0.021145685    10.919751      771.84777     -29.65287       742.1949     
   1820000   294.12473      0.021145685    11.565821      729.73156     -26.583655      703.1479     
   1821000   283.62042      0.021145685    10.24394       703.67007     -26.933354      676.73672    
   1822000   299.38142      0.021145685    11.918119      742.77356     -26.550977      716.22258    
   1823000   318.67007      0.021145685    13.503116      790.62924     -26.222477      764.40676    
   1824000   306.7884       0.021145685    11.376063      761.15048     -29.867159      731.28332    
   1825000   291.54047      0.021145685    9.2172108      723.31995     -28.323367      694.99658    
   1826000   300.83288      0.021145685    11.510327      746.37468     -25.783449      720.59123    
   1827000   300.73409      0.021145685    12.542436      746.12956     -31.646308      714.48325    
   1828000   312.74442      0.021145685    9.6148339      775.92753     -34.263897      741.66363    
   1829000   294.4272       0.021145685    7.7997673      730.48201     -31.894158      698.58785    
   1830000   305.24511      0.021145685    11.063546      757.32154     -36.657269      720.66427    
   1831000   306.37673      0.021145685    20.438847      760.1291      -39.867956      720.26115    
   1832000   308.36314      0.021145685    12.076514      765.05746     -38.221801      726.83566    
   1833000   294.86702      0.021145685    1.8457128      731.5732      -36.753607      694.81959    
   1834000   301.26106      0.021145685    5.4935676      747.43699     -32.718698      714.71829    
   1835000   292.94824      0.021145685    21.57111       726.81266     -29.010976      697.80169    
   1836000   304.0764       0.021145685    10.94459       754.42192     -34.461074      719.96085    
   1837000   307.99726      0.021145685    8.0881474      764.14969     -29.746441      734.40325    
   1838000   296.17624      0.021145685    9.5313334      734.82142     -37.344352      697.47707    
   1839000   291.80093      0.021145685    14.148706      723.96616     -32.843653      691.12251    
   1840000   300.80798      0.021145685    11.359714      746.3129      -32.771174      713.54173    
   1841000   305.1656       0.021145685    5.2397636      757.12427     -35.116877      722.00739    
   1842000   295.9969       0.021145685    6.7170337      734.37647     -30.77964       703.59683    
   1843000   294.43114      0.021145685    22.274474      730.49178     -36.270231      694.22155    
   1844000   308.41425      0.021145685    12.288246      765.18425     -38.836662      726.34758    
   1845000   301.48991      0.021145685    9.5585653      748.00478     -33.814821      714.18996    
   1846000   298.82859      0.021145685    16.573129      741.40197     -35.307196      706.09477    
   1847000   300.03531      0.021145685    17.393758      744.39589     -38.051922      706.34396    
   1848000   305.62705      0.021145685   -13.810277      758.26912     -35.308041      722.96108    
   1849000   287.09159      0.021145685    14.86381       712.28215     -33.764156      678.518      
   1850000   303.22405      0.021145685    18.064975      752.30723     -37.795107      714.51213    
   1851000   306.56574      0.021145685    13.899655      760.59805     -36.953509      723.64454    
   1852000   283.86488      0.021145685    5.8297168      704.2766      -29.741285      674.53531    
   1853000   292.93419      0.021145685    19.899475      726.77781     -30.73217       696.04564    
   1854000   319.70692      0.021145685    6.951217       793.20168     -34.695253      758.50643    
   1855000   305.43788      0.021145685   -9.9213854      757.7998      -32.185193      725.61461    
   1856000   291.08478      0.021145685    12.499735      722.18935     -31.620063      690.56929    
   1857000   298.68726      0.021145685    16.224727      741.05132     -33.136747      707.91457    
   1858000   309.22038      0.021145685    16.044309      767.18429     -34.954512      732.22978    
   1859000   317.14461      0.021145685    2.9119355      786.84453     -31.729109      755.11542    
   1860000   294.994        0.021145685    6.5716736      731.88825     -34.385317      697.50293    
   1861000   295.69649      0.021145685    11.327238      733.63115     -33.84218       699.78898    
   1862000   301.88166      0.021145685    13.204094      748.97673     -35.777349      713.19938    
   1863000   312.26752      0.021145685    16.819606      774.74434     -38.646426      736.09791    
   1864000   307.07871      0.021145685    4.219113       761.87074     -40.321555      721.54919    
   1865000   302.04759      0.021145685    6.3115782      749.3884      -37.996713      711.39169    
   1866000   293.96882      0.021145685    18.974311      729.34475     -43.236761      686.10799    
   1867000   294.31187      0.021145685    18.895065      730.19585     -40.55212       689.64373    
   1868000   306.52166      0.021145685    6.1290294      760.4887      -39.763702      720.725      
   1869000   298.38487      0.021145685    12.814806      740.30108     -38.193181      702.1079     
   1870000   305.80452      0.021145685    28.817042      758.70943     -36.286175      722.42326    
   1871000   304.86578      0.021145685    0.90351018     756.38041     -37.239759      719.14065    
   1872000   292.61616      0.021145685    11.273797      725.98876     -33.722142      692.26662    
   1873000   307.22172      0.021145685    14.018121      762.22556     -35.466467      726.7591     
   1874000   308.72748      0.021145685    15.878021      765.96138     -33.037232      732.92414    
   1875000   309.83551      0.021145685    1.7608191      768.71043     -32.396378      736.31405    
   1876000   287.89473      0.021145685    13.473683      714.27477     -34.266712      680.00806    
   1877000   301.4113       0.021145685    14.944233      747.80974     -37.613492      710.19625    
   1878000   317.60657      0.021145685    8.6499739      787.99066     -37.935571      750.05509    
   1879000   294.19833      0.021145685    8.0088008      729.91418     -37.07886       692.83532    
   1880000   285.58264      0.021145685    11.696192      708.53841     -36.761262      671.77715    
   1881000   286.43236      0.021145685    7.382093       710.64659     -37.953282      672.69331    
   1882000   302.5935       0.021145685    10.956859      750.74282     -38.214537      712.52828    
   1883000   313.20671      0.021145685    11.983146      777.07447     -43.059575      734.01489    
   1884000   301.81163      0.021145685    10.144025      748.80296     -39.091397      709.71157    
   1885000   288.54627      0.021145685    9.388548       715.89125     -37.808195      678.08306    
   1886000   305.916        0.021145685    12.586673      758.98602     -29.653392      729.33263    
   1887000   293.43398      0.021145685    12.046802      728.01778     -33.526295      694.49149    
   1888000   284.20322      0.021145685    8.4985659      705.11601     -29.896013      675.22       
   1889000   289.46468      0.021145685    9.8959146      718.16986     -30.628649      687.54121    
   1890000   311.10112      0.021145685    17.291563      771.85045     -26.639443      745.21101    
   1891000   299.5502       0.021145685    11.729177      743.19229     -28.836336      714.35596    
   1892000   285.66529      0.021145685    17.256237      708.74345     -28.508044      680.23541    
   1893000   299.68132      0.021145685    4.8494065      743.51761     -32.843849      710.67376    
   1894000   306.16468      0.021145685    6.9597298      759.60301     -33.541691      726.06132    
   1895000   308.54744      0.021145685    17.264911      765.51471     -28.171098      737.34361    
   1896000   293.11966      0.021145685    18.758103      727.23796     -31.75706       695.4809     
   1897000   303.98615      0.021145685    11.39496       754.19802     -31.922387      722.27563    
   1898000   303.822        0.021145685   -1.5616935      753.79075     -30.790704      723.00004    
   1899000   301.40952      0.021145685    14.508578      747.80532     -32.283329      715.52199    
   1900000   290.32093      0.021145685    21.734167      720.29422     -30.936549      689.35767    
   1901000   300.92763      0.021145685    8.2639534      746.60975     -26.972837      719.63691    
   1902000   301.48337      0.021145685   -2.4838116      747.98855     -31.261133      716.72741    
   1903000   299.29868      0.021145685    19.482964      742.56828     -30.274989      712.29329    
   1904000   291.81754      0.021145685    5.7032969      724.00736     -36.236108      687.77125    
   1905000   306.51774      0.021145685   -1.4082967      760.47896     -34.825358      725.65361    
   1906000   292.50194      0.021145685    28.352786      725.70538     -36.514253      689.19113    
   1907000   294.04662      0.021145685    9.9211777      729.53777     -32.991339      696.54643    
   1908000   308.82047      0.021145685   -3.5980534      766.1921      -32.275608      733.91649    
   1909000   305.57605      0.021145685    26.472585      758.1426      -29.438471      728.70413    
   1910000   288.29567      0.021145685    25.498817      715.2695      -30.308766      684.96073    
   1911000   306.74439      0.021145685    4.2162928      761.04128     -31.496         729.54528    
   1912000   302.23929      0.021145685    10.555884      749.86401     -31.075636      718.78838    
   1913000   297.57044      0.021145685    29.950693      738.28047     -32.121676      706.15879    
   1914000   286.57585      0.021145685   -0.83102623     711.00258     -28.117546      682.88503    
   1915000   307.70721      0.021145685   -6.9800998      763.43007     -35.534095      727.89597    
   1916000   306.05006      0.021145685    19.949487      759.31863     -32.962454      726.35617    
   1917000   310.04494      0.021145685    12.126734      769.23005     -37.007965      732.22209    
   1918000   284.57128      0.021145685    17.283348      706.0292      -35.562872      670.46633    
   1919000   302.2075       0.021145685    4.361983       749.78515     -35.999214      713.78593    
   1920000   304.58579      0.021145685    10.7618        755.68573     -35.834515      719.85122    
   1921000   294.5651       0.021145685    14.236718      730.82414     -30.318182      700.50596    
   1922000   300.78341      0.021145685    14.491333      746.25194     -32.450052      713.80189    
   1923000   298.28042      0.021145685    7.2702771      740.04193     -32.19399       707.84794    
   1924000   294.51702      0.021145685    9.2695259      730.70484     -34.914982      695.78986    
   1925000   301.26779      0.021145685    9.1203072      747.45368     -33.974083      713.4796     
   1926000   317.06055      0.021145685    14.20504       786.63597     -37.926899      748.70907    
   1927000   298.68627      0.021145685    13.79887       741.04886     -35.252973      705.79589    
   1928000   303.74041      0.021145685    11.440644      753.58834     -37.59108       715.99726    
   1929000   292.075        0.021145685    10.898989      724.64613     -33.00582       691.64031    
   1930000   293.23909      0.021145685    10.095375      727.53427     -33.213439      694.32083    
   1931000   315.65382      0.021145685    12.612726      783.14584     -29.959588      753.18625    
   1932000   306.69761      0.021145685    10.80363       760.92522     -33.927202      726.99802    
   1933000   291.73075      0.021145685    7.407067       723.79202     -33.390786      690.40124    
   1934000   288.56033      0.021145685    13.410144      715.92613     -30.160151      685.76598    
   1935000   299.84227      0.021145685    12.319631      743.91694     -33.329495      710.58744    
   1936000   295.6465       0.021145685    9.7816457      733.50713     -34.471418      699.03571    
   1937000   291.1753       0.021145685    22.659824      722.41394     -41.6538        680.76014    
   1938000   304.74425      0.021145685    12.884356      756.07888     -41.688751      714.39013    
   1939000   306.9283       0.021145685    11.115496      761.49756     -39.746422      721.75114    
   1940000   294.23669      0.021145685    10.494748      730.00934     -37.769558      692.23978    
   1941000   319.27828      0.021145685    13.691112      792.13822     -41.535134      750.60309    
   1942000   307.37977      0.021145685    12.358544      762.61768     -39.029476      723.5882     
   1943000   285.76507      0.021145685    13.095027      708.991       -39.977804      669.0132     
   1944000   294.388        0.021145685    10.880685      730.38475     -38.933859      691.45089    
   1945000   299.67928      0.021145685    17.739515      743.51256     -38.879093      704.63346    
   1946000   293.64293      0.021145685    9.3682784      728.53621     -33.404478      695.13174    
   1947000   296.1811       0.021145685    11.776598      734.83347     -31.164655      703.66881    
   1948000   309.07735      0.021145685    14.359806      766.82942     -32.586342      734.24308    
   1949000   305.86436      0.021145685    10.268743      758.85792     -30.464971      728.39295    
   1950000   300.22866      0.021145685   -2.0820312      744.87557     -31.98506       712.89051    
   1951000   302.17226      0.021145685    10.965241      749.6977      -34.746492      714.9512     
   1952000   296.04274      0.021145685    15.355234      734.49019     -35.786588      698.7036     
   1953000   315.40972      0.021145685    11.823817      782.5402      -36.335006      746.2052     
   1954000   308.11948      0.021145685    6.004295       764.45291     -40.737479      723.71543    
   1955000   282.44062      0.021145685    1.3227193      700.74296     -41.421958      659.321      
   1956000   298.35221      0.021145685    19.070788      740.22006     -38.728058      701.492      
   1957000   302.99705      0.021145685   -15.54386       751.74403     -36.873636      714.8704     
   1958000   298.19332      0.021145685    14.613361      739.82585     -31.030586      708.79526    
   1959000   310.14187      0.021145685    11.109433      769.47054     -35.339404      734.13113    
   1960000   287.08686      0.021145685    6.6012425      712.2704      -35.556718      676.71369    
   1961000   300.42289      0.021145685    10.314654      745.35748     -37.263746      708.09373    
   1962000   304.17701      0.021145685    12.466092      754.67155     -37.971089      716.70046    
   1963000   299.20845      0.021145685    11.252578      742.34441     -34.416216      707.9282     
   1964000   298.19116      0.021145685    6.3886997      739.82049     -36.200216      703.62027    
   1965000   302.8566       0.021145685    11.396029      751.39556     -41.3942        710.00136    
   1966000   303.03919      0.021145685    13.420622      751.84859     -35.399641      716.44895    
   1967000   299.27175      0.021145685    10.762124      742.50147     -32.93089       709.57058    
   1968000   288.92978      0.021145685    8.2207359      716.84274     -31.795808      685.04693    
   1969000   299.82956      0.021145685    9.5136728      743.8854      -35.726196      708.1592     
   1970000   306.00462      0.021145685    10.553723      759.20589     -35.909011      723.29688    
   1971000   301.24071      0.021145685    10.412004      747.38651     -33.548615      713.83789    
   1972000   285.92778      0.021145685    19.092667      709.3947      -33.695463      675.69924    
   1973000   301.25041      0.021145685    10.020018      747.41057     -34.75586       712.65471    
   1974000   304.78135      0.021145685    10.348689      756.17094     -36.54847       719.62247    
   1975000   311.16254      0.021145685    13.296438      772.00285     -37.19702       734.80583    
   1976000   291.0277       0.021145685    12.160556      722.04774     -38.935277      683.11246    
   1977000   297.34121      0.021145685    8.6910311      737.71173     -40.739432      696.97229    
   1978000   318.98971      0.021145685    17.40468       791.42226     -37.789541      753.63272    
   1979000   295.61068      0.021145685    11.020825      733.41825     -38.978468      694.43978    
   1980000   299.96705      0.021145685    8.0425859      744.22651     -35.873056      708.35346    
   1981000   317.39551      0.021145685    22.757727      787.467       -37.479614      749.98739    
   1982000   307.37759      0.021145685    11.072466      762.61228     -39.930384      722.68189    
   1983000   292.91553      0.021145685    9.3762351      726.73151     -40.953563      685.77794    
   1984000   302.77784      0.021145685    8.9379878      751.20016     -45.568973      705.63119    
   1985000   300.61009      0.021145685    16.044748      745.82192     -43.352448      702.46947    
   1986000   294.2936       0.021145685    10.242237      730.15053     -39.785842      690.36469    
   1987000   298.7376       0.021145685    10.512349      741.17622     -36.719936      704.45628    
   1988000   302.30482      0.021145685    8.5721511      750.02659     -31.654202      718.37239    
   1989000   308.12525      0.021145685    16.898415      764.46723     -39.661209      724.80602    
   1990000   298.59722      0.021145685    20.820907      740.82794     -35.390727      705.43721    
   1991000   303.0928       0.021145685    10.92178       751.98159     -34.097512      717.88408    
   1992000   302.13668      0.021145685    7.1511073      749.60943     -36.408233      713.2012     
   1993000   291.52045      0.021145685    10.696162      723.27028     -37.512133      685.75815    
   1994000   307.63747      0.021145685    9.6568597      763.25705     -33.692841      729.56421    
   1995000   303.3515       0.021145685    15.095118      752.62343     -35.105464      717.51797    
   1996000   291.17793      0.021145685    11.362906      722.42048     -30.850363      691.57012    
   1997000   300.39859      0.021145685    10.201131      745.29717     -34.683398      710.61377    
   1998000   307.05502      0.021145685    10.511419      761.81197     -31.598858      730.21312    
   1999000   312.83008      0.021145685    6.3868152      776.14004     -32.52082       743.61922    
   2000000   300.423        0.021145685    10.264858      745.35775     -37.066586      708.29116    
   2001000   309.86755      0.021145685    14.852539      768.78992     -35.003901      733.78602    
   2002000   294.96045      0.021145685    10.393693      731.80499     -42.163741      689.64125    
   2003000   289.29289      0.021145685    8.4159344      717.74364     -38.872038      678.87161    
   2004000   301.83491      0.021145685    1.6375675      748.86072     -37.543831      711.31689    
   2005000   302.12788      0.021145685    10.276174      749.58759     -39.254381      710.33321    
   2006000   306.27504      0.021145685    13.106675      759.87683     -40.056651      719.82017    
   2007000   294.06883      0.021145685    11.36963       729.59288     -35.564386      694.0285     
   2008000   301.44933      0.021145685    9.9943999      747.90411     -36.603144      711.30096    
   2009000   309.28114      0.021145685    11.079242      767.33504     -35.928611      731.40642    
   2010000   293.2036       0.021145685    6.4823584      727.44621     -38.624289      688.82192    
   2011000   290.88796      0.021145685    9.2527138      721.70106     -36.486514      685.21455    
   2012000   289.87123      0.021145685    17.969275      719.17852     -32.959287      686.21924    
   2013000   303.45195      0.021145685    11.753728      752.87266     -31.877065      720.99559    
   2014000   318.82842      0.021145685    11.031366      791.02209     -32.91924       758.10285    
   2015000   301.48675      0.021145685    5.2986086      747.99695     -31.552197      716.44475    
   2016000   301.70424      0.021145685    10.23026       748.53654     -28.641753      719.89479    
   2017000   293.26793      0.021145685    5.9465801      727.60582     -30.602674      697.00314    
   2018000   298.44458      0.021145685    12.379161      740.44922     -29.516232      710.93299    
   2019000   292.44383      0.021145685    18.409543      725.56121     -31.732072      693.82914    
   2020000   303.10627      0.021145685    8.2823799      752.01501     -31.468598      720.54641    
   2021000   307.57142      0.021145685    7.5943633      763.09317     -28.885183      734.20799    
   2022000   307.89483      0.021145685    10.953016      763.89555     -27.70913       736.18642    
   2023000   304.45245      0.021145685    17.318804      755.35492     -31.569864      723.78506    
   2024000   313.46763      0.021145685    10.832487      777.72183     -31.907124      745.81471    
   2025000   302.11602      0.021145685    11.727331      749.55818     -34.526442      715.03174    
   2026000   296.2671       0.021145685    11.43917       735.04684     -34.600224      700.44661    
   2027000   298.10159      0.021145685    9.501872       739.59826     -35.825898      703.77236    
   2028000   315.93945      0.021145685    14.584416      783.85448     -35.821805      748.03267    
   2029000   305.00738      0.021145685    19.171477      756.73172     -37.078903      719.65282    
   2030000   291.57594      0.021145685    14.509683      723.40794     -36.556452      686.85149    
   2031000   299.50935      0.021145685    2.0826943      743.09095     -35.064456      708.0265     
   2032000   302.38696      0.021145685    10.177026      750.2304      -31.321957      718.90844    
   2033000   293.37582      0.021145685    12.996442      727.87349     -35.31061       692.56288    
   2034000   296.95218      0.021145685    7.1428975      736.74654     -33.518601      703.22794    
   2035000   307.1934       0.021145685    6.5617168      762.1553      -33.848064      728.30723    
   2036000   316.05845      0.021145685    11.276846      784.14973     -35.720499      748.42923    
   2037000   290.79455      0.021145685    13.110162      721.46928     -41.250147      680.21914    
   2038000   288.18175      0.021145685    10.923482      714.98685     -37.391104      677.59575    
   2039000   327.45341      0.021145685    11.736615      812.42094     -35.305518      777.11542    
   2040000   313.68796      0.021145685    11.088694      778.26847     -37.919367      740.34911    
   2041000   302.46768      0.021145685    10.891666      750.43065     -36.336774      714.09387    
   2042000   322.55685      0.021145685    12.429627      800.27244     -39.075652      761.19679    
   2043000   298.68116      0.021145685    10.694346      741.0362      -41.292553      699.74365    
   2044000   284.9535       0.021145685    12.399511      706.97748     -38.007428      668.97006    
   2045000   297.59749      0.021145685    11.148014      738.34758     -38.868209      699.47938    
   2046000   313.07142      0.021145685    10.981263      776.73883     -40.964515      735.77432    
   2047000   293.64175      0.021145685    12.238462      728.53328     -37.324297      691.20898    
   2048000   295.48847      0.021145685    11.817196      733.11503     -36.922777      696.19225    
   2049000   314.6384       0.021145685    12.074217      780.62654     -38.066213      742.56032    
   2050000   301.66601      0.021145685    12.998703      748.44169     -34.771417      713.67027    
   2051000   289.73836      0.021145685    9.6592571      718.84885     -32.366321      686.48252    
   2052000   310.32472      0.021145685    12.363345      769.92418     -32.709721      737.21446    
   2053000   298.66443      0.021145685    11.58665       740.99468     -37.231289      703.76339    
   2054000   309.10441      0.021145685    9.2134898      766.89655     -35.298292      731.59826    
   2055000   304.83013      0.021145685    12.297239      756.29195     -34.425271      721.86668    
   2056000   292.80741      0.021145685    12.179658      726.46325     -35.289704      691.17354    
   2057000   295.92821      0.021145685    11.358217      734.20605     -35.242534      698.96352    
   2058000   320.13574      0.021145685    10.531936      794.26559     -36.988476      757.27712    
   2059000   305.8244       0.021145685    12.860912      758.75877     -39.540601      719.21817    
   2060000   300.39663      0.021145685    9.0631762      745.29232     -35.828518      709.46381    
   2061000   299.56938      0.021145685    10.667792      743.23989     -40.083651      703.15624    
   2062000   301.6977       0.021145685    11.552289      748.52031     -32.008669      716.51164    
   2063000   303.54181      0.021145685    10.712818      753.09559     -33.597644      719.49795    
   2064000   298.41004      0.021145685    11.823204      740.36354     -33.925109      706.43843    
   2065000   305.4723       0.021145685    7.0789313      757.8852      -36.069832      721.81536    
   2066000   296.822        0.021145685    11.406765      736.42357     -37.824637      698.59894    
   2067000   301.99365      0.021145685    14.861185      749.25457     -39.440038      709.81454    
   2068000   282.91203      0.021145685    9.1984723      701.91254     -35.995284      665.91726    
   2069000   296.05181      0.021145685    7.0672998      734.5127      -40.268899      694.2438     
   2070000   293.42417      0.021145685    9.1039111      727.99347     -41.290169      686.7033     
   2071000   302.46682      0.021145685    13.948733      750.42853     -42.167838      708.26069    
   2072000   308.02194      0.021145685    11.223042      764.21092     -41.659313      722.5516     
   2073000   294.91289      0.021145685    8.6835354      731.68701     -41.218507      690.46851    
   2074000   291.74805      0.021145685    12.650237      723.83495     -40.414705      683.42025    
   2075000   302.80719      0.021145685    19.861991      751.27298     -36.279721      714.99326    
   2076000   309.01171      0.021145685    6.7883319      766.66658     -33.44427       733.22231    
   2077000   293.25037      0.021145685    7.3925453      727.56225     -30.642161      696.92009    
   2078000   293.15011      0.021145685    22.812337      727.31352     -28.798307      698.51521    
   2079000   315.11686      0.021145685    17.842469      781.81362     -28.751381      753.06224    
   2080000   310.97989      0.021145685    14.143451      771.54969     -32.012283      739.5374     
   2081000   300.92223      0.021145685   -11.541432      746.59634     -36.763285      709.83306    
   2082000   303.86677      0.021145685    11.287973      753.90184     -36.244601      717.65724    
   2083000   309.62839      0.021145685    12.085482      768.19656     -37.984779      730.21178    
   2084000   299.71979      0.021145685    11.484369      743.61305     -35.853609      707.75944    
   2085000   292.45475      0.021145685   -3.4915341      725.58829     -37.984255      687.60404    
   2086000   296.49454      0.021145685    7.5150681      735.61112     -35.191936      700.41919    
   2087000   308.32758      0.021145685    30.249726      764.96922     -33.65572       731.3135     
   2088000   300.91559      0.021145685   -8.5815559      746.57987     -37.236348      709.34352    
   2089000   297.27323      0.021145685    4.5909706      737.54308     -43.147839      694.39524    
   2090000   302.9235       0.021145685    12.563511      751.56154     -37.394408      714.16713    
   2091000   306.39955      0.021145685    15.514259      760.18572     -39.405096      720.78062    
   2092000   303.91995      0.021145685   -0.65983106     754.03377     -37.271695      716.76207    
   2093000   290.25545      0.021145685    8.547352       720.13178     -38.36373       681.76805    
   2094000   309.1656       0.021145685    15.055035      767.04837     -41.35927       725.6891     
   2095000   304.31395      0.021145685    9.481422       755.01129     -42.43423       712.57706    
   2096000   287.86987      0.021145685    11.225465      714.21309     -36.61833       677.59476    
   2097000   306.14264      0.021145685    8.902444       759.54832     -43.272833      716.27549    
   2098000   295.90057      0.021145685    12.293856      734.13748     -42.892708      691.24477    
   2099000   295.94381      0.021145685    9.3386779      734.24475     -42.92759       691.31716    
   2100000   302.15644      0.021145685    10.547858      749.65847     -37.030493      712.62797    
   2101000   303.61105      0.021145685    11.495982      753.26739     -37.131335      716.13605    
   2102000   294.40389      0.021145685    11.706548      730.42416     -36.758733      693.66543    
   2103000   298.64054      0.021145685    10.354977      740.93542     -32.71242       708.223      
   2104000   306.01235      0.021145685    8.3954969      759.22507     -33.021705      726.20336    
   2105000   306.82475      0.021145685    11.43554       761.24066     -33.776847      727.46381    
   2106000   303.36736      0.021145685    12.795151      752.66278     -33.517933      719.14485    
   2107000   287.85345      0.021145685    12.31756       714.17234     -36.170147      678.0022     
   2108000   288.39246      0.021145685    11.329158      715.50965     -36.46449       679.04516    
   2109000   296.88487      0.021145685    9.318653       736.57956     -39.719097      696.86046    
   2110000   306.06132      0.021145685    9.5341756      759.34658     -40.789507      718.55707    
   2111000   304.46406      0.021145685    11.754242      755.38374     -41.357786      714.02595    
   2112000   299.62448      0.021145685    13.106676      743.37658     -38.773734      704.60285    
   2113000   290.11279      0.021145685    10.027935      719.77782     -44.537675      675.24015    
   2114000   285.96915      0.021145685    10.814294      709.49734     -38.632555      670.86479    
   2115000   313.52033      0.021145685    11.635485      777.85258     -39.946348      737.90623    
   2116000   310.4877       0.021145685    9.4789087      770.32855     -39.226508      731.10204    
   2117000   294.51474      0.021145685    9.9013678      730.69919     -34.041623      696.65757    
   2118000   296.71709      0.021145685    11.479235      736.16328     -33.359238      702.80404    
   2119000   312.18045      0.021145685    11.094136      774.52831     -35.898526      738.62978    
   2120000   295.26555      0.021145685    12.762296      732.56197     -40.822596      691.73938    
   2121000   308.30747      0.021145685    15.160046      764.91934     -39.954083      724.96526    
   2122000   303.5252       0.021145685    15.210699      753.05438     -39.536903      713.51747    
   2123000   292.65091      0.021145685    9.3264203      726.07497     -34.418219      691.65675    
   2124000   299.41367      0.021145685    3.4734131      742.85358     -35.870064      706.98351    
   2125000   307.24321      0.021145685    10.369331      762.27888     -37.268222      725.01066    
   2126000   303.2051       0.021145685    22.526495      752.2602      -32.875408      719.3848     
   2127000   290.69002      0.021145685    14.576248      721.20996     -32.562089      688.64787    
   2128000   298.47202      0.021145685   -0.20854408     740.51731     -31.49444       709.02287    
   2129000   305.50179      0.021145685    11.158906      757.95836     -32.442466      725.5159     
   2130000   298.44608      0.021145685    17.310037      740.45295     -28.476486      711.97647    
   2131000   299.85325      0.021145685    12.251916      743.94418     -30.657611      713.28657    
   2132000   305.39088      0.021145685    11.224316      757.68319     -32.477762      725.20543    
   2133000   287.78195      0.021145685    10.311552      713.99495     -29.343861      684.65109    
   2134000   315.44704      0.021145685    11.329913      782.6328      -31.23475       751.39805    
   2135000   314.79869      0.021145685    11.847173      781.02423     -26.172309      754.85192    
   2136000   296.39004      0.021145685    10.713097      735.35185     -29.121049      706.2308     
   2137000   290.4527       0.021145685    11.534219      720.62115     -29.89001       690.73113    
   2138000   301.07108      0.021145685    12.041329      746.96565     -31.59671       715.36894    
   2139000   302.66209      0.021145685    9.7318866      750.91299     -32.95859       717.9544     
   2140000   300.71411      0.021145685    10.438538      746.08001     -26.638009      719.442      
   2141000   301.57012      0.021145685    13.676951      748.20379     -30.123163      718.08062    
   2142000   296.76623      0.021145685    10.397625      736.28519     -32.406627      703.87857    
   2143000   283.49896      0.021145685    10.192275      703.36873     -33.28018       670.08855    
   2144000   304.34347      0.021145685    9.6360124      755.08455     -37.841237      717.24331    
   2145000   301.25279      0.021145685    9.1724871      747.41648     -37.992999      709.42349    
   2146000   300.62935      0.021145685    11.563513      745.86971     -37.818138      708.05157    
   2147000   291.71224      0.021145685    13.162819      723.7461      -39.066029      684.68007    
   2148000   302.04072      0.021145685    9.2609608      749.37136     -31.386211      717.98515    
   2149000   311.09206      0.021145685    10.329637      771.82797     -32.079088      739.74888    
   2150000   306.11951      0.021145685    8.6955282      759.49093     -35.139018      724.35191    
   2151000   307.54654      0.021145685    14.216407      763.03143     -31.081484      731.94995    
   2152000   289.89946      0.021145685    13.090239      719.24854     -40.781095      678.46745    
   2153000   292.55491      0.021145685    7.7775394      725.8368      -31.548335      694.28847    
   2154000   302.07824      0.021145685    9.5865592      749.46445     -31.144634      718.31982    
   2155000   297.47102      0.021145685    18.273256      738.03379     -31.403132      706.63066    
   2156000   296.01036      0.021145685    10.245445      734.40986     -30.663739      703.74612    
   2157000   308.48892      0.021145685    11.586656      765.36951     -28.561162      736.80835    
   2158000   294.85263      0.021145685    11.681921      731.5375      -27.336554      704.20095    
   2159000   294.71508      0.021145685    10.615387      731.19623     -27.723284      703.47295    
   2160000   296.77175      0.021145685    16.380924      736.2989      -29.173332      707.12557    
   2161000   293.56482      0.021145685    13.785121      728.34241     -30.431106      697.91131    
   2162000   296.6204       0.021145685    10.999878      735.92338     -33.114237      702.80914    
   2163000   311.87211      0.021145685    4.6153451      773.7633      -32.363042      741.40026    
   2164000   296.1632       0.021145685    6.9303389      734.78905     -32.99157       701.79748    
   2165000   296.52167      0.021145685    16.633108      735.67843     -27.628919      708.04951    
   2166000   303.90535      0.021145685    13.271731      753.99756     -29.022865      724.97469    
   2167000   303.70114      0.021145685   -2.6487331      753.4909      -31.660217      721.83068    
   2168000   290.20209      0.021145685    10.285577      719.99937     -30.567075      689.4323     
   2169000   297.98163      0.021145685    14.265757      739.30065     -23.830158      715.47049    
   2170000   315.1744       0.021145685    12.365628      781.95637     -27.335336      754.62103    
   2171000   284.49216      0.021145685    6.6878753      705.83288     -27.680365      678.15252    
   2172000   285.00597      0.021145685    21.681272      707.10767     -31.076311      676.03136    
   2173000   307.15018      0.021145685    13.727618      762.04806     -30.411181      731.63688    
   2174000   302.7658       0.021145685    11.595721      751.17029     -29.670897      721.4994     
   2175000   297.53742      0.021145685    11.920557      738.19853     -31.544056      706.65448    
   2176000   291.48103      0.021145685    10.767103      723.17247     -26.814947      696.35752    
   2177000   307.95003      0.021145685    10.762533      764.0325      -33.961321      730.07118    
   2178000   302.02985      0.021145685    11.202052      749.34438     -29.812774      719.53161    
   2179000   301.50693      0.021145685    12.480182      748.04701     -32.555513      715.49149    
   2180000   290.77496      0.021145685    9.9067792      721.4207      -37.501164      683.91954    
   2181000   297.26943      0.021145685    11.777135      737.53366     -36.686547      700.84711    
   2182000   304.63757      0.021145685    14.513055      755.81422     -33.617501      722.19671    
   2183000   309.31691      0.021145685    12.450579      767.42378     -31.194517      736.22927    
   2184000   291.07997      0.021145685    7.6076467      722.17744     -33.547521      688.62992    
   2185000   292.62074      0.021145685    11.727166      726.00013     -35.33708       690.66305    
   2186000   308.1233       0.021145685    12.900751      764.46239     -39.36143       725.10096    
   2187000   307.9889       0.021145685    10.847222      764.12894     -41.18754       722.9414     
   2188000   289.08723      0.021145685    9.1069893      717.23339     -39.227836      678.00555    
   2189000   303.69696      0.021145685    13.676444      753.48052     -35.59375       717.88677    
   2190000   319.31868      0.021145685    8.3650668      792.23844     -41.868841      750.3696     
   2191000   294.10422      0.021145685    12.679782      729.68067     -37.568142      692.11253    
   2192000   299.95586      0.021145685    10.261332      744.19877     -33.772407      710.42636    
   2193000   308.4514       0.021145685    10.495698      765.27644     -34.810718      730.46572    
   2194000   306.20044      0.021145685    11.158556      759.69173     -33.251825      726.43991    
   2195000   290.9816       0.021145685    10.559909      721.93338     -29.305798      692.62758    
   2196000   303.98118      0.021145685    12.310327      754.18568     -32.847611      721.33807    
   2197000   317.58459      0.021145685    11.684962      787.93612     -33.178346      754.75777    
   2198000   299.72445      0.021145685    8.5181364      743.62463     -27.450302      716.17433    
   2199000   290.56043      0.021145685    10.438898      720.88844     -23.865656      697.02278    
   2200000   309.83237      0.021145685    11.20228       768.70265     -26.969621      741.73303    
   2201000   302.4173       0.021145685    11.883639      750.30567     -30.65442       719.65125    
   2202000   280.06607      0.021145685    12.773299      694.85164     -28.230054      666.62159    
   2203000   288.87564      0.021145685    10.687569      716.70842     -27.326521      689.3819     
   2204000   293.58622      0.021145685    6.2307199      728.39551     -28.348125      700.04738    
   2205000   310.18764      0.021145685    6.3648768      769.58409     -28.375708      741.20839    
   2206000   298.82179      0.021145685    15.167966      741.38511     -26.81051       714.5746     
   2207000   305.97686      0.021145685    12.978742      759.13701     -35.42696       723.71005    
   2208000   299.77626      0.021145685    12.502174      743.75317     -30.07373       713.67944    
   2209000   302.46823      0.021145685    5.1672679      750.43201     -29.555986      720.87603    
   2210000   304.58459      0.021145685    13.58781       755.68277     -26.71281       728.96996    
   2211000   290.38033      0.021145685    9.6573393      720.4416      -31.600713      688.84089    
   2212000   305.32524      0.021145685    12.045234      757.52034     -34.793179      722.72716    
   2213000   308.74541      0.021145685    12.630713      766.00587     -31.432768      734.5731     
   2214000   290.23762      0.021145685    10.923931      720.08753     -31.668884      688.41865    
   2215000   290.84138      0.021145685    13.152648      721.58549     -27.605483      693.98001    
   2216000   307.10513      0.021145685    12.665561      761.93628     -29.219918      732.71636    
   2217000   296.42908      0.021145685    10.590437      735.44873     -31.374282      704.07445    
   2218000   298.49469      0.021145685    7.2722788      740.57356     -29.61282       710.96074    
   2219000   297.67715      0.021145685    17.479565      738.54522     -32.053932      706.49129    
   2220000   314.14736      0.021145685    13.690195      779.40826     -36.548071      742.86019    
   2221000   296.28606      0.021145685    8.1576997      735.09389     -34.302798      700.79109    
   2222000   295.25051      0.021145685    12.966645      732.52465     -34.625763      697.89889    
   2223000   299.00361      0.021145685    13.064488      741.83621     -35.098252      706.73795    
   2224000   305.96237      0.021145685    11.083481      759.10106     -34.491634      724.60943    
   2225000   312.6453       0.021145685    9.4353371      775.6816      -35.666622      740.01498    
   2226000   298.0906       0.021145685    10.867158      739.571       -33.871298      705.6997     
   2227000   302.02423      0.021145685    10.658917      749.33045     -33.678412      715.65204    
   2228000   293.41401      0.021145685    6.8863077      727.96826     -35.071669      692.89659    
   2229000   305.15821      0.021145685    18.763424      757.10594     -36.205618      720.90032    
   2230000   304.5957       0.021145685    14.666684      755.71033     -36.444044      719.26628    
   2231000   282.50172      0.021145685    8.5854097      700.89457     -39.852183      661.04238    
   2232000   284.11912      0.021145685    15.822204      704.90738     -34.034863      670.87252    
   2233000   295.26784      0.021145685    13.50349       732.56765     -36.999733      695.56792    
   2234000   299.25511      0.021145685    6.4016464      742.46019     -30.435441      712.02475    
   2235000   301.36865      0.021145685    11.007152      747.70393     -31.516012      716.18792    
   2236000   301.05147      0.021145685    14.046417      746.917       -29.574283      717.34271    
   2237000   302.7155       0.021145685    1.9307808      751.04549     -30.029073      721.01642    
   2238000   302.72681      0.021145685    8.6125321      751.07356     -33.573369      717.50019    
   2239000   302.18479      0.021145685    20.203702      749.72879     -35.596688      714.1321     
   2240000   321.48912      0.021145685    11.639919      797.62337     -36.74228       760.88109    
   2241000   301.93222      0.021145685    9.326945       749.10215     -38.607899      710.49425    
   2242000   295.25967      0.021145685    11.090359      732.54738     -39.875306      692.67208    
   2243000   291.85288      0.021145685    17.849726      724.09504     -39.364995      684.73004    
   2244000   295.74741      0.021145685    26.018295      733.75748     -39.027968      694.72952    
   2245000   313.65716      0.021145685    18.739379      778.19205     -34.520987      743.67106    
   2246000   303.36575      0.021145685    6.5178375      752.65878     -29.972631      722.68615    
   2247000   295.17506      0.021145685    1.0538354      732.33747     -29.852911      702.48455    
   2248000   286.55938      0.021145685    7.1579885      710.96173     -31.56179       679.39994    
   2249000   303.17468      0.021145685    23.201813      752.18473     -29.796249      722.38848    
   2250000   306.95874      0.021145685    24.024547      761.57309     -30.2588        731.31429    
   2251000   298.16406      0.021145685    3.6824459      739.75324     -30.072868      709.68037    
   2252000   280.83241      0.021145685    16.191416      696.75296     -30.762236      665.99072    
   2253000   301.27411      0.021145685    9.9155027      747.46938     -35.154622      712.31476    
   2254000   300.13829      0.021145685    12.541198      744.65137     -34.703088      709.94828    
   2255000   302.80821      0.021145685    7.1607717      751.27552     -33.030745      718.24477    
   2256000   295.16001      0.021145685    3.9939768      732.30012     -31.518797      700.78132    
   2257000   300.63628      0.021145685    12.193697      745.88689     -34.105668      711.78122    
   2258000   300.41693      0.021145685    17.228471      745.34268     -36.78925       708.55343    
   2259000   306.46162      0.021145685    12.339996      760.33974     -31.385958      728.95378    
   2260000   313.20819      0.021145685    7.8098856      777.07814     -30.434422      746.64372    
   2261000   295.39428      0.021145685    10.708488      732.88134     -29.469548      703.4118     
   2262000   296.42104      0.021145685    11.394244      735.42878     -30.454669      704.97411    
   2263000   307.13125      0.021145685    12.118503      762.00109     -29.666369      732.33472    
   2264000   312.0852       0.021145685    8.7951563      774.292       -30.531866      743.76013    
   2265000   286.52197      0.021145685    10.128226      710.8689      -32.726348      678.14255    
   2266000   301.4648       0.021145685    11.374605      747.94247     -29.833819      718.10865    
   2267000   298.38345      0.021145685    10.096394      740.29755     -37.910979      702.38658    
   2268000   306.65698      0.021145685    9.9163383      760.82443     -35.356673      725.46776    
   2269000   300.20861      0.021145685    10.925021      744.82583     -40.113182      704.71265    
   2270000   287.85573      0.021145685    11.365423      714.178       -40.812618      673.36538    
   2271000   299.93623      0.021145685    7.4295183      744.15005     -37.350216      706.79983    
   2272000   307.84289      0.021145685    13.563431      763.76669     -37.253522      726.51317    
   2273000   278.92048      0.021145685    11.718296      692.00939     -33.542048      658.46734    
   2274000   286.2865       0.021145685    7.5793535      710.2847      -34.967866      675.31683    
   2275000   308.39639      0.021145685    9.8692864      765.13995     -31.112742      734.02721    
   2276000   310.54722      0.021145685    14.35402       770.47622     -38.554271      731.92195    
   2277000   290.77097      0.021145685    12.853083      721.41078     -34.698578      686.7122     
   2278000   305.30478      0.021145685    8.8066134      757.46958     -37.585839      719.88374    
   2279000   300.2344       0.021145685    13.770805      744.88981     -35.579974      709.30984    
   2280000   283.7763       0.021145685    10.561211      704.05683     -34.86675       669.19008    
   2281000   302.41991      0.021145685    8.6972068      750.31214     -39.78093       710.53121    
   2282000   307.39328      0.021145685    11.901968      762.65121     -35.911369      726.73984    
   2283000   307.72408      0.021145685    11.156924      763.47193     -36.03515       727.43678    
   2284000   295.84591      0.021145685    11.695011      734.00186     -34.84814       699.15372    
   2285000   300.21202      0.021145685    10.782949      744.8343      -35.249004      709.58529    
   2286000   302.23271      0.021145685    10.660406      749.84769     -37.198413      712.64928    
   2287000   308.41382      0.021145685    9.2464611      765.1832      -37.110698      728.0725     
   2288000   294.43721      0.021145685    19.927831      730.50683     -42.29615       688.21068    
   2289000   285.15713      0.021145685    13.797268      707.48271     -40.707355      666.77535    
   2290000   302.40936      0.021145685    5.9462371      750.28596     -42.726891      707.55907    
   2291000   304.92611      0.021145685    11.646486      756.53008     -42.852659      713.67742    
   2292000   294.60087      0.021145685    11.632029      730.91287     -39.696264      691.21661    
   2293000   302.23976      0.021145685    9.907402       749.86518     -40.987283      708.8779     
   2294000   314.13707      0.021145685    17.090485      779.38274     -43.12788       736.25486    
   2295000   298.90092      0.021145685    14.050206      741.58143     -37.426693      704.15474    
   2296000   313.74457      0.021145685    17.622186      778.40893     -35.178004      743.23093    
   2297000   294.12142      0.021145685    12.425963      729.72334     -36.368583      693.35476    
   2298000   296.85027      0.021145685    8.4626114      736.4937      -38.247383      698.24632    
   2299000   301.36289      0.021145685    12.197586      747.68964     -36.556467      711.13317    
   2300000   289.34028      0.021145685    9.7453254      717.86121     -39.721886      678.13932    
   2301000   306.58599      0.021145685    11.766847      760.6483      -39.665578      720.98272    
   2302000   312.54108      0.021145685    11.93953       775.42304     -36.314232      739.1088     
   2303000   298.45988      0.021145685    10.058629      740.4872      -35.013062      705.47414    
   2304000   292.49771      0.021145685    10.971591      725.69488     -39.207297      686.48758    
   2305000   295.29126      0.021145685    9.8184883      732.62575     -40.802279      691.82348    
   2306000   312.48376      0.021145685    11.004593      775.28082     -40.040418      735.2404     
   2307000   304.01891      0.021145685    11.606707      754.2793      -36.216553      718.06275    
   2308000   301.57658      0.021145685    15.415326      748.2198      -38.537856      709.68194    
   2309000   298.96695      0.021145685    11.700919      741.74524     -38.457621      703.28762    
   2310000   286.07703      0.021145685    10.017498      709.765       -37.745936      672.01907    
   2311000   307.64313      0.021145685    12.779289      763.27108     -37.605233      725.66585    
   2312000   311.10165      0.021145685    12.854136      771.85177     -34.91794       736.93383    
   2313000   299.56277      0.021145685    7.1391931      743.22349     -35.840865      707.38263    
   2314000   296.50008      0.021145685    9.4993371      735.62487     -38.60153       697.02334    
   2315000   305.46849      0.021145685    15.729007      757.87573     -30.640957      727.23477    
   2316000   302.79797      0.021145685   -0.77839926     751.25011     -37.320785      713.92933    
   2317000   295.50696      0.021145685    10.671296      733.16092     -32.730171      700.43075    
   2318000   307.64893      0.021145685    14.158651      763.28548     -36.233787      727.05169    
   2319000   304.9871       0.021145685    7.9717318      756.6814      -37.702759      718.97864    
   2320000   295.94035      0.021145685    6.0575826      734.23617     -39.608501      694.62767    
   2321000   298.67333      0.021145685    28.000592      741.01676     -38.460715      702.55605    
   2322000   314.2488       0.021145685    9.0466492      779.65995     -38.858325      740.80162    
   2323000   292.08248      0.021145685    10.167058      724.66469     -42.91446       681.75023    
   2324000   281.05566      0.021145685    11.891         697.30685     -36.954256      660.35259    
   2325000   308.55042      0.021145685    12.831449      765.52209     -39.135543      726.38655    
   2326000   307.89978      0.021145685    11.460042      763.90785     -40.088381      723.81947    
   2327000   295.71097      0.021145685    12.384279      733.66706     -37.360894      696.30617    
   2328000   296.63797      0.021145685    10.568876      735.96699     -35.245274      700.72171    
   2329000   303.15082      0.021145685    12.10804       752.12553     -32.817706      719.30782    
   2330000   300.75708      0.021145685    13.287563      746.1866      -34.452157      711.73444    
   2331000   314.93219      0.021145685    8.9405004      781.35545     -33.984815      747.37064    
   2332000   315.01053      0.021145685    11.327984      781.5498      -31.336232      750.21357    
   2333000   296.04579      0.021145685    15.693484      734.49777     -30.398549      704.09922    
   2334000   302.07291      0.021145685    16.351845      749.45121     -30.37048       719.08073    
   2335000   309.18899      0.021145685    4.7995996      767.1064      -32.996994      734.1094     
   2336000   295.75039      0.021145685    11.860231      733.76488     -36.746636      697.01824    
   2337000   299.98706      0.021145685    12.505092      744.27617     -38.11786       706.15831    
   2338000   315.6858       0.021145685    10.96086       783.22518     -35.761737      747.46344    
   2339000   295.859        0.021145685    10.184718      734.03433     -36.992951      697.04138    
   2340000   294.72983      0.021145685    15.49051       731.23284     -34.106745      697.12609    
   2341000   289.2873       0.021145685    21.301444      717.72977     -38.03967       679.6901     
   2342000   317.79788      0.021145685    15.63363       788.46529     -33.078577      755.38671    
   2343000   302.74642      0.021145685    6.3351028      751.12221     -38.537389      712.58482    
   2344000   290.53973      0.021145685    6.2837088      720.83708     -38.527078      682.31001    
   2345000   297.43595      0.021145685    12.465789      737.94679     -36.26061       701.68618    
   2346000   300.56425      0.021145685    15.305139      745.70819     -33.000821      712.70737    
   2347000   307.2619       0.021145685    9.7474567      762.32524     -37.495772      724.82947    
   2348000   310.98896      0.021145685    10.679768      771.57218     -32.009173      739.563      
   2349000   293.81844      0.021145685    8.7294769      728.97166     -32.808726      696.16293    
   2350000   297.90816      0.021145685    11.249754      739.11836     -35.668615      703.44975    
   2351000   303.16041      0.021145685    13.922978      752.14933     -32.576839      719.57249    
   2352000   295.34006      0.021145685    12.177445      732.74684     -29.704604      703.04223    
   2353000   298.98562      0.021145685    5.5464476      741.79156     -31.503533      710.28803    
   2354000   308.56115      0.021145685    13.991518      765.54873     -31.319787      734.22894    
   2355000   302.83164      0.021145685    18.992836      751.33365     -33.379827      717.95382    
   2356000   301.23106      0.021145685    10.970984      747.36257     -31.649149      715.71342    
   2357000   300.07333      0.021145685    5.6718392      744.49021     -33.156857      711.33335    
   2358000   306.59852      0.021145685    12.424172      760.67937     -28.889999      731.78937    
   2359000   300.22524      0.021145685    17.706794      744.86709     -36.882173      707.98491    
   2360000   299.62648      0.021145685    3.292017       743.38155     -35.912852      707.46869    
   2361000   300.29481      0.021145685    11.249309      745.0397      -36.634162      708.40554    
   2362000   297.84817      0.021145685    17.893255      738.96951     -33.748738      705.22077    
   2363000   279.03484      0.021145685    10.924608      692.29314     -31.454284      660.83885    
   2364000   306.90576      0.021145685    4.4108293      761.44164     -30.728699      730.71294    
   2365000   306.2548       0.021145685    16.9095        759.82659     -31.451544      728.37505    
   2366000   294.27367      0.021145685    12.145939      730.10108     -29.520246      700.58083    
   2367000   290.04268      0.021145685    4.4616651      719.60389     -35.626678      683.97722    
   2368000   310.41695      0.021145685    6.4646218      770.15301     -29.899125      740.25389    
   2369000   306.59755      0.021145685    12.346979      760.67697     -35.894147      724.78282    
   2370000   295.22706      0.021145685    13.236566      732.46648     -37.825986      694.6405     
   2371000   306.56539      0.021145685    10.286659      760.59719     -44.094285      716.5029     
   2372000   299.00065      0.021145685    10.753131      741.82886     -41.687308      700.14155    
   2373000   292.9801       0.021145685    10.380598      726.89171     -38.302056      688.58965    
   2374000   298.77473      0.021145685    13.508754      741.26835     -37.808167      703.46018    
   2375000   299.66721      0.021145685    12.518099      743.48262     -36.512157      706.97046    
   2376000   280.61534      0.021145685    13.230402      696.21439     -39.861284      656.35311    
   2377000   292.47244      0.021145685    8.5624913      725.63218     -36.944676      688.6875     
   2378000   304.45334      0.021145685    9.4719307      755.35713     -36.854064      718.50307    
   2379000   300.76489      0.021145685    12.608245      746.20599     -37.390552      708.81544    
   2380000   294.48517      0.021145685    6.2854059      730.62582     -36.925741      693.70008    
   2381000   303.52608      0.021145685    11.813081      753.05658     -35.74584       717.31074    
   2382000   297.32398      0.021145685    7.1918644      737.66899     -35.477951      702.19104    
   2383000   302.24052      0.021145685    11.772273      749.86707     -36.5239        713.34317    
   2384000   302.54488      0.021145685    11.586942      750.62217     -39.441969      711.18021    
   2385000   295.02611      0.021145685    10.700944      731.9679      -39.272133      692.69577    
   2386000   289.68151      0.021145685    10.429604      718.7078      -37.292991      681.41481    
   2387000   307.89048      0.021145685    11.19882       763.88477     -36.844209      727.04056    
   2388000   290.75716      0.021145685    11.888054      721.37652     -36.344745      685.03178    
   2389000   315.75062      0.021145685    13.45098       783.38599     -39.036631      744.34935    
   2390000   296.33483      0.021145685    11.270788      735.21489     -40.865818      694.34907    
   2391000   299.76836      0.021145685    12.532732      743.73355     -36.993611      706.73994    
   2392000   295.14103      0.021145685    10.457215      732.25302     -33.37666       698.87636    
   2393000   299.11428      0.021145685    10.5927        742.11077     -37.615504      704.49527    
   2394000   298.23813      0.021145685    11.439857      739.93703     -31.112067      708.82496    
   2395000   298.44758      0.021145685    9.590657       740.45668     -37.892232      702.56445    
   2396000   302.2411       0.021145685    15.054342      749.86851     -37.097506      712.771      
   2397000   296.25117      0.021145685    9.4549489      735.00732     -43.106277      691.90104    
   2398000   299.10822      0.021145685    11.511022      742.09573     -37.442518      704.65321    
   2399000   294.44734      0.021145685    11.190406      730.53197     -36.543803      693.98817    
   2400000   296.94856      0.021145685    3.4895796      736.73758     -32.023495      704.71408    
   2401000   295.41551      0.021145685    9.0738398      732.93403     -32.737177      700.19685    
   2402000   304.01891      0.021145685    12.248673      754.2793      -35.575473      718.70382    
   2403000   307.61069      0.021145685    11.859585      763.1906      -38.615007      724.57559    
   2404000   298.42365      0.021145685    12.063589      740.3973      -36.210232      704.18706    
   2405000   301.74833      0.021145685    11.843871      748.64593     -34.085408      714.56052    
   2406000   305.54902      0.021145685    11.556186      758.07554     -41.798538      716.277      
   2407000   305.71827      0.021145685    12.384056      758.49546     -34.52434       723.97112    
   2408000   300.25621      0.021145685    10.507582      744.94392     -40.104583      704.83934    
   2409000   300.4864       0.021145685    11.933197      745.51503     -38.857377      706.65766    
   2410000   301.53255      0.021145685    16.309373      748.11057     -35.078982      713.03159    
   2411000   317.40537      0.021145685    7.7107404      787.49146     -35.866189      751.62527    
   2412000   294.91697      0.021145685    9.4923564      731.69713     -35.196493      696.50063    
   2413000   301.87052      0.021145685    16.273422      748.94908     -35.299543      713.64954    
   2414000   304.24562      0.021145685    4.8139955      754.84177     -39.080683      715.76109    
   2415000   292.48386      0.021145685    10.612975      725.66052     -40.676616      684.9839     
   2416000   298.17773      0.021145685    12.008661      739.78717     -38.432218      701.35495    
   2417000   316.04104      0.021145685    13.841955      784.10652     -39.159146      744.94738    
   2418000   298.15263      0.021145685    10.311409      739.7249      -37.811649      701.91325    
   2419000   308.77217      0.021145685    10.588051      766.07226     -35.16921       730.90305    
   2420000   302.23865      0.021145685    12.392079      749.86243     -35.628363      714.23406    
   2421000   302.36164      0.021145685    11.09114       750.16755     -34.880915      715.28664    
   2422000   301.43361      0.021145685    11.258293      747.86509     -33.539059      714.32603    
   2423000   301.65464      0.021145685    12.811857      748.41348     -30.648876      717.76461    
   2424000   303.07818      0.021145685    12.893052      751.94533     -29.607217      722.33811    
   2425000   286.88785      0.021145685    11.039233      711.77667     -31.326267      680.4504     
   2426000   310.35861      0.021145685    8.130198       770.00828     -34.200044      735.80823    
   2427000   303.7831       0.021145685    17.651263      753.69425     -34.883155      718.81109    
   2428000   289.00461      0.021145685    12.874198      717.0284      -39.917408      677.11099    
   2429000   309.14202      0.021145685    0.5634887      766.98986     -40.481598      726.50827    
   2430000   299.33548      0.021145685    13.380415      742.65957     -39.585174      703.0744     
   2431000   278.61812      0.021145685    18.782593      691.25922     -38.459289      652.79993    
   2432000   304.18543      0.021145685    4.8881246      754.69243     -38.263742      716.42869    
   2433000   312.23007      0.021145685    18.012947      774.65141     -43.089917      731.56149    
   2434000   303.20316      0.021145685    16.390328      752.25541     -41.425954      710.82946    
   2435000   292.1881       0.021145685    7.0020878      724.92673     -37.370274      687.55646    
   2436000   317.94475      0.021145685    13.174139      788.8297      -38.021451      750.80825    
   2437000   310.97596      0.021145685    24.371042      771.53993     -35.239418      736.30051    
   2438000   294.59432      0.021145685    14.039166      730.89663     -36.236135      694.6605     
   2439000   291.59032      0.021145685   -0.68328556     723.44362     -34.824613      688.619      
   2440000   318.5035       0.021145685   -13.419941      790.21597     -41.268315      748.94766    
   2441000   301.03177      0.021145685    17.965703      746.86811     -39.555731      707.31238    
   2442000   286.91873      0.021145685    12.684464      711.85328     -43.614402      668.23888    
   2443000   293.18411      0.021145685    7.5348418      727.39785     -43.049817      684.34803    
   2444000   315.9947       0.021145685    9.9443241      783.99156     -41.172453      742.8191     
   2445000   297.17618      0.021145685    11.036707      737.30229     -40.057661      697.24463    
   2446000   300.88538      0.021145685    11.879707      746.50493     -41.663836      704.8411     
   2447000   301.30485      0.021145685    12.282827      747.54564     -43.225566      704.32007    
   2448000   291.37252      0.021145685    10.888532      722.90325     -44.644572      678.25868    
   2449000   294.13252      0.021145685    10.013488      729.7509      -46.214195      683.53671    
   2450000   307.05139      0.021145685    10.557678      761.80296     -40.443456      721.3595     
   2451000   296.28343      0.021145685    9.9240843      735.08735     -37.041169      698.04618    
   2452000   298.46836      0.021145685    16.607374      740.50823     -33.654441      706.85379    
   2453000   313.75347      0.021145685    20.478299      778.43102     -41.161561      737.26946    
   2454000   298.06254      0.021145685    8.9062934      739.50137     -36.448572      703.0528     
   2455000   285.52554      0.021145685    9.6614214      708.39674     -37.706556      670.69018    
   2456000   305.79515      0.021145685    12.723022      758.68621     -38.921256      719.76495    
   2457000   302.50058      0.021145685    11.100994      750.51228     -40.134379      710.3779     
   2458000   304.82507      0.021145685    5.5972193      756.27939     -41.621447      714.65795    
   2459000   301.79046      0.021145685    10.730209      748.75046     -37.965331      710.78513    
   2460000   305.91008      0.021145685    14.407692      758.97134     -38.635762      720.33557    
   2461000   292.86664      0.021145685    11.820125      726.61021     -42.6026        684.00761    
   2462000   303.01462      0.021145685    9.9751473      751.78764     -38.842684      712.94495    
   2463000   286.65484      0.021145685    8.0881682      711.19856     -34.184116      677.01444    
   2464000   301.4593       0.021145685    14.791093      747.92883     -35.872055      712.05677    
   2465000   301.20176      0.021145685    8.3771651      747.28986     -38.534112      708.75575    
   2466000   293.99609      0.021145685    10.362731      729.41241     -39.794063      689.61835    
   2467000   308.18108      0.021145685    13.766979      764.60576     -42.45056       722.1552     
   2468000   302.27519      0.021145685    12.675962      749.95309     -41.02402       708.92907    
   2469000   316.79239      0.021145685    4.1821473      785.97065     -35.191876      750.77877    
   2470000   305.27431      0.021145685    8.459693       757.39397     -28.731774      728.66219    
   2471000   292.03799      0.021145685    13.591211      724.55431     -30.654181      693.90013    
   2472000   299.26946      0.021145685    13.014696      742.49577     -30.441416      712.05436    
   2473000   301.21587      0.021145685    10.230206      747.32488     -35.9971        711.32778    
   2474000   303.93078      0.021145685    10.306671      754.06064     -41.16444       712.8962     
   2475000   293.72073      0.021145685    11.854813      728.72923     -40.454439      688.27479    
   2476000   298.39827      0.021145685    12.888718      740.33434     -39.289806      701.04453    
   2477000   304.40085      0.021145685    9.1993192      755.2269      -41.955433      713.27146    
   2478000   279.45728      0.021145685    16.585102      693.34121     -39.58806       653.75315    
   2479000   287.24236      0.021145685    33.612516      712.65622     -41.978024      670.6782     
   2480000   310.3711       0.021145685    19.496227      770.03926     -48.634214      721.40504    
   2481000   310.50757      0.021145685    6.5182869      770.37784     -45.099833      725.27801    
   2482000   291.70827      0.021145685    3.0624972      723.73625     -39.70057       684.03568    
   2483000   289.42224      0.021145685    17.271444      718.06456     -40.703352      677.36121    
   2484000   295.27545      0.021145685    14.329678      732.58654     -39.481097      693.10544    
   2485000   306.21457      0.021145685    13.976353      759.72679     -41.00802       718.71877    
   2486000   309.66837      0.021145685    5.19512        768.29577     -37.929891      730.36588    
   2487000   284.58732      0.021145685   -12.985461      706.06899     -45.315173      660.75382    
   2488000   290.65062      0.021145685    16.133006      721.1122      -40.337714      680.77449    
   2489000   292.76471      0.021145685    17.270057      726.35731     -40.42202       685.93529    
   2490000   299.95687      0.021145685    20.04575       744.20125     -39.706235      704.49502    
   2491000   298.85612      0.021145685    21.408062      741.47027     -39.758628      701.71165    
   2492000   295.6058       0.021145685    1.0652752      733.40614     -37.656382      695.74976    
   2493000   297.45288      0.021145685    13.266592      737.9888      -41.244096      696.7447     
   2494000   295.38119      0.021145685    22.889654      732.84889     -44.97075       687.87814    
   2495000   305.88153      0.021145685    7.2559685      758.90052     -46.532052      712.36847    
   2496000   312.67817      0.021145685   -3.7515554      775.76317     -40.112761      735.65041    
   2497000   304.32105      0.021145685    11.574841      755.02891     -39.705471      715.32344    
   2498000   308.89707      0.021145685    17.565933      766.38213     -39.856129      726.526      
   2499000   296.79835      0.021145685    10.6324        736.36489     -39.210481      697.15441    
   2500000   304.05557      0.021145685    3.318742       754.37026     -42.126065      712.24419    
   2501000   298.3078       0.021145685    12.246285      740.10988     -38.071573      702.03831    
   2502000   300.61731      0.021145685    16.423146      745.83984     -38.370751      707.46909    
   2503000   314.98764      0.021145685   -1.624218       781.49301     -36.802867      744.69015    
   2504000   296.0435       0.021145685    4.2466071      734.49209     -36.783526      697.70857    
   2505000   297.86123      0.021145685    14.824011      739.00192     -33.811847      705.19008    
   2506000   303.54372      0.021145685    21.316611      753.10033     -35.902417      717.19791    
   2507000   312.85194      0.021145685    9.7234995      776.19428     -36.341791      739.85249    
   2508000   297.95691      0.021145685    8.625694       739.2393      -33.393381      705.84592    
   2509000   277.23486      0.021145685    7.101947       687.82734     -37.683671      650.14367    
   2510000   308.97086      0.021145685    17.016146      766.56521     -37.899856      728.66536    
   2511000   310.53863      0.021145685    8.7678539      770.45491     -37.82626       732.62865    
   2512000   294.63285      0.021145685    6.7811826      730.99223     -41.855071      689.13716    
   2513000   294.53667      0.021145685    27.841764      730.75359     -41.410566      689.34302    
   2514000   314.32357      0.021145685    11.552874      779.84544     -42.686312      737.15912    
   2515000   306.124        0.021145685    12.064718      759.50208     -40.88493       718.61715    
   2516000   287.86536      0.021145685    11.005923      714.20188     -41.753921      672.44796    
   2517000   302.51836      0.021145685    11.199379      750.5564      -38.587326      711.96907    
   2518000   307.62862      0.021145685    14.550789      763.23507     -36.802554      726.43252    
   2519000   292.92213      0.021145685    12.574353      726.74788     -32.400013      694.34787    
   2520000   305.95468      0.021145685    7.147022       759.08198     -35.699286      723.3827     
   2521000   300.46555      0.021145685    2.069387       745.46332     -35.422446      710.04088    
   2522000   311.21357      0.021145685    17.013859      772.12945     -31.209798      740.91965    
   2523000   298.22899      0.021145685    19.120519      739.91434     -31.324404      708.58994    
   2524000   309.80525      0.021145685    5.8199217      768.63537     -35.24909       733.38628    
   2525000   294.69281      0.021145685    11.324536      731.14099     -31.573056      699.56793    
   2526000   288.45274      0.021145685    9.5597128      715.65919     -33.941731      681.71746    
   2527000   315.11341      0.021145685    23.330372      781.80505     -43.123949      738.6811     
   2528000   295.53569      0.021145685    7.7458642      733.2322      -37.687293      695.54491    
   2529000   301.1352       0.021145685    9.5640051      747.12474     -39.771546      707.35319    
   2530000   301.56         0.021145685    12.554995      748.17868     -39.687722      708.49096    
   2531000   308.69931      0.021145685    15.322315      765.89151     -39.156959      726.73455    
   2532000   305.44154      0.021145685    16.972377      757.80887     -39.080607      718.72826    
   2533000   285.80523      0.021145685    8.5711163      709.09066     -40.698279      668.39238    
   2534000   296.28448      0.021145685    7.5861142      735.08997     -40.740635      694.34933    
   2535000   309.27204      0.021145685    7.9570416      767.31245     -34.504567      732.80788    
   2536000   303.60005      0.021145685    9.5876323      753.2401      -37.501702      715.7384     
   2537000   297.18858      0.021145685    8.988707       737.33305     -34.780693      702.55236    
   2538000   302.35979      0.021145685    20.883533      750.16297     -33.053473      717.10949    
   2539000   297.51336      0.021145685    8.6039017      738.13885     -27.578544      710.56031    
   2540000   303.00914      0.021145685   -12.507905      751.77403     -28.4977        723.27633    
   2541000   309.28989      0.021145685    12.728563      767.35675     -35.42107       731.93568    
   2542000   303.18181      0.021145685    29.684627      752.20242     -38.708989      713.49343    
   2543000   294.47323      0.021145685    10.298217      730.59621     -36.207061      694.38915    
   2544000   310.95292      0.021145685    6.5180009      771.48276     -35.263604      736.21916    
   2545000   319.40725      0.021145685    11.699119      792.45818     -39.033824      753.42436    
   2546000   301.8998       0.021145685    19.295826      749.02174     -37.631592      711.39014    
   2547000   293.8765       0.021145685    18.452322      729.11569     -38.840992      690.2747     
   2548000   283.77535      0.021145685    13.885276      704.05446     -39.383793      664.67066    
   2549000   294.9868       0.021145685    2.584038       731.87039     -39.303261      692.56713    
   2550000   307.08414      0.021145685   -23.807407      761.88421     -41.054714      720.8295     
   2551000   301.33552      0.021145685    17.479225      747.62173     -38.676271      708.94546    
   2552000   283.63362      0.021145685    4.552157       703.70283     -41.554697      662.14813    
   2553000   299.25335      0.021145685   -4.2785009      742.45582     -43.350036      699.10579    
   2554000   303.82501      0.021145685   -2.9745616      753.79822     -41.772403      712.02582    
   2555000   315.97003      0.021145685    4.6071619      783.93036     -40.539731      743.39063    
   2556000   304.50524      0.021145685    25.472813      755.48589     -41.512552      713.97334    
   2557000   293.64912      0.021145685    23.896229      728.55156     -39.930877      688.62069    
   2558000   305.61534      0.021145685   -0.48636303     758.24009     -37.083267      721.15682    
   2559000   307.40962      0.021145685    5.1623313      762.69175     -40.676551      722.0152     
   2560000   290.93942      0.021145685    32.434655      721.82872     -39.789223      682.0395     
   2561000   287.20278      0.021145685    18.456302      712.55802     -38.484008      674.07401    
   2562000   294.21299      0.021145685    8.6123252      729.95053     -35.310483      694.64005    
   2563000   308.27961      0.021145685    9.9038445      764.85022     -38.394597      726.45562    
   2564000   315.13423      0.021145685    14.695249      781.85672     -33.242772      748.61395    
   2565000   295.38802      0.021145685    13.141368      732.86582     -39.657968      693.20785    
   2566000   271.29274      0.021145685    9.865749       673.08477     -48.947989      624.13678    
   2567000   298.13602      0.021145685    13.872633      739.68368     -34.992202      704.69148    
   2568000   305.05215      0.021145685    15.478722      756.84278     -40.281025      716.56176    
   2569000   301.78967      0.021145685    17.50515       748.74849     -39.801289      708.9472     
   2570000   316.61436      0.021145685    5.4764688      785.52896     -37.191816      748.33715    
   2571000   294.98438      0.021145685    11.786801      731.86439     -35.750736      696.11365    
   2572000   293.30142      0.021145685    13.10669       727.6889      -40.724228      686.96467    
   2573000   305.46898      0.021145685    15.102887      757.87695     -41.800494      716.07646    
   2574000   305.41259      0.021145685    9.2368068      757.73706     -43.763855      713.9732     
   2575000   298.91579      0.021145685    10.002874      741.61831     -36.177657      705.44065    
   2576000   300.77796      0.021145685    18.991709      746.23842     -38.52021       707.71821    
   2577000   303.8094       0.021145685    16.08955       753.7595      -38.239259      715.52024    
   2578000   304.70674      0.021145685    2.0320272      755.98582     -42.959401      713.02642    
   2579000   307.25431      0.021145685    11.293582      762.30642     -44.047738      718.25868    
   2580000   290.20226      0.021145685    12.17819       719.99982     -37.382042      682.61777    
   2581000   300.33122      0.021145685    19.187996      745.13003     -38.518813      706.61122    
   2582000   312.93692      0.021145685    7.8137042      776.40512     -39.846182      736.55894    
   2583000   296.86765      0.021145685    4.2174325      736.53683     -40.863394      695.67344    
   2584000   293.47602      0.021145685    10.721555      728.1221      -37.103133      691.01896    
   2585000   298.73001      0.021145685    12.311186      741.15738     -37.908396      703.24898    
   2586000   317.32923      0.021145685    10.50433       787.30257     -39.040655      748.26191    
   2587000   299.84759      0.021145685    0.67080238     743.93013     -39.535192      704.39494    
   2588000   293.90659      0.021145685    8.8688645      729.19036     -38.193919      690.99644    
   2589000   299.80711      0.021145685    8.7149069      743.82971     -40.24159       703.58812    
   2590000   301.06087      0.021145685    15.163483      746.94033     -35.498727      711.4416     
   2591000   305.23028      0.021145685    13.114963      757.28474     -39.565967      717.71877    
   2592000   309.21959      0.021145685    9.3755319      767.18232     -39.730626      727.45169    
   2593000   306.54145      0.021145685    12.564404      760.53779     -40.493925      720.04387    
   2594000   297.59874      0.021145685    13.217645      738.35067     -35.033921      703.31675    
   2595000   299.16244      0.021145685    5.8895305      742.23025     -36.244509      705.98574    
   2596000   306.10081      0.021145685    12.863241      759.44456     -39.956284      719.48827    
   2597000   285.77833      0.021145685    11.764458      709.02392     -35.966581      673.05734    
   2598000   309.584        0.021145685    10.517168      768.08644     -44.916954      723.16948    
   2599000   313.43054      0.021145685    12.901219      777.62982     -45.691982      731.93784    
   2600000   289.57895      0.021145685    10.614918      718.45335     -46.245544      672.20781    
   2601000   292.58199      0.021145685    7.8105802      725.90398     -37.077216      688.82676    
   2602000   294.38846      0.021145685    0.8533764      730.38589     -41.173048      689.21284    
   2603000   305.05974      0.021145685    7.6872434      756.86163     -41.321291      715.54034    
   2604000   297.15227      0.021145685    11.415957      737.24298     -36.395963      700.84702    
   2605000   294.66377      0.021145685    11.173015      731.06894     -34.176206      696.89273    
   2606000   297.84523      0.021145685    10.167261      738.96222     -34.756988      704.20523    
   2607000   324.71634      0.021145685    11.133339      805.63018     -34.227358      771.40283    
   2608000   300.05573      0.021145685    11.409704      744.44653     -36.452171      707.99436    
   2609000   278.96014      0.021145685    10.570544      692.1078      -40.844052      651.26375    
   2610000   313.02894      0.021145685    13.278575      776.63342     -44.405089      732.22833    
   2611000   309.82128      0.021145685    5.6165615      768.67513     -38.486364      730.18877    
   2612000   283.8068       0.021145685    10.85227       704.1325      -38.131987      666.00051    
   2613000   292.74243      0.021145685    15.553987      726.30205     -41.401666      684.90038    
   2614000   303.51983      0.021145685    5.439273       753.04108     -38.995241      714.04583    
   2615000   305.64009      0.021145685    7.6977666      758.30148     -38.031839      720.26964    
   2616000   289.5471       0.021145685    11.873904      718.37435     -37.624873      680.74947    
   2617000   300.44843      0.021145685    15.260352      745.42085     -39.684976      705.73587    
   2618000   302.53933      0.021145685    8.0345239      750.60841     -45.251027      705.35738    
   2619000   292.50315      0.021145685    12.91739       725.70837     -45.892329      679.81604    
   2620000   296.74414      0.021145685    11.023728      736.2304      -43.213428      693.01697    
   2621000   297.822        0.021145685    8.1620809      738.90459     -41.788479      697.11611    
   2622000   303.89675      0.021145685    16.489268      753.97621     -43.994432      709.98177    
   2623000   299.2121       0.021145685    11.885342      742.35347     -39.898966      702.4545     
   2624000   302.17513      0.021145685    6.4658942      749.70484     -37.203256      712.50158    
   2625000   304.22752      0.021145685    12.029176      754.79687     -40.115792      714.68108    
   2626000   305.00608      0.021145685    10.721636      756.72849     -35.871183      720.85731    
   2627000   288.28273      0.021145685    10.883954      715.2374      -36.181014      679.05638    
   2628000   300.37805      0.021145685    15.495336      745.24623     -34.902245      710.34399    
   2629000   315.32153      0.021145685    13.415884      782.32142     -38.276168      744.04525    
   2630000   296.84499      0.021145685    3.0838307      736.4806      -35.611388      700.86921    
   2631000   294.33665      0.021145685    12.287704      730.25734     -38.107957      692.14938    
   2632000   305.72508      0.021145685    12.219213      758.51234     -40.421007      718.09134    
   2633000   306.2473       0.021145685    11.160396      759.80799     -38.106931      721.70106    
   2634000   288.71896      0.021145685    12.319014      716.3197      -37.445775      678.87393    
   2635000   308.03591      0.021145685    16.837991      764.24557     -41.229555      723.01602    
   2636000   318.16794      0.021145685    11.273305      789.38343     -38.611908      750.77152    
   2637000   299.98756      0.021145685    9.2813107      744.27739     -48.384809      695.89259    
   2638000   295.64736      0.021145685    11.757393      733.50925     -44.371921      689.13733    
   2639000   297.68096      0.021145685    8.2805419      738.55467     -43.946684      694.60798    
   2640000   322.33142      0.021145685    10.576704      799.71313     -45.908384      753.80474    
   2641000   296.22235      0.021145685    11.512076      734.93581     -47.637653      687.29816    
   2642000   294.20406      0.021145685    11.858949      729.92839     -46.7725        683.15589    
   2643000   320.39591      0.021145685    14.538958      794.9111      -45.751797      749.1593     
   2644000   306.02106      0.021145685    9.5473329      759.2467      -46.88417       712.36253    
   2645000   275.8187       0.021145685    10.2241        684.31381     -41.584506      642.7293     
   2646000   306.21082      0.021145685    11.343865      759.71748     -42.204963      717.51252    
   2647000   307.0822       0.021145685    11.059318      761.8794      -42.449438      719.42996    
   2648000   299.80319      0.021145685    13.040614      743.81998     -35.870117      707.94986    
   2649000   289.74917      0.021145685    9.0896389      718.87568     -40.046018      678.82966    
   2650000   294.9662       0.021145685    7.6928022      731.81927     -39.591565      692.22771    
   2651000   300.96906      0.021145685    9.5963839      746.71254     -40.942553      705.76998    
   2652000   302.49374      0.021145685    10.608115      750.4953      -38.486755      712.00855    
   2653000   297.07552      0.021145685    13.033646      737.05257     -43.121336      693.93123    
   2654000   285.91776      0.021145685    10.404557      709.36985     -45.957066      663.41278    
   2655000   300.11628      0.021145685    10.506709      744.59677     -44.175957      700.42081    
   2656000   302.63603      0.021145685    11.886536      750.84832     -39.255354      711.59297    
   2657000   297.93748      0.021145685    9.8080888      739.19111     -36.447163      702.74395    
   2658000   289.81908      0.021145685    11.005605      719.04913     -35.118567      683.93056    
   2659000   304.99949      0.021145685    7.3012934      756.71213     -35.537709      721.17442    
   2660000   313.47259      0.021145685    12.073676      777.73413     -40.851304      736.88283    
   2661000   287.83831      0.021145685    19.686861      714.13477     -36.953219      677.18155    
   2662000   299.10386      0.021145685    9.0926855      742.08493     -36.441568      705.64336    
   2663000   315.62388      0.021145685    12.554686      783.07154     -34.771378      748.30017    
   2664000   292.99632      0.021145685    17.63807       726.93195     -42.502853      684.4291     
   2665000   286.20664      0.021145685    15.904675      710.08657     -43.846147      666.24043    
   2666000   302.93049      0.021145685    1.521444       751.57889     -44.430654      707.14824    
   2667000   310.17613      0.021145685    14.606591      769.55552     -42.828002      726.72752    
   2668000   305.70525      0.021145685    19.507592      758.46316     -44.57462       713.88854    
   2669000   284.39336      0.021145685    16.478893      705.58777     -41.123366      664.46441    
   2670000   303.69334      0.021145685   -5.3892567      753.47156     -43.388366      710.08319    
   2671000   310.95792      0.021145685    0.96664145     771.49518     -39.040121      732.45506    
   2672000   307.71427      0.021145685    14.178421      763.44758     -39.445457      724.00212    
   2673000   290.57369      0.021145685    17.302921      720.92134     -42.66764       678.2537     
   2674000   306.09364      0.021145685    10.382758      759.42676     -37.269254      722.15751    
   2675000   305.87716      0.021145685    15.782057      758.88966     -38.944764      719.9449     
   2676000   299.69986      0.021145685    13.908108      743.56361     -41.678775      701.88483    
   2677000   298.40667      0.021145685    8.3004736      740.35516     -41.059754      699.29541    
   2678000   303.06988      0.021145685    11.311849      751.92473     -39.414987      712.50974    
   2679000   303.16433      0.021145685    13.253149      752.15906     -43.640161      708.5189     
   2680000   294.65811      0.021145685    9.3749216      731.05488     -40.298081      690.7568     
   2681000   284.21527      0.021145685    9.9887988      705.14592     -35.275843      669.87007    
   2682000   305.49272      0.021145685    11.112217      757.93587     -33.782372      724.15349    
   2683000   309.64138      0.021145685    10.006907      768.22879     -38.508593      729.7202     
   2684000   293.0211       0.021145685    10.805522      726.99341     -38.980262      688.01315    
   2685000   299.21682      0.021145685    16.636397      742.36519     -40.527872      701.83732    
   2686000   324.00293      0.021145685    13.880313      803.86019     -40.103402      763.75679    
   2687000   304.49208      0.021145685    11.375117      755.45323     -35.104775      720.34846    
   2688000   292.6369       0.021145685    12.072362      726.04022     -35.519186      690.52103    
   2689000   294.36455      0.021145685    13.032684      730.32657     -36.681776      693.64479    
   2690000   301.64676      0.021145685    15.196704      748.39393     -34.120428      714.27351    
   2691000   299.63198      0.021145685    10.681134      743.39519     -34.333768      709.06142    
   2692000   294.78258      0.021145685    13.854183      731.3637      -33.576854      697.78684    
   2693000   277.92611      0.021145685    10.785085      689.54234     -37.192385      652.34996    
   2694000   317.4328       0.021145685    18.792674      787.55952     -30.207424      757.3521     
   2695000   304.29966      0.021145685    9.1392632      754.97583     -28.01692       726.95891    
   2696000   296.81823      0.021145685    11.659383      736.41422     -29.517866      706.89635    
   2697000   291.21654      0.021145685    17.163465      722.51628     -29.752975      692.7633     
   2698000   307.63022      0.021145685    13.393604      763.23906     -30.036318      733.20274    
   2699000   318.14134      0.021145685    14.067842      789.31742     -27.230025      762.0874     
   2700000   302.06645      0.021145685    2.1601958      749.43518     -28.823702      720.61148    
   2701000   292.02618      0.021145685    7.0030305      724.52499     -30.62507       693.89992    
   2702000   298.30155      0.021145685    22.516043      740.09438     -31.604507      708.48987    
   2703000   308.70608      0.021145685    16.45895       765.90828     -36.431452      729.47683    
   2704000   308.72172      0.021145685    4.7291134      765.94709     -33.523508      732.42359    
   2705000   297.1767       0.021145685    7.1998077      737.30357     -43.470464      693.83311    
   2706000   284.52157      0.021145685    27.454245      705.90587     -37.880608      668.02526    
   2707000   311.95015      0.021145685    16.980863      773.95693     -34.565606      739.39133    
   2708000   295.89277      0.021145685   -5.8401782      734.11813     -33.070334      701.0478     
   2709000   294.87764      0.021145685   -3.5724102      731.59955     -29.841034      701.75851    
   2710000   305.53071      0.021145685    14.187252      758.03012     -33.591658      724.43846    
   2711000   306.20494      0.021145685    12.404171      759.7029      -32.246019      727.45688    
   2712000   290.39541      0.021145685    4.0276242      720.47903     -36.974741      683.50428    
   2713000   304.9818       0.021145685    15.754963      756.66825     -32.64684       724.02141    
   2714000   307.63995      0.021145685    14.827529      763.2632      -33.443227      729.81997    
   2715000   309.99919      0.021145685    7.8568179      769.11652     -34.147424      734.9691     
   2716000   278.83609      0.021145685    12.051316      691.80003     -32.804236      658.99579    
   2717000   300.99763      0.021145685    15.390929      746.78341     -28.127495      718.65592    
   2718000   309.14277      0.021145685    12.256582      766.99172     -28.190462      738.80126    
   2719000   306.64516      0.021145685    15.956961      760.7951      -27.83947       732.95563    
   2720000   305.59174      0.021145685    10.566701      758.18153     -29.614554      728.56698    
   2721000   303.19941      0.021145685    9.5855512      752.2461      -33.677293      718.56881    
   2722000   301.9755       0.021145685    10.450968      749.20955     -38.131576      711.07797    
   2723000   308.00252      0.021145685    14.079792      764.16275     -38.255472      725.90728    
   2724000   297.09789      0.021145685    9.9080912      737.10805     -34.916555      702.19149    
   2725000   293.3811       0.021145685    8.8207486      727.88659     -35.408745      692.47784    
   2726000   319.29886      0.021145685    15.787202      792.18928     -32.01036       760.17892    
   2727000   305.16826      0.021145685    8.0197721      757.13086     -36.286867      720.84399    
   2728000   300.74224      0.021145685    6.8708353      746.14978     -36.600406      709.54937    
   2729000   301.27428      0.021145685    17.471135      747.46979     -35.430439      712.03935    
   2730000   319.85006      0.021145685    11.677243      793.5568      -36.561294      756.99551    
   2731000   298.32882      0.021145685    7.0768853      740.16203     -40.836778      699.32525    
   2732000   282.59134      0.021145685    9.5336064      701.1169      -40.34607       660.77083    
   2733000   309.52167      0.021145685    20.66879       767.93179     -37.312935      730.61886    
   2734000   312.78981      0.021145685    14.900347      776.04013     -37.494534      738.5456     
   2735000   305.37622      0.021145685   -0.93391607     757.64682     -38.253784      719.39304    
   2736000   283.6258       0.021145685    4.4208016      703.68342     -35.952353      667.73107    
   2737000   291.94263      0.021145685    18.198865      724.31772     -29.347072      694.97064    
   2738000   295.7551       0.021145685    21.658875      733.77655     -33.899877      699.87668    
   2739000   305.71554      0.021145685    14.302053      758.48868     -32.913685      725.57499    
   2740000   292.80494      0.021145685    10.629437      726.45712     -35.653425      690.80369    
   2741000   294.33077      0.021145685    11.043038      730.24276     -34.151945      696.09082    
   2742000   310.08544      0.021145685    17.952239      769.33051     -28.2237        741.10681    
   2743000   304.70051      0.021145685    2.7122494      755.97037     -31.652353      724.31802    
   2744000   284.53864      0.021145685    7.9744177      705.94822     -29.756716      676.1915     
   2745000   297.78087      0.021145685    16.389918      738.80255     -29.965826      708.83672    
   2746000   310.63845      0.021145685    11.330193      770.70256     -33.209203      737.49336    
   2747000   301.54695      0.021145685    3.6660426      748.1463      -34.022403      714.1239     
   2748000   278.10191      0.021145685    6.0287039      689.97852     -32.566229      657.41229    
   2749000   293.6942       0.021145685    22.081931      728.66342     -36.223         692.44042    
   2750000   310.90582      0.021145685    18.41127       771.36592     -29.265798      742.10012    
   2751000   315.88622      0.021145685    7.2193173      783.72242     -33.946598      749.77582    
   2752000   302.22346      0.021145685   -0.040393096    749.82475     -33.653963      716.17078    
   2753000   286.86962      0.021145685    13.943569      711.73143     -30.992773      680.73866    
   2754000   318.41181      0.021145685    12.945071      789.98848     -30.355434      759.63305    
   2755000   313.47412      0.021145685    11.230388      777.73792     -28.709382      749.02854    
   2756000   296.82462      0.021145685   -7.3759545      736.43006     -36.033848      700.39622    
   2757000   287.01051      0.021145685    14.576837      712.08098     -35.352385      676.72859    
   2758000   292.3095       0.021145685    12.501819      725.22792     -42.081493      683.14643    
   2759000   302.81651      0.021145685    11.319129      751.2961      -33.314398      717.9817     
   2760000   296.5778       0.021145685    10.295531      735.81771     -35.356027      700.46168    
   2761000   301.03402      0.021145685    10.973318      746.87371     -35.01399       711.85972    
   2762000   307.33405      0.021145685    14.483249      762.50426     -35.843791      726.66047    
   2763000   294.50362      0.021145685    10.74498       730.67161     -36.663614      694.00799    
   2764000   300.34246      0.021145685    15.92473       745.15791     -29.502381      715.65553    
   2765000   307.44556      0.021145685    11.302182      762.78091     -29.024276      733.75664    
   2766000   304.2768       0.021145685    11.884577      754.91913     -28.050796      726.86834    
   2767000   287.26406      0.021145685    10.959784      712.71006     -23.824563      688.88549    
   2768000   292.63862      0.021145685    7.8871815      726.04448     -32.42151       693.62297    
   2769000   312.13655      0.021145685    12.707304      774.41938     -37.009416      737.40996    
   2770000   305.8345       0.021145685    10.62183       758.78382     -32.624754      726.15907    
   2771000   293.8682       0.021145685    9.397847       729.09511     -29.005421      700.08969    
   2772000   293.4697       0.021145685    11.399198      728.1064      -29.195418      698.91099    
   2773000   301.83297      0.021145685    9.6630322      748.85591     -27.544175      721.31174    
   2774000   305.66972      0.021145685    12.568063      758.375       -23.236755      735.13825    
   2775000   304.63048      0.021145685    12.884291      755.79662     -23.82508       731.97154    
   2776000   293.90102      0.021145685    10.668451      729.17654     -30.016255      699.16028    
   2777000   293.77226      0.021145685    12.021455      728.85709     -32.73634       696.12075    
   2778000   298.96427      0.021145685    10.767717      741.7386      -28.972874      712.76573    
   2779000   314.23651      0.021145685    8.0921367      779.62945     -31.153781      748.47566    
   2780000   298.74653      0.021145685    14.382137      741.19839     -32.044461      709.15392    
   2781000   286.769        0.021145685    12.741069      711.48179     -31.27605       680.20574    
   2782000   308.98392      0.021145685    8.5500228      766.59762     -32.904782      733.69284    
   2783000   305.45195      0.021145685    12.596643      757.8347      -32.525124      725.30957    
   2784000   292.64114      0.021145685    19.976497      726.05074     -26.694215      699.35652    
   2785000   298.57043      0.021145685    4.4387702      740.76147     -28.612872      712.1486     
   2786000   314.4055       0.021145685    2.6061882      780.04871     -35.466019      744.58269    
   2787000   302.91375      0.021145685    14.205914      751.53738     -35.76099       715.77639    
   2788000   304.72657      0.021145685    19.151739      756.03503     -34.862578      721.17245    
   2789000   305.49452      0.021145685    6.5843277      757.94032     -33.652359      724.28797    
   2790000   315.19941      0.021145685    10.267959      782.01842     -37.805601      744.21282    
   2791000   289.21861      0.021145685    15.378234      717.55935     -28.547476      689.01187    
   2792000   293.95197      0.021145685    10.31375       729.30294     -30.247608      699.05533    
   2793000   307.71959      0.021145685    10.077408      763.46079     -29.394686      734.0661     
   2794000   312.91171      0.021145685    13.670842      776.34257     -31.057569      745.285      
   2795000   291.19318      0.021145685    23.993184      722.4583      -30.308883      692.14942    
   2796000   289.62598      0.021145685    8.5642418      718.57004     -32.995473      685.57457    
   2797000   306.76777      0.021145685    3.9522141      761.09929     -35.066809      726.03248    
   2798000   304.27614      0.021145685    13.936628      754.9175      -37.909454      717.00804    
   2799000   299.55244      0.021145685    13.734099      743.19786     -39.764875      703.43298    
   2800000   290.97146      0.021145685    5.9223795      721.90821     -41.409901      680.49831    
   2801000   295.078        0.021145685    12.037609      732.09665     -36.008085      696.08857    
   2802000   297.44525      0.021145685    10.617031      737.96986     -32.883326      705.08653    
   2803000   304.53381      0.021145685    10.186379      755.55677     -37.651081      717.90569    
   2804000   293.52597      0.021145685    11.922757      728.24603     -36.596317      691.64971    
   2805000   303.31126      0.021145685    12.593263      752.5236      -32.03967       720.48393    
   2806000   301.071        0.021145685    13.178934      746.96546     -34.120261      712.8452     
   2807000   292.21111      0.021145685    10.82659       724.98382     -30.745809      694.23801    
   2808000   295.98114      0.021145685    9.5634455      734.33737     -33.746544      700.59083    
   2809000   298.91554      0.021145685    11.572624      741.6177      -32.185842      709.43186    
   2810000   298.05818      0.021145685    12.38125       739.49056     -35.028058      704.4625     
   2811000   311.05557      0.021145685    12.075556      771.73745     -35.02184       736.71561    
   2812000   299.14527      0.021145685    4.3445294      742.18765     -30.503131      711.68452    
   2813000   285.35954      0.021145685    10.155775      707.98489     -34.33296       673.65194    
   2814000   294.8113       0.021145685    12.483949      731.43496     -32.538772      698.89619    
   2815000   297.133        0.021145685    10.300899      737.19517     -31.942618      705.25255    
   2816000   295.17183      0.021145685    10.660787      732.32946     -34.348613      697.98084    
   2817000   315.02012      0.021145685    12.777157      781.5736      -36.632801      744.9408     
   2818000   299.07229      0.021145685    12.564093      742.00659     -42.815177      699.19141    
   2819000   292.50296      0.021145685    2.6351334      725.70789     -36.821199      688.8867     
   2820000   303.15572      0.021145685    11.478231      752.13769     -31.85901       720.27868    
   2821000   302.87592      0.021145685    11.14908       751.44351     -32.388791      719.05472    
   2822000   302.64092      0.021145685    11.444978      750.86047     -32.904673      717.9558     
   2823000   301.09598      0.021145685    12.457916      747.02743     -32.640988      714.38644    
   2824000   291.61862      0.021145685    4.4828839      723.51382     -31.920516      691.59331    
   2825000   313.61845      0.021145685    9.6470261      778.09602     -36.310823      741.7852     
   2826000   304.96522      0.021145685    15.067531      756.62712     -36.204745      720.42237    
   2827000   293.34042      0.021145685    11.797499      727.78568     -39.924654      687.86102    
   2828000   304.11249      0.021145685    5.2232608      754.51147     -34.146862      720.3646     
   2829000   309.74824      0.021145685    13.051942      768.49392     -32.261635      736.23229    
   2830000   288.75005      0.021145685    9.0723058      716.39685     -32.694886      683.70196    
   2831000   306.96256      0.021145685    10.007309      761.58256     -33.240742      728.34182    
   2832000   315.88562      0.021145685    12.086859      783.72092     -33.510624      750.2103     
   2833000   300.8931       0.021145685    13.089143      746.52407     -33.075266      713.4488     
   2834000   278.87997      0.021145685    10.351098      691.90889     -32.575345      659.33354    
   2835000   300.52026      0.021145685    11.146048      745.59905     -26.010301      719.58874    
   2836000   301.74356      0.021145685    11.312959      748.63409     -29.21025       719.42384    
   2837000   301.83421      0.021145685    11.786945      748.85899     -27.762094      721.0969     
   2838000   297.95555      0.021145685    11.068994      739.23593     -28.676351      710.55958    
   2839000   302.18687      0.021145685    10.333287      749.73395     -26.957294      722.77666    
   2840000   299.65554      0.021145685    11.212775      743.45364     -26.181458      717.27218    
   2841000   291.10382      0.021145685    17.130514      722.23661     -29.506125      692.73049    
   2842000   293.07708      0.021145685    13.26443       727.13231     -30.265767      696.86655    
   2843000   302.84881      0.021145685    8.7330089      751.37623     -31.091077      720.28516    
   2844000   290.77612      0.021145685    5.9591497      721.42357     -26.909393      694.51418    
   2845000   304.56947      0.021145685    12.478926      755.64526     -33.31256       722.3327     
   2846000   298.40673      0.021145685    13.391085      740.35533     -35.725749      704.62958    
   2847000   305.84283      0.021145685    10.766673      758.80448     -34.228744      724.57574    
   2848000   300.226        0.021145685    13.15343       744.86898     -33.627285      711.2417     
   2849000   292.71579      0.021145685    10.024778      726.23595     -33.92586       692.31009    
   2850000   298.14567      0.021145685    10.210006      739.70762     -31.207445      708.50017    
   2851000   287.55971      0.021145685    14.076346      713.44357     -36.438988      677.00459    
   2852000   309.71636      0.021145685    15.390912      768.41482     -33.399259      735.01556    
   2853000   303.72036      0.021145685    10.478644      753.53859     -39.674687      713.86391    
   2854000   301.68023      0.021145685    11.121822      748.47698     -42.250331      706.22665    
   2855000   292.13507      0.021145685    9.7905177      724.79517     -37.583056      687.21211    
   2856000   293.17867      0.021145685    10.173683      727.38435     -45.944336      681.44002    
   2857000   294.58849      0.021145685    12.520704      730.88217     -47.068152      683.81401    
   2858000   298.09911      0.021145685    11.194263      739.59212     -41.176945      698.41517    
   2859000   284.92504      0.021145685    12.029643      706.90689     -41.869143      665.03774    
   2860000   305.24837      0.021145685    10.246146      757.32961     -38.841455      718.48815    
   2861000   302.69988      0.021145685    14.536611      751.00674     -35.50746       715.49928    
   2862000   299.13024      0.021145685    15.493481      742.15037     -37.573096      704.57727    
   2863000   301.89329      0.021145685    11.023743      749.00557     -31.070041      717.93553    
   2864000   313.60294      0.021145685    8.6597112      778.05755     -28.586942      749.4706     
   2865000   287.46137      0.021145685    4.8014972      713.19958     -30.36423       682.83535    
   2866000   294.83295      0.021145685    11.132836      731.48869     -32.007234      699.48145    
   2867000   296.84093      0.021145685    12.130895      736.47054     -35.17981       701.29073    
   2868000   307.99253      0.021145685    11.49905       764.13796     -34.704813      729.43315    
   2869000   305.73698      0.021145685    12.642508      758.54187     -33.959989      724.58188    
   2870000   277.4756       0.021145685    9.9774165      688.42461     -32.016309      656.4083     
   2871000   289.28878      0.021145685    11.494398      717.73343     -33.035463      684.69797    
   2872000   303.7967       0.021145685    11.569839      753.72799     -38.602689      715.1253     
   2873000   313.26641      0.021145685    12.934195      777.2226      -34.197005      743.02559    
   2874000   297.72125      0.021145685    10.953193      738.65462     -33.005105      705.64951    
   2875000   293.14621      0.021145685    7.3865931      727.30383     -31.468973      695.83486    
   2876000   298.76425      0.021145685    10.277711      741.24234     -34.70329       706.53905    
   2877000   307.39181      0.021145685    11.351717      762.64756     -37.307341      725.34022    
   2878000   290.29999      0.021145685    11.349992      720.24229     -35.542713      684.69958    
   2879000   303.09236      0.021145685    13.0781        751.98049     -38.684206      713.29628    
   2880000   311.47689      0.021145685    13.411906      772.78275     -36.423999      736.35875    
   2881000   285.21263      0.021145685    11.526017      707.6204      -38.422913      669.19749    
   2882000   294.7727       0.021145685    10.320552      731.3392      -36.822185      694.51701    
   2883000   321.03057      0.021145685    12.550364      796.4857      -35.43457       761.05113    
   2884000   300.51487      0.021145685    10.602389      745.58568     -32.291201      713.29448    
   2885000   291.17451      0.021145685    10.825378      722.41198     -35.237008      687.17497    
   2886000   314.53999      0.021145685    9.5794384      780.38238     -34.425658      745.95672    
   2887000   302.74356      0.021145685    11.170793      751.11512     -27.893652      723.22147    
   2888000   302.84709      0.021145685    10.380214      751.37197     -35.782763      715.58921    
   2889000   293.36132      0.021145685    15.843293      727.83751     -33.815678      694.02184    
   2890000   298.84472      0.021145685    11.187528      741.44198     -35.747291      705.69469    
   2891000   300.09183      0.021145685    9.4015493      744.5361      -34.000835      710.53527    
   2892000   318.56097      0.021145685    11.918186      790.35855     -30.425006      759.93354    
   2893000   296.49988      0.021145685    12.120316      735.62437     -34.007565      701.61681    
   2894000   291.20489      0.021145685    11.414181      722.48735     -27.888854      694.5985     
   2895000   313.62576      0.021145685    10.718833      778.11415     -29.284845      748.8293     
   2896000   303.72426      0.021145685    9.1616433      753.54827     -28.326075      725.22219    
   2897000   292.54711      0.021145685    12.299338      725.81745     -34.613088      691.20436    
   2898000   306.87449      0.021145685    24.496377      761.36406     -32.303564      729.06049    
   2899000   311.08071      0.021145685    12.808929      771.79982     -30.841417      740.9584     
   2900000   302.43761      0.021145685    4.929211       750.35606     -32.119303      718.23676    
   2901000   283.01166      0.021145685    1.7361075      702.15973     -28.558174      673.60156    
   2902000   290.66421      0.021145685    14.201501      721.14591     -28.010608      693.1353     
   2903000   308.04861      0.021145685    15.719428      764.27709     -25.562746      738.71434    
   2904000   303.87493      0.021145685    2.5594614      753.92208     -30.321336      723.60075    
   2905000   290.19647      0.021145685    15.2362        719.98545     -31.552301      688.43315    
   2906000   300.6129       0.021145685    12.797018      745.82888     -30.913318      714.91556    
   2907000   297.05487      0.021145685    0.096428782    737.00133     -35.729133      701.2722     
   2908000   304.57659      0.021145685    16.492181      755.66292     -35.594989      720.06793    
   2909000   300.4579       0.021145685    13.306522      745.44434     -42.136899      703.30744    
   2910000   297.13339      0.021145685    10.821383      737.19612     -37.224765      699.97135    
   2911000   300.40212      0.021145685    8.3445279      745.30595     -32.883438      712.42251    
   2912000   300.38239      0.021145685    14.689056      745.257       -28.827415      716.42959    
   2913000   297.71336      0.021145685    16.181588      738.63504     -29.90862       708.72642    
   2914000   316.14849      0.021145685    13.529076      784.37311     -32.879684      751.49343    
   2915000   319.14911      0.021145685    10.524414      791.81774     -27.042343      764.7754     
   2916000   293.30571      0.021145685    12.141585      727.69956     -27.115434      700.58413    
   2917000   291.0704       0.021145685    15.048506      722.15369     -26.942604      695.21109    
   2918000   319.13481      0.021145685    11.185095      791.78227     -25.962737      765.81953    
   2919000   302.26888      0.021145685    9.211473       749.93743     -24.379809      725.55762    
   2920000   290.97527      0.021145685    11.861396      721.91765     -26.927696      694.98996    
   2921000   317.59384      0.021145685    14.722271      787.95908     -27.852642      760.10644    
   2922000   308.88224      0.021145685    11.318951      766.34536     -29.747548      736.59782    
   2923000   290.51911      0.021145685    11.122011      720.78591     -32.992019      687.79389    
   2924000   296.70395      0.021145685    9.5620454      736.13068     -28.87384       707.25684    
   2925000   302.30433      0.021145685    8.7913027      750.02538     -37.559105      712.46627    
   2926000   290.9796       0.021145685    11.092836      721.9284      -38.164554      683.76384    
   2927000   304.33599      0.021145685    12.245285      755.06599     -35.04469       720.0213     
   2928000   305.18635      0.021145685    12.651633      757.17575     -31.976618      725.19914    
   2929000   314.41454      0.021145685    10.396214      780.07115     -35.015632      745.05551    
   2930000   305.43171      0.021145685    5.3623983      757.78448     -34.824598      722.95988    
   2931000   293.67329      0.021145685    17.624416      728.61152     -35.464416      693.1471     
   2932000   310.37322      0.021145685    15.638007      770.04451     -41.294786      728.74972    
   2933000   314.1876       0.021145685    8.4490405      779.50811     -39.387733      740.12037    
   2934000   294.12009      0.021145685    5.9746289      729.72005     -39.658157      690.06189    
   2935000   295.74597      0.021145685    10.615662      733.75392     -43.814615      689.9393     
   2936000   304.71226      0.021145685    13.789659      755.99953     -40.037291      715.96223    
   2937000   306.75815      0.021145685    7.2733371      761.07543     -40.454622      720.6208     
   2938000   288.995        0.021145685    9.9839879      717.00457     -37.570502      679.43407    
   2939000   298.76233      0.021145685    12.364301      741.23758     -42.965188      698.2724     
   2940000   311.80926      0.021145685    11.245907      773.60737     -37.497057      736.11031    
   2941000   291.21751      0.021145685    10.757634      722.51867     -33.649681      688.86899    
   2942000   304.27393      0.021145685    11.313529      754.912       -31.932377      722.97962    
   2943000   300.22837      0.021145685    8.7847251      744.87485     -35.914897      708.95996    
   2944000   296.4824       0.021145685    11.250578      735.58101     -36.332496      699.24852    
   2945000   300.84284      0.021145685    10.879037      746.39937     -39.991958      706.40742    
   2946000   309.5779       0.021145685    10.586339      768.0713      -38.60363       729.46767    
   2947000   303.78035      0.021145685    12.787172      753.68742     -35.888472      717.79894    
   2948000   284.72889      0.021145685    9.521533       706.42023     -28.537348      677.88289    
   2949000   295.65948      0.021145685    10.676988      733.53932     -30.782249      702.75708    
   2950000   306.52688      0.021145685    10.612385      760.50163     -27.023271      733.47836    
   2951000   304.3869       0.021145685    13.140676      755.19228     -29.039196      726.15308    
   2952000   293.18716      0.021145685    19.393336      727.40542     -33.00347       694.40195    
   2953000   299.10132      0.021145685    8.477202       742.07862     -31.074521      711.0041     
   2954000   311.52457      0.021145685    4.9290031      772.90106     -33.16945       739.73161    
   2955000   307.82142      0.021145685    19.546173      763.71343     -28.55477       735.15866    
   2956000   294.90184      0.021145685    13.568457      731.65958     -33.956972      697.70261    
   2957000   298.9899       0.021145685    14.310267      741.8022      -29.813508      711.98869    
   2958000   303.57948      0.021145685    6.9918479      753.18907     -31.806805      721.38226    
   2959000   301.564        0.021145685    15.90731       748.1886      -32.969773      715.21883    
   2960000   292.1026       0.021145685    13.795282      724.71461     -35.351493      689.36312    
   2961000   294.36172      0.021145685    7.8661958      730.31953     -35.421648      694.89788    
   2962000   300.02673      0.021145685    10.029996      744.3746      -35.568827      708.80577    
   2963000   294.9188       0.021145685    14.836805      731.70166     -36.3758        695.32586    
   2964000   296.85929      0.021145685    8.198178       736.51608     -35.637624      700.87845    
   2965000   310.79007      0.021145685    11.612519      771.07872     -35.718714      735.36001    
   2966000   295.92575      0.021145685    17.191764      734.19995     -35.797111      698.40284    
   2967000   300.75363      0.021145685    13.817767      746.17804     -30.778376      715.39967    
   2968000   303.51033      0.021145685    3.4952129      753.01749     -35.283441      717.73405    
   2969000   303.96208      0.021145685    11.309103      754.13829     -34.121303      720.01699    
   2970000   311.55105      0.021145685    13.811307      772.96674     -32.212922      740.75382    
   2971000   296.045        0.021145685    10.06152       734.4958      -30.952632      703.54317    
   2972000   306.33062      0.021145685    10.98078       760.01472     -31.162449      728.85227    
   2973000   292.97132      0.021145685    11.123923      726.86993     -32.25786       694.61206    
   2974000   297.0566       0.021145685    11.210472      737.0056      -34.05756       702.94804    
   2975000   312.98634      0.021145685    11.016997      776.52774     -36.382313      740.14543    
   2976000   289.33401      0.021145685    12.932167      717.84566     -33.698149      684.14751    
   2977000   300.50921      0.021145685    16.722075      745.57164     -36.676557      708.89509    
   2978000   300.98116      0.021145685    11.776521      746.74255     -38.364742      708.37781    
   2979000   296.22017      0.021145685    9.576748       734.9304      -40.246111      694.68429    
   2980000   314.97547      0.021145685    13.086659      781.46283     -33.24246       748.22037    
   2981000   310.90447      0.021145685    13.642109      771.36257     -36.166649      735.19592    
   2982000   292.56564      0.021145685    11.73617       725.86341     -37.763128      688.10028    
   2983000   299.54462      0.021145685    6.7614718      743.17845     -37.436244      705.7422     
   2984000   303.88382      0.021145685    11.712665      753.94414     -35.411106      718.53303    
   2985000   307.82444      0.021145685    12.330127      763.72093     -30.768428      732.9525     
   2986000   293.49206      0.021145685    10.619463      728.1619      -34.074377      694.08752    
   2987000   301.1602       0.021145685    6.3762958      747.18676     -35.5196        711.66716    
   2988000   311.93688      0.021145685    11.998173      773.92401     -33.916367      740.00764    
   2989000   290.40038      0.021145685    19.060522      720.49134     -34.369531      686.12181    
   2990000   293.36699      0.021145685    6.9602522      727.85158     -34.336843      693.51474    
   2991000   300.54512      0.021145685    10.909224      745.66073     -35.063716      710.59702    
   2992000   308.57325      0.021145685    12.290302      765.57874     -27.36872       738.21002    
   2993000   303.24477      0.021145685    12.287159      752.35864     -30.746936      721.61171    
   2994000   287.71374      0.021145685    6.9507633      713.82572     -31.420481      682.40523    
   2995000   302.61394      0.021145685    16.755326      750.79353     -28.640185      722.15334    
   2996000   290.17614      0.021145685    17.801398      719.935       -24.682869      695.25213    
   2997000   282.9914       0.021145685    10.084289      702.10945     -27.468607      674.64085    
   2998000   307.94516      0.021145685    10.854627      764.02043     -24.569984      739.45045    
   2999000   320.34975      0.021145685    12.029799      794.79657     -26.175746      768.62082    
   3000000   290.76957      0.021145685    10.287224      721.40731     -26.209517      695.1978     
   3001000   297.57577      0.021145685    15.245307      738.29368     -28.976188      709.3175     
   3002000   314.82046      0.021145685    13.39697       781.07823     -26.104786      754.97345    
   3003000   292.64443      0.021145685    12.472892      726.05889     -33.499842      692.55905    
   3004000   296.47413      0.021145685    11.28444       735.56048     -33.060032      702.50045    
   3005000   300.70943      0.021145685    7.6957221      746.06839     -28.080974      717.98741    
   3006000   306.49823      0.021145685    6.1136329      760.43056     -30.503404      729.92716    
   3007000   305.08422      0.021145685    10.2135        756.92237     -31.936156      724.98621    
   3008000   299.38167      0.021145685    11.422789      742.77419     -33.433552      709.34064    
   3009000   300.31621      0.021145685    9.2980916      745.0928      -28.955211      716.13759    
   3010000   295.59778      0.021145685    10.405478      733.38625     -27.574891      705.81136    
   3011000   302.38292      0.021145685    14.125255      750.22037     -31.480485      718.73988    
   3012000   298.30174      0.021145685    11.853145      740.09485     -31.899712      708.19514    
   3013000   303.50891      0.021145685    11.678282      753.01397     -33.426957      719.58701    
   3014000   315.84621      0.021145685    11.077809      783.62315     -28.640669      754.98249    
   3015000   300.68454      0.021145685    5.9747173      746.00663     -28.71498       717.29165    
   3016000   296.79522      0.021145685    10.341512      736.35712     -28.898654      707.45846    
   3017000   308.67023      0.021145685    10.942631      765.81936     -26.769817      739.04954    
   3018000   290.60889      0.021145685    15.78577       721.00867     -30.138983      690.86968    
   3019000   297.22737      0.021145685    15.171044      737.4293      -34.816387      702.61291    
   3020000   292.21974      0.021145685    7.7356408      725.00523     -37.277725      687.72751    
   3021000   295.23585      0.021145685    10.833433      732.48827     -29.538165      702.95011    
   3022000   308.93769      0.021145685    13.974479      766.48292     -27.724837      738.75808    
   3023000   304.78968      0.021145685    6.7574827      756.1916      -27.98079       728.21081    
   3024000   296.49092      0.021145685    9.7653583      735.60214     -29.739972      705.86217    
   3025000   300.54235      0.021145685    12.418599      745.65386     -26.184148      719.46971    
   3026000   303.25987      0.021145685    12.559746      752.3961      -25.55359       726.84251    
   3027000   293.96949      0.021145685    8.5309411      729.34641     -28.084705      701.26171    
   3028000   294.98075      0.021145685    8.6451211      731.85536     -29.840205      702.01516    
   3029000   309.06545      0.021145685    22.206106      766.7999      -28.16983       738.63007    
   3030000   301.80163      0.021145685    4.9972934      748.77816     -33.153647      715.62451    
   3031000   286.40522      0.021145685    10.852221      710.57926     -32.897566      677.68169    
   3032000   296.13703      0.021145685    15.96895       734.72414     -29.689982      705.03416    
   3033000   309.34617      0.021145685    16.555751      767.49638     -28.947471      738.54891    
   3034000   308.9746       0.021145685   -4.1262501      766.57449     -26.356656      740.21784    
   3035000   294.98505      0.021145685    7.8218565      731.86605     -22.644159      709.22189    
   3036000   298.62935      0.021145685    17.971         740.90766     -26.103468      714.80419    
   3037000   305.10898      0.021145685    33.121253      756.98379     -22.727184      734.2566     
   3038000   306.23913      0.021145685    8.8069994      759.78773     -29.97869       729.80904    
   3039000   291.12145      0.021145685    9.7177577      722.28034     -29.005124      693.27522    
   3040000   302.60244      0.021145685    14.054821      750.76501     -31.639747      719.12526    
   3041000   311.48986      0.021145685    20.212556      772.81493     -31.649227      741.16571    
   3042000   304.04959      0.021145685    3.1320044      754.35543     -29.576329      724.7791     
   3043000   297.6559       0.021145685    7.4600459      738.49249     -32.131089      706.3614     
   3044000   292.471        0.021145685    22.786973      725.62861     -24.867491      700.76112    
   3045000   305.114        0.021145685    9.9651494      756.99624     -23.550513      733.44573    
   3046000   298.20947      0.021145685    11.676348      739.86591     -24.030286      715.83563    
   3047000   304.64081      0.021145685    12.975378      755.82226     -23.972374      731.84988    
   3048000   308.83072      0.021145685    12.938988      766.21754     -26.39981       739.81773    
   3049000   300.81915      0.021145685    12.336453      746.34059     -25.401399      720.93919    
   3050000   298.07547      0.021145685    11.049946      739.53347     -29.772014      709.76145    
   3051000   309.28065      0.021145685    11.312747      767.33381     -28.304467      739.02935    
   3052000   305.86607      0.021145685    11.224487      758.86214     -32.11336       726.74878    
   3053000   295.63483      0.021145685    10.563136      733.47815     -31.213756      702.2644     
   3054000   296.42328      0.021145685    11.647333      735.43433     -29.786689      705.64764    
   3055000   307.84862      0.021145685    12.611265      763.78091     -32.937154      730.84375    
   3056000   297.40069      0.021145685    12.138381      737.8593      -33.881711      703.97759    
   3057000   285.58815      0.021145685    12.205489      708.55207     -33.712411      674.83966    
   3058000   304.44267      0.021145685    12.337993      755.33064     -33.052565      722.27808    
   3059000   300.06313      0.021145685    12.063336      744.46488     -38.484653      705.98023    
   3060000   295.3979       0.021145685    11.61239       732.89034     -31.456004      701.43433    
   3061000   311.86707      0.021145685    9.2271794      773.7508      -33.121187      740.62962    
   3062000   302.28528      0.021145685    11.842518      749.97812     -32.521221      717.4569     
   3063000   297.40766      0.021145685    10.904001      737.8766      -31.463282      706.41331    
   3064000   306.27537      0.021145685    11.426713      759.87763     -29.63257       730.24506    
   3065000   301.61126      0.021145685    9.485015       748.30584     -37.222552      711.08329    
   3066000   300.12559      0.021145685    14.121164      744.61986     -33.005186      711.61467    
   3067000   308.52762      0.021145685    13.256765      765.46554     -34.915954      730.54959    
   3068000   304.83509      0.021145685    10.2405        756.30427     -36.533153      719.77112    
   3069000   296.47676      0.021145685    11.702343      735.56702     -36.101672      699.46534    
   3070000   285.19548      0.021145685    11.544755      707.57785     -36.975231      670.60262    
   3071000   312.2905       0.021145685    11.340645      774.80133     -36.195888      738.60544    
   3072000   304.79395      0.021145685    11.460944      756.2022      -36.043976      720.15823    
   3073000   304.52679      0.021145685    10.933598      755.53937     -38.718039      716.82133    
   3074000   302.24484      0.021145685    13.561349      749.87779     -33.133754      716.74404    
   3075000   305.32101      0.021145685    27.666592      757.50983     -33.724311      723.78552    
   3076000   289.41846      0.021145685    11.027531      718.05518     -30.880617      687.17456    
   3077000   304.04057      0.021145685    9.5104579      754.33304     -31.901759      722.43129    
   3078000   320.59481      0.021145685    12.490662      795.40457     -29.921582      765.48299    
   3079000   300.4225       0.021145685    17.843508      745.35651     -32.800433      712.55608    
   3080000   282.60014      0.021145685    12.747362      701.13874     -29.09023       672.04851    
   3081000   303.8018       0.021145685    11.630797      753.74063     -30.522479      723.21815    
   3082000   319.12096      0.021145685    14.947617      791.74789     -32.066393      759.6815     
   3083000   288.87631      0.021145685    11.097026      716.71009     -29.288219      687.42187    
   3084000   287.97612      0.021145685    0.32470535     714.47668     -32.800172      681.67651    
   3085000   310.67688      0.021145685    5.5051642      770.7979      -34.045726      736.75217    
   3086000   308.80792      0.021145685    19.353193      766.16096     -33.083417      733.07754    
   3087000   295.34153      0.021145685    11.735096      732.75049     -27.458994      705.29149    
   3088000   287.18427      0.021145685   -1.6784494      712.5121      -29.671171      682.84093    
   3089000   304.45337      0.021145685    10.116125      755.35719     -30.221093      725.1361     
   3090000   317.04799      0.021145685    26.656451      786.60479     -31.498366      755.10643    
   3091000   277.25154      0.021145685    19.152677      687.86871     -34.042125      653.82659    
   3092000   308.2587       0.021145685    7.5253464      764.79834     -27.456595      737.34175    
   3093000   303.81729      0.021145685    16.0422        753.77908     -33.432585      720.34649    
   3094000   292.81518      0.021145685    9.3109697      726.48253     -28.88279       697.59974    
   3095000   291.12544      0.021145685    0.39259472     722.29025     -32.391704      689.89854    
   3096000   307.3951       0.021145685    7.7191089      762.65571     -34.508414      728.1473     
   3097000   299.02365      0.021145685    23.855079      741.88591     -29.071448      712.81446    
   3098000   299.27978      0.021145685    17.966734      742.52138     -30.531198      711.99018    
   3099000   298.15938      0.021145685    7.2100315      739.74164     -31.019727      708.72192    
   3100000   313.38693      0.021145685    14.974882      777.5216      -32.592229      744.92937    
   3101000   303.16924      0.021145685    14.857679      752.17123     -38.386434      713.7848     
   3102000   293.3823       0.021145685    4.930511       727.88957     -36.292402      691.59717    
   3103000   299.45379      0.021145685    4.3018058      742.95312     -37.605844      705.34728    
   3104000   309.41922      0.021145685    15.0473        767.67762     -38.789848      728.88777    
   3105000   311.83547      0.021145685    12.304895      773.67241     -37.620037      736.05237    
   3106000   298.60483      0.021145685    9.2368072      740.84683     -33.478616      707.36821    
   3107000   309.19231      0.021145685    8.9289017      767.11463     -32.838139      734.27649    
   3108000   300.92671      0.021145685    12.953161      746.60747     -32.162231      714.44524    
   3109000   310.92011      0.021145685    11.444552      771.40137     -35.774424      735.62695    
   3110000   300.67115      0.021145685    10.589442      745.97342     -34.885049      711.08837    
   3111000   296.9132       0.021145685    11.066573      736.64983     -33.607461      703.04237    
   3112000   309.3499       0.021145685    13.163257      767.50563     -32.075225      735.4304     
   3113000   282.72176      0.021145685    10.331537      701.44048     -31.302084      670.1384     
   3114000   289.90474      0.021145685    12.648034      719.26165     -28.163294      691.09836    
   3115000   309.18862      0.021145685    11.46383       767.1055      -31.533624      735.57188    
   3116000   301.03803      0.021145685    11.089205      746.88366     -31.053782      715.82988    
   3117000   290.27117      0.021145685    9.3475003      720.17076     -32.994806      687.17596    
   3118000   300.10539      0.021145685    10.509733      744.56975     -35.188842      709.38091    
   3119000   309.7214       0.021145685    11.370462      768.42732     -37.307569      731.11975    
   3120000   307.18147      0.021145685    10.045312      762.12569     -32.089638      730.03605    
   3121000   299.95316      0.021145685    9.570656       744.19205     -31.190771      713.00128    
   3122000   284.26874      0.021145685    10.790767      705.27859     -32.112533      673.16605    
   3123000   291.27158      0.021145685    11.55986       722.65282     -36.765876      685.88695    
   3124000   310.21665      0.021145685    14.433883      769.65605     -34.897035      734.75901    
   3125000   282.4106       0.021145685    10.646568      700.66848     -38.675678      661.9928     
   3126000   292.30214      0.021145685    10.858865      725.20967     -39.684317      685.52535    
   3127000   303.57152      0.021145685    12.394687      753.16931     -34.795137      718.37418    
   3128000   340.07754      0.021145685    13.519156      843.74176     -34.099298      809.64246    
   3129000   302.92063      0.021145685    8.9095248      751.55444     -34.396433      717.158      
   3130000   296.11123      0.021145685    11.388734      734.66014     -39.596491      695.06365    
   3131000   302.96063      0.021145685    13.50447       751.65366     -41.819169      709.83449    
   3132000   312.83186      0.021145685    10.763747      776.14447     -36.44516       739.69931    
   3133000   290.46661      0.021145685    8.3519854      720.65568     -39.943329      680.71235    
   3134000   295.39142      0.021145685    15.072893      732.87426     -37.039164      695.83509    
   3135000   313.24733      0.021145685    16.075295      777.17526     -37.044588      740.13067    
   3136000   309.83192      0.021145685    9.6246601      768.70153     -35.980007      732.72152    
   3137000   297.27988      0.021145685    3.6362561      737.55959     -44.171219      693.38837    
   3138000   306.15078      0.021145685    11.983804      759.56852     -43.409913      716.15861    
   3139000   308.52857      0.021145685    14.31888       765.4679      -36.976797      728.4911     
   3140000   310.85938      0.021145685    8.6564403      771.2507      -35.68073       735.56997    
   3141000   293.00729      0.021145685    11.004612      726.95915     -39.474572      687.48458    
   3142000   298.11859      0.021145685    13.094212      739.64043     -38.855487      700.78494    
   3143000   308.99512      0.021145685    12.055172      766.62542     -39.171866      727.45355    
   3144000   307.53383      0.021145685    9.6657019      762.99991     -36.095093      726.90482    
   3145000   282.16667      0.021145685    6.1949908      700.06328     -35.710697      664.35258    
   3146000   285.84401      0.021145685    5.9490368      709.18687     -37.297312      671.88956    
   3147000   302.48151      0.021145685    14.44766       750.46496     -37.779674      712.68528    
   3148000   303.88027      0.021145685    15.013252      753.93533     -41.419407      712.51592    
   3149000   289.32705      0.021145685   -2.2180917      717.8284      -33.855064      683.97333    
   3150000   294.39456      0.021145685    12.728001      730.40101     -36.407762      693.99325    
   3151000   315.9459       0.021145685    10.970828      783.87049     -37.196861      746.67363    
   3152000   295.06903      0.021145685    8.3947454      732.0744      -36.007586      696.06681    
   3153000   292.63591      0.021145685    10.593546      726.03777     -42.36833       683.66943    
   3154000   305.27212      0.021145685    17.788349      757.38855     -31.667665      725.72088    
   3155000   314.67951      0.021145685    8.6462947      780.72855     -38.019809      742.70874    
   3156000   290.76457      0.021145685    10.541548      721.3949      -31.061891      690.33301    
   3157000   294.62782      0.021145685    16.91833       730.97975     -36.443851      694.5359     
   3158000   313.88255      0.021145685    12.430871      778.75126     -36.702519      742.04874    
   3159000   304.59872      0.021145685    0.99785001     755.71783     -37.052236      718.66559    
   3160000   288.95066      0.021145685    13.158926      716.89455     -32.297348      684.5972     
   3161000   299.52487      0.021145685    11.343662      743.12947     -35.733858      707.39561    
   3162000   300.69523      0.021145685    0.96736184     746.03315     -32.539318      713.49383    
   3163000   302.80106      0.021145685    10.767289      751.25777     -31.990453      719.26732    
   3164000   293.42319      0.021145685    9.6098042      727.99102     -34.047993      693.94303    
   3165000   304.30894      0.021145685    12.023223      754.99886     -35.082359      719.9165     
   3166000   293.65988      0.021145685    10.312554      728.57826     -34.546945      694.03132    
   3167000   298.3755       0.021145685    9.8728097      740.27785     -32.064453      708.2134     
   3168000   310.00448      0.021145685    11.790629      769.12966     -36.893954      732.23571    
   3169000   295.56702      0.021145685    12.047641      733.30992     -34.969229      698.34069    
   3170000   301.87966      0.021145685    6.4653622      748.97175     -43.852702      705.11904    
   3171000   322.97709      0.021145685    11.255173      801.31508     -40.347128      760.96795    
   3172000   289.51392      0.021145685    12.91572       718.29201     -39.125259      679.16675    
   3173000   294.70758      0.021145685    9.9603047      731.17762     -35.77197       695.40565    
   3174000   313.88532      0.021145685    8.5783882      778.75813     -33.690937      745.06719    
   3175000   321.02067      0.021145685    13.973251      796.46113     -32.185745      764.27539    
   3176000   297.72069      0.021145685    18.854356      738.65324     -38.374011      700.27923    
   3177000   296.35935      0.021145685    11.776171      735.27573     -38.086817      697.18891    
   3178000   301.79297      0.021145685    3.7587433      748.75667     -34.824288      713.93239    
   3179000   302.08135      0.021145685    1.2379193      749.47215     -37.256107      712.21605    
   3180000   301.03648      0.021145685    21.359971      746.87981     -39.481508      707.39831    
   3181000   290.93383      0.021145685    11.633032      721.81485     -41.309034      680.50581    
   3182000   314.81032      0.021145685   -4.5650448      781.05309     -41.602135      739.45095    
   3183000   316.48683      0.021145685    10.618366      785.21256     -41.509562      743.70299    
   3184000   300.82112      0.021145685    11.972429      746.34549     -40.583419      705.76207    
   3185000   299.29459      0.021145685    13.420357      742.55812     -41.589902      700.96822    
   3186000   298.37391      0.021145685    4.5315323      740.27389     -38.608238      701.66565    
   3187000   302.97884      0.021145685    10.264143      751.69886     -33.546715      718.15214    
   3188000   296.51203      0.021145685    11.567866      735.65452     -31.124693      704.52982    
   3189000   301.42359      0.021145685    11.269551      747.84024     -31.699351      716.14089    
   3190000   293.47685      0.021145685    12.08526       728.12415     -35.392668      692.73149    
   3191000   292.97252      0.021145685    10.815467      726.87291     -32.031894      694.84101    
   3192000   308.14167      0.021145685    9.6533435      764.50798     -34.035441      730.47254    
   3193000   292.77842      0.021145685    9.1430521      726.39132     -37.087238      689.30409    
   3194000   306.53623      0.021145685    10.715343      760.52484     -35.076687      725.44816    
   3195000   314.54507      0.021145685    13.295591      780.39498     -38.162399      742.23259    
   3196000   290.64856      0.021145685    11.550991      721.1071      -37.156514      683.95059    
   3197000   297.27692      0.021145685    9.0685733      737.55223     -37.107513      700.44471    
   3198000   318.31612      0.021145685    11.398317      789.75106     -32.280205      757.47086    
   3199000   306.47209      0.021145685    11.377456      760.3657      -38.59847       721.76724    
   3200000   282.3333       0.021145685    11.988813      700.4767      -36.704858      663.77184    
   3201000   306.61463      0.021145685    11.252047      760.71935     -35.767034      724.95231    
   3202000   298.24096      0.021145685    11.481587      739.94405     -35.670307      704.27374    
   3203000   299.71667      0.021145685    13.007034      743.60532     -29.973343      713.63198    
   3204000   289.05999      0.021145685    11.688391      717.16581     -38.928082      678.23772    
   3205000   290.02124      0.021145685    10.155172      719.5507      -33.222028      686.32867    
   3206000   300.50598      0.021145685    7.243977       745.56363     -30.806814      714.75682    
   3207000   305.82461      0.021145685    12.210211      758.75928     -34.736959      724.02232    
   3208000   304.53526      0.021145685    17.009201      755.56038     -35.028053      720.53233    
   3209000   282.83451      0.021145685    9.6366807      701.72022     -36.637335      665.08289    
   3210000   298.98598      0.021145685    5.3200102      741.79246     -36.071608      705.72085    
   3211000   304.53261      0.021145685    11.513142      755.5538      -31.531741      724.02206    
   3212000   300.17896      0.021145685    16.065994      744.75227     -34.237488      710.51478    
   3213000   275.88993      0.021145685    20.970723      684.49053     -33.20757       651.28296    
   3214000   297.83167      0.021145685    8.082168       738.92858     -31.7505        707.17808    
   3215000   306.01079      0.021145685   -0.58358969     759.22121     -33.734101      725.48711    
   3216000   310.94883      0.021145685    12.948425      771.47261     -29.783524      741.68909    
   3217000   287.6808       0.021145685    22.952613      713.74399     -33.007647      680.73634    
   3218000   298.33294      0.021145685    6.2202369      740.17225     -34.771688      705.40056    
   3219000   316.21454      0.021145685    6.4256364      784.53699     -30.952373      753.58462    
   3220000   315.45986      0.021145685    15.8265        782.66462     -34.097032      748.56758    
   3221000   298.85457      0.021145685    13.774737      741.46643     -31.680123      709.78631    
   3222000   289.1377       0.021145685    10.777609      717.3586      -34.959377      682.39922    
   3223000   299.07501      0.021145685    6.667633       742.01335     -28.681443      713.33191    
   3224000   300.48765      0.021145685   -1.2693363      745.51815     -27.272268      718.24588    
   3225000   309.27373      0.021145685    12.197325      767.31665     -33.090062      734.22658    
   3226000   284.73776      0.021145685    18.200584      706.44222     -30.600673      675.84155    
   3227000   295.85028      0.021145685    6.7693403      734.01269     -30.998044      703.01465    
   3228000   310.91618      0.021145685    13.172535      771.39161     -32.354083      739.03753    
   3229000   299.70584      0.021145685    15.950147      743.57844     -35.3586        708.21984    
   3230000   297.57617      0.021145685    1.0292725      738.29467     -35.843251      702.45142    
   3231000   312.249        0.021145685    7.6633677      774.69838     -33.484555      741.21382    
   3232000   306.24957      0.021145685    15.781433      759.81362     -29.513335      730.30029    
   3233000   286.42672      0.021145685    9.3315772      710.63258     -27.62574       683.00684    
   3234000   299.26097      0.021145685    10.035553      742.47472     -33.886715      708.588      
   3235000   310.47516      0.021145685    9.5059588      770.29742     -30.295083      740.00234    
   3236000   308.97648      0.021145685    13.897707      766.57917     -34.941532      731.63764    
   3237000   291.89962      0.021145685    27.909221      724.21099     -32.804304      691.40669    
   3238000   298.31251      0.021145685    14.431463      740.12157     -28.604508      711.51706    
   3239000   302.54474      0.021145685    5.8041879      750.62184     -28.886524      721.73532    
   3240000   303.69108      0.021145685    10.988638      753.46593     -30.45743       723.0085     
   3241000   297.86535      0.021145685    14.129917      739.01213     -27.65543       711.3567     
   3242000   304.90046      0.021145685    10.645742      756.46645     -34.271766      722.19468    
   3243000   302.86475      0.021145685    10.405589      751.41579     -37.468219      713.94757    
   3244000   293.0437       0.021145685    12.360089      727.0495      -36.264874      690.78463    
   3245000   303.77334      0.021145685    10.283234      753.67003     -31.67104       721.99899    
   3246000   302.16337      0.021145685    10.661428      749.67566     -29.222527      720.45313    
   3247000   291.11928      0.021145685    10.726308      722.27496     -32.359537      689.91543    
   3248000   297.92433      0.021145685    9.4863949      739.15848     -35.296408      703.86207    
   3249000   309.74269      0.021145685    14.436135      768.48014     -34.288073      734.19207    
   3250000   299.59324      0.021145685    12.028866      743.29908     -36.188043      707.11104    
   3251000   285.91045      0.021145685    10.707071      709.35171     -36.247998      673.10372    
   3252000   298.80527      0.021145685    12.622886      741.3441      -33.138596      708.2055     
   3253000   309.52065      0.021145685    12.31609       767.92928     -36.657835      731.27144    
   3254000   303.45609      0.021145685    9.7831727      752.88292     -31.463995      721.41892    
   3255000   303.52826      0.021145685    11.482018      753.06198     -35.439273      717.62271    
   3256000   298.15735      0.021145685    11.949622      739.7366      -37.663921      702.07268    
   3257000   292.22592      0.021145685    12.559822      725.02056     -36.660019      688.36055    
   3258000   315.28177      0.021145685    12.915466      782.22275     -34.692035      747.53072    
   3259000   298.99072      0.021145685    8.6801292      741.80421     -29.856343      711.94787    
   3260000   296.18687      0.021145685    9.0199015      734.8478      -29.727482      705.12031    
   3261000   299.76297      0.021145685    13.35264       743.72019     -31.052428      712.66776    
   3262000   305.36272      0.021145685    12.724713      757.61333     -31.030158      726.58317    
   3263000   314.97292      0.021145685    11.313175      781.45649     -32.058756      749.39773    
   3264000   295.03859      0.021145685    11.725551      731.99886     -27.957367      704.0415     
   3265000   299.11333      0.021145685    14.169592      742.10841     -27.813995      714.29441    
   3266000   311.16222      0.021145685    12.403813      772.00205     -29.010548      742.9915     
   3267000   298.40036      0.021145685    2.9382664      740.33952     -28.762379      711.57714    
   3268000   289.76553      0.021145685    14.311335      718.91626     -26.387415      692.52885    
   3269000   304.32639      0.021145685    16.254182      755.04217     -28.439844      726.60232    
   3270000   313.42885      0.021145685    7.9638415      777.62562     -33.04252       744.5831     
   3271000   311.07029      0.021145685    2.999554       771.77396     -30.945182      740.82878    
   3272000   298.74414      0.021145685    10.871256      741.19244     -28.531554      712.66089    
   3273000   294.43434      0.021145685    27.099513      730.49971     -26.013357      704.48635    
   3274000   303.16497      0.021145685    16.716575      752.16065     -36.262352      715.8983     
   3275000   303.84552      0.021145685   -0.8962544      753.8491      -30.799893      723.04921    
   3276000   306.90959      0.021145685    12.380272      761.45116     -26.182502      735.26865    
   3277000   296.52897      0.021145685    14.83343       735.69654     -29.709488      705.98706    
   3278000   302.12408      0.021145685    11.326389      749.57818     -29.400098      720.17808    
   3279000   306.37056      0.021145685    6.811853       760.1138      -31.040618      729.07319    
   3280000   294.09615      0.021145685    13.792123      729.66066     -28.977688      700.68297    
   3281000   311.45045      0.021145685    18.517607      772.71716     -28.861549      743.85561    
   3282000   307.25664      0.021145685    0.24400134     762.31219     -27.98442       734.32777    
   3283000   294.01107      0.021145685   -0.019948266    729.44958     -32.354091      697.09548    
   3284000   284.34136      0.021145685    16.412053      705.45876     -32.258536      673.20023    
   3285000   308.19912      0.021145685    9.9849814      764.65052     -34.574048      730.07647    
   3286000   308.28989      0.021145685    3.2510532      764.87572     -27.872615      737.00311    
   3287000   288.46245      0.021145685    11.239202      715.6833      -37.57808       678.10522    
   3288000   297.80195      0.021145685    21.268817      738.85484     -32.870968      705.98387    
   3289000   299.14815      0.021145685    29.595264      742.1948      -35.150491      707.04431    
   3290000   302.5468       0.021145685    3.9071611      750.62695     -37.006527      713.62042    
   3291000   292.6007       0.021145685   -0.15294099     725.95041     -34.604708      691.3457     
   3292000   303.09983      0.021145685    18.41862       751.99903     -37.504351      714.49468    
   3293000   304.02544      0.021145685    2.5394616      754.2955      -38.499743      715.79576    
   3294000   281.42759      0.021145685    12.128897      698.22961     -34.068071      664.16154    
   3295000   308.99648      0.021145685    23.510651      766.62878     -34.941034      731.68774    
   3296000   307.80051      0.021145685    8.2449984      763.66156     -35.081459      728.5801     
   3297000   301.99199      0.021145685    11.305768      749.25044     -42.19874       707.0517     
   3298000   307.53927      0.021145685    11.176035      763.01342     -39.912361      723.10106    
   3299000   294.78613      0.021145685    11.751479      731.37251     -33.528971      697.84354    
   3300000   283.48172      0.021145685    14.986609      703.32596     -35.046524      668.27944    
   3301000   290.54369      0.021145685    8.2823193      720.8469      -34.361644      686.48525    
   3302000   303.46867      0.021145685    13.025775      752.91414     -41.103685      711.81046    
   3303000   297.33298      0.021145685    19.322825      737.69132     -35.139615      702.5517     
   3304000   297.87008      0.021145685    8.6791723      739.02388     -39.36882       699.65506    
   3305000   299.83984      0.021145685    10.354196      743.9109      -38.056077      705.85482    
   3306000   309.34408      0.021145685    13.538625      767.49118     -36.656513      730.83467    
   3307000   294.79322      0.021145685    13.310329      731.39011     -31.241787      700.14833    
   3308000   298.42676      0.021145685    9.1017284      740.40501     -33.06166       707.34335    
   3309000   314.80143      0.021145685    12.613807      781.03102     -34.58922       746.4418     
   3310000   309.2432       0.021145685    16.046412      767.2409      -40.021426      727.21948    
   3311000   296.43578      0.021145685    13.823589      735.46534     -37.142539      698.3228     
   3312000   296.66862      0.021145685    11.815972      736.04302     -36.581574      699.46144    
   3313000   302.92491      0.021145685    9.1602262      751.56504     -35.074207      716.49084    
   3314000   322.15018      0.021145685    11.590631      799.26348     -30.20327       769.06021    
   3315000   299.20463      0.021145685    9.6941176      742.33494     -26.939235      715.3957     
   3316000   290.66116      0.021145685    10.984557      721.13835     -30.068638      691.06971    
   3317000   283.24896      0.021145685    11.260085      702.74848     -33.607101      669.14138    
   3318000   309.83046      0.021145685    12.377476      768.69791     -33.411314      735.2866     
   3319000   303.18651      0.021145685    11.025351      752.21409     -38.931601      713.28249    
   3320000   298.91682      0.021145685    10.180772      741.62086     -38.221413      703.39945    
   3321000   294.22531      0.021145685    10.486498      729.9811      -36.217561      693.76354    
   3322000   305.50156      0.021145685    15.868788      757.95779     -29.882866      728.07493    
   3323000   302.17829      0.021145685    15.199111      749.71267     -24.000447      725.71222    
   3324000   308.07694      0.021145685    7.7678591      764.34739     -26.659741      737.68765    
   3325000   300.94796      0.021145685    5.6213685      746.66019     -27.191862      719.46833    
   3326000   287.77144      0.021145685    15.76141       713.96887     -31.030274      682.93859    
   3327000   288.03236      0.021145685    9.8285408      714.61623     -31.974545      682.64169    
   3328000   310.01911      0.021145685    16.631011      769.16595     -28.580298      740.58565    
   3329000   304.57476      0.021145685    11.492241      755.65837     -29.034653      726.62372    
   3330000   303.17514      0.021145685    10.8563        752.18588     -29.346209      722.83967    
   3331000   304.72322      0.021145685    8.5791696      756.02671     -28.982992      727.04371    
   3332000   292.0463       0.021145685    12.010754      724.57492     -26.84861       697.72631    
   3333000   292.95974      0.021145685    17.074869      726.84119     -28.530188      698.311      
   3334000   305.79386      0.021145685    9.9303237      758.68299     -27.679715      731.00328    
   3335000   305.368        0.021145685    11.015428      757.62642     -27.25808       730.36834    
   3336000   303.48316      0.021145685    12.483821      752.95009     -35.216664      717.73343    
   3337000   304.80159      0.021145685    12.077472      756.22116     -34.328022      721.89314    
   3338000   300.7704       0.021145685    9.8442491      746.21964     -36.294674      709.92497    
   3339000   290.30917      0.021145685    10.402357      720.26505     -35.158388      685.10666    
   3340000   298.33371      0.021145685    9.9533342      740.17415     -33.68823       706.48592    
   3341000   310.22555      0.021145685    13.552637      769.67813     -32.955836      736.7223     
   3342000   304.19051      0.021145685    11.991872      754.70504     -32.487202      722.21783    
   3343000   306.4741       0.021145685    10.43292       760.3707      -35.741974      724.62873    
   3344000   296.17192      0.021145685    12.158028      734.8107      -30.067982      704.74272    
   3345000   308.10373      0.021145685    12.615806      764.41386     -32.293854      732.12       
   3346000   286.26279      0.021145685    12.732061      710.22587     -36.089137      674.13673    
   3347000   299.84302      0.021145685    11.132318      743.91879     -34.687226      709.23157    
   3348000   306.07869      0.021145685    12.502505      759.38967     -28.581087      730.80858    
   3349000   303.80174      0.021145685    11.097081      753.7405      -34.364344      719.37615    
   3350000   294.22159      0.021145685    13.432365      729.97188     -31.269266      698.70261    
   3351000   296.86401      0.021145685    10.529427      736.52779     -31.640929      704.88686    
   3352000   302.60785      0.021145685    9.2267621      750.77841     -31.594309      719.1841     
   3353000   298.51346      0.021145685    11.91976       740.62012     -23.115514      717.50461    
   3354000   307.5269       0.021145685    12.356626      762.98272     -25.242639      737.74008    
   3355000   299.85745      0.021145685    15.041356      743.95459     -22.265558      721.68903    
   3356000   290.34318      0.021145685    10.637016      720.34944     -28.038171      692.31127    
   3357000   312.51233      0.021145685    11.304892      775.35171     -29.613536      745.73818    
   3358000   300.36337      0.021145685    10.91622       745.2098      -31.893708      713.31609    
   3359000   293.04369      0.021145685    10.57768       727.04946     -31.149448      695.90001    
   3360000   281.18868      0.021145685    11.117495      697.63687     -31.561705      666.07516    
   3361000   308.97877      0.021145685    12.437375      766.58486     -35.858999      730.72586    
   3362000   308.41368      0.021145685    11.639734      765.18284     -38.403771      726.77907    
   3363000   281.37103      0.021145685    12.327648      698.08927     -39.402544      658.68673    
   3364000   296.44741      0.021145685    9.2386626      735.49419     -37.294241      698.19995    
   3365000   310.39302      0.021145685    11.464454      770.09364     -36.709098      733.38454    
   3366000   303.2674       0.021145685    11.601463      752.41477     -35.459857      716.95491    
   3367000   294.10789      0.021145685    11.757126      729.68977     -32.674949      697.01482    
   3368000   295.24725      0.021145685    8.0300441      732.51658     -35.665422      696.85115    
   3369000   304.22817      0.021145685    10.048112      754.79847     -38.481554      716.31691    
   3370000   306.18454      0.021145685    14.500331      759.65229     -35.703041      723.94925    
   3371000   292.75862      0.021145685    11.761961      726.34221     -32.679436      693.66277    
   3372000   293.37324      0.021145685    10.640733      727.86711     -33.256686      694.61042    
   3373000   302.78842      0.021145685    11.817126      751.22642     -31.215058      720.01136    
   3374000   319.33328      0.021145685    11.086086      792.27467     -35.344017      756.93066    
   3375000   295.12485      0.021145685    10.40601       732.2129      -32.899678      699.31322    
   3376000   288.18799      0.021145685    13.283824      715.00234     -26.933784      688.06856    
   3377000   318.1751       0.021145685    11.931362      789.40118     -31.984349      757.41683    
   3378000   303.84121      0.021145685    11.684418      753.83841     -30.336284      723.50212    
   3379000   277.46304      0.021145685    9.4879954      688.39346     -37.752463      650.641      
   3380000   298.05173      0.021145685    10.557961      739.47457     -43.375145      696.09942    
   3381000   315.44819      0.021145685    12.122193      782.63566     -37.812473      744.82318    
   3382000   302.80664      0.021145685    11.112209      751.27163     -35.888088      715.38354    
   3383000   292.37091      0.021145685    11.051089      725.3803      -31.138434      694.24186    
   3384000   295.58143      0.021145685    12.566468      733.34566     -31.674415      701.67125    
   3385000   315.36032      0.021145685    11.41739       782.41764     -32.330706      750.08693    
   3386000   301.36492      0.021145685    5.8273618      747.69468     -30.15586       717.53882    
   3387000   290.75014      0.021145685    9.6516812      721.3591      -30.306527      691.05257    
   3388000   307.53663      0.021145685    15.802393      763.00685     -31.841737      731.16512    
   3389000   310.94169      0.021145685    12.733831      771.45491     -28.071405      743.38351    
   3390000   293.81886      0.021145685    5.9652222      728.97269     -25.118161      703.85452    
   3391000   295.26845      0.021145685    9.0221843      732.56917     -27.494927      705.07424    
   3392000   299.76056      0.021145685    12.968189      743.71421     -26.600584      717.11362    
   3393000   298.91192      0.021145685    10.675972      741.60872     -29.326618      712.2821     
   3394000   303.9962       0.021145685    12.362532      754.22295     -34.307866      719.91509    
   3395000   307.60382      0.021145685    12.160153      763.17356     -30.635458      732.5381     
   3396000   300.13283      0.021145685    17.316126      744.63782     -34.766022      709.8718     
   3397000   279.58623      0.021145685    10.055524      693.66113     -35.381808      658.27932    
   3398000   299.28593      0.021145685    8.7629518      742.53664     -40.546545      701.99009    
   3399000   312.07327      0.021145685    13.749091      774.26239     -37.088404      737.17398    
   3400000   298.42856      0.021145685    12.103058      740.4095      -37.268543      703.14095    
   3401000   304.43824      0.021145685    3.6541885      755.31966     -32.427746      722.89191    
   3402000   307.6914       0.021145685    13.309031      763.39085     -34.041363      729.34949    
   3403000   319.64749      0.021145685    13.191762      793.05424     -28.68362       764.37062    
   3404000   288.82347      0.021145685    11.278063      716.57898     -31.671477      684.9075     
   3405000   301.7105       0.021145685    6.1200027      748.55207     -35.145019      713.40705    
   3406000   317.96259      0.021145685    10.235382      788.87396     -36.518597      752.35536    
   3407000   308.60784      0.021145685    13.403112      765.66457     -29.710866      735.9537     
   3408000   293.25679      0.021145685    12.873118      727.57817     -30.487336      697.09084    
   3409000   291.16529      0.021145685    10.827048      722.38912     -32.354368      690.03475    
   3410000   297.75112      0.021145685    11.137017      738.72874     -32.086321      706.64242    
   3411000   310.59067      0.021145685    11.483687      770.58401     -37.340296      733.24371    
   3412000   295.40119      0.021145685    11.865009      732.89849     -46.027467      686.87102    
   3413000   290.46861      0.021145685    11.572255      720.66063     -45.618217      675.04241    
   3414000   301.23775      0.021145685    9.0405412      747.37916     -40.655162      706.724      
   3415000   305.0676       0.021145685    10.879666      756.88112     -38.891753      717.98936    
   3416000   300.29795      0.021145685    11.168171      745.0475      -35.618369      709.42913    
   3417000   293.77194      0.021145685    10.293487      728.85629     -38.233607      690.62268    
   3418000   304.07336      0.021145685    12.19848       754.41438     -41.869235      712.54515    
   3419000   303.14359      0.021145685    12.216841      752.10759     -39.655635      712.45196    
   3420000   305.92614      0.021145685    12.769843      759.01118     -40.935839      718.07534    
   3421000   292.91827      0.021145685    6.559999       726.73831     -35.222701      691.5156     
   3422000   302.63625      0.021145685    12.188516      750.84887     -40.949677      709.8992     
   3423000   290.11176      0.021145685    12.619797      719.77527     -40.378214      679.39705    
   3424000   291.49085      0.021145685    19.683942      723.19683     -42.077531      681.1193     
   3425000   309.86509      0.021145685    10.446978      768.78383     -37.751222      731.03261    
   3426000   310.66708      0.021145685    8.451888       770.7736      -39.300097      731.4735     
   3427000   289.67038      0.021145685    12.192169      718.68021     -34.670587      684.00962    
   3428000   306.68223      0.021145685    15.96324       760.88707     -35.272219      725.61486    
   3429000   318.07519      0.021145685    14.06248       789.15332     -35.793125      753.3602     
   3430000   295.81683      0.021145685    10.39308       733.9297      -33.448098      700.48161    
   3431000   285.98425      0.021145685    16.621057      709.5348      -32.647004      676.8878     
   3432000   305.08088      0.021145685    13.006823      756.91408     -40.283418      716.63066    
   3433000   296.68443      0.021145685    11.967333      736.08224     -41.360072      694.72217    
   3434000   293.03097      0.021145685    6.9253331      727.01791     -42.067053      684.95086    
   3435000   290.94213      0.021145685    1.2043541      721.83543     -44.237225      677.59821    
   3436000   309.33913      0.021145685    18.994465      767.47891     -44.001001      723.47791    
   3437000   313.63935      0.021145685    8.9335534      778.14787     -47.033078      731.11479    
   3438000   297.57808      0.021145685    7.2109697      738.29942     -40.380657      697.91877    
   3439000   294.99574      0.021145685    15.919194      731.89256     -37.490047      694.40251    
   3440000   309.21717      0.021145685    11.384496      767.17632     -38.200621      728.9757     
   3441000   297.42468      0.021145685    9.6423311      737.91884     -32.501562      705.41728    
   3442000   306.6021       0.021145685    13.304458      760.68825     -34.329216      726.35903    
   3443000   324.83353      0.021145685    13.242159      805.92094     -35.107408      770.81353    
   3444000   291.30071      0.021145685    7.9375226      722.7251      -35.243402      687.4817     
   3445000   294.22486      0.021145685    9.0373772      729.97999     -36.14808       693.83191    
   3446000   304.98218      0.021145685    17.006135      756.66919     -33.229723      723.43947    
   3447000   295.83386      0.021145685    13.03886       733.97197     -32.290048      701.68193    
   3448000   299.51286      0.021145685    7.6419926      743.09965     -32.866512      710.23314    
   3449000   294.97649      0.021145685    9.2399871      731.84481     -33.68313       698.16168    
   3450000   298.19719      0.021145685    11.476411      739.83545     -32.840129      706.99532    
   3451000   298.03723      0.021145685    12.558911      739.43859     -31.281984      708.15661    
   3452000   306.37943      0.021145685    10.560502      760.13582     -35.863281      724.27254    
   3453000   290.41497      0.021145685    9.1696518      720.52756     -38.222116      682.30544    
   3454000   305.09247      0.021145685    10.703452      756.94283     -39.460853      717.48198    
   3455000   306.06878      0.021145685    10.915783      759.36509     -41.224254      718.14083    
   3456000   309.43638      0.021145685    12.805921      767.72018     -42.36223       725.35795    
   3457000   301.05553      0.021145685    11.677758      746.92708     -43.118767      703.80831    
   3458000   291.38038      0.021145685    10.654815      722.92277     -40.281665      682.6411     
   3459000   301.63698      0.021145685    10.412832      748.36967     -38.369648      710.00003    
   3460000   300.62895      0.021145685    11.112137      745.8687      -40.224797      705.6439     
   3461000   304.56512      0.021145685    11.574662      755.63447     -36.277815      719.35665    
   3462000   288.16297      0.021145685    17.796661      714.94026     -33.414811      681.52545    
   3463000   296.88746      0.021145685    12.387708      736.58598     -36.989591      699.59639    
   3464000   303.31998      0.021145685    10.548644      752.54523     -43.743806      708.80143    
   3465000   297.3744       0.021145685    12.117662      737.79408     -39.134286      698.6598     
   3466000   297.00143      0.021145685    11.854519      736.86873     -37.892872      698.97585    
   3467000   302.86579      0.021145685    10.193286      751.41836     -39.776927      711.64144    
   3468000   305.17481      0.021145685    9.4517493      757.14712     -40.100903      717.04622    
   3469000   299.15537      0.021145685    13.322778      742.21272     -40.27874       701.93398    
   3470000   295.41903      0.021145685    9.4897775      732.94276     -42.650582      690.29218    
   3471000   298.88718      0.021145685    12.145296      741.54734     -43.997798      697.54954    
   3472000   303.82214      0.021145685    11.194449      753.7911      -41.933664      711.85744    
   3473000   301.25147      0.021145685    11.065848      747.4132      -42.37672       705.03648    
   3474000   298.53748      0.021145685    7.754537       740.67972     -37.982648      702.69707    
   3475000   293.22161      0.021145685    13.755579      727.49088     -37.147835      690.34305    
   3476000   297.71964      0.021145685    10.181973      738.65063     -38.880449      699.77018    
   3477000   307.00618      0.021145685    7.7505008      761.69079     -39.382041      722.30875    
   3478000   309.61953      0.021145685    7.7620378      768.17459     -40.371248      727.80334    
   3479000   294.98301      0.021145685    15.427547      731.86099     -38.544042      693.31695    
   3480000   294.58801      0.021145685    12.09476       730.88097     -38.305276      692.5757     
   3481000   313.74204      0.021145685    15.609618      778.40266     -29.86886       748.5338     
   3482000   310.95638      0.021145685    15.587795      771.49134     -33.607707      737.88364    
   3483000   310.22117      0.021145685    11.17586       769.66726     -33.852137      735.81513    
   3484000   303.49817      0.021145685    11.149561      752.98734     -30.957933      722.0294     
   3485000   299.22412      0.021145685    10.632327      742.3833      -33.990339      708.39296    
   3486000   302.11725      0.021145685    12.854677      749.56121     -33.995384      715.56583    
   3487000   291.91673      0.021145685    12.749413      724.25345     -34.684415      689.56904    
   3488000   306.17807      0.021145685    12.287675      759.63624     -36.315013      723.32123    
   3489000   307.9019       0.021145685    11.025913      763.91309     -29.076322      734.83677    
   3490000   281.92856      0.021145685    9.8913408      699.47253     -33.728284      665.74425    
   3491000   301.36872      0.021145685    9.3644014      747.70411     -35.20702       712.49709    
   3492000   314.77644      0.021145685    14.368226      780.96902     -34.922961      746.04606    
   3493000   291.69197      0.021145685    11.686076      723.69582     -33.229473      690.46635    
   3494000   290.42461      0.021145685    8.9480169      720.55146     -34.906344      685.64512    
   3495000   304.55406      0.021145685    5.9952842      755.60701     -38.742654      716.86435    
   3496000   317.51377      0.021145685    13.611286      787.76043     -37.19521       750.56522    
   3497000   291.4709       0.021145685    12.944037      723.14733     -42.210985      680.93635    
   3498000   296.58901      0.021145685    13.964508      735.84552     -35.008393      700.83713    
   3499000   300.76702      0.021145685    10.444026      746.21127     -39.025538      707.18573    
   3500000   307.29324      0.021145685    11.646323      762.40299     -38.229615      724.17337    
   3501000   295.7651       0.021145685    9.9577016      733.80136     -36.002888      697.79847    
   3502000   310.51772      0.021145685    13.307718      770.40303     -40.439177      729.96386    
   3503000   307.2503       0.021145685    7.5039477      762.29648     -40.564777      721.7317     
   3504000   287.39445      0.021145685    9.7580977      713.03356     -38.617456      674.41611    
   3505000   296.9496       0.021145685    10.642456      736.74013     -38.706128      698.034      
   3506000   301.99803      0.021145685    15.189896      749.26543     -33.834092      715.43133    
   3507000   315.17547      0.021145685    12.037083      781.95903     -35.731761      746.22727    
   3508000   298.59202      0.021145685    9.400917       740.81503     -34.356566      706.45847    
   3509000   282.50567      0.021145685    14.41055       700.90435     -31.723936      669.18041    
   3510000   303.02214      0.021145685    18.862778      751.80629     -31.918317      719.88797    
   3511000   308.09533      0.021145685    12.051507      764.393       -31.319531      733.07347    
   3512000   306.17674      0.021145685    13.011184      759.63294     -30.428453      729.20449    
   3513000   296.66999      0.021145685    12.379         736.04641     -32.090236      703.95618    
   3514000   297.04692      0.021145685    10.333276      736.98161     -29.068917      707.91269    
   3515000   303.65839      0.021145685    13.500676      753.38483     -29.251239      724.13359    
   3516000   302.11022      0.021145685    12.095545      749.54378     -36.456854      713.08692    
   3517000   286.12981      0.021145685    13.942724      709.89595     -32.3484        677.54755    
   3518000   295.70321      0.021145685    8.4126205      733.64782     -35.250211      698.3976     
   3519000   324.16042      0.021145685    12.414993      804.25093     -40.945419      763.30551    
   3520000   313.06741      0.021145685    12.778392      776.72886     -41.992162      734.7367     
   3521000   287.21844      0.021145685    9.5516109      712.59687     -44.677679      667.91919    
   3522000   291.76055      0.021145685    7.4727609      723.86596     -39.946057      683.91991    
   3523000   295.01576      0.021145685    12.691421      731.94223     -39.028241      692.91399    
   3524000   299.70719      0.021145685    11.539565      743.58179     -37.759131      705.82266    
   3525000   296.65053      0.021145685    10.328077      735.99814     -36.164147      699.83399    
   3526000   297.55639      0.021145685    12.08689       738.2456      -33.395358      704.85024    
   3527000   299.02647      0.021145685    10.587441      741.89291     -34.82148       707.07143    
   3528000   295.60134      0.021145685    10.324146      733.39508     -36.481538      696.91355    
   3529000   299.24521      0.021145685    9.1884273      742.43561     -38.113753      704.32186    
   3530000   302.33606      0.021145685    11.141729      750.10409     -37.032377      713.07172    
   3531000   288.46336      0.021145685    5.82251        715.68555     -36.126543      679.55901    
   3532000   301.88737      0.021145685    15.235908      748.9909      -35.843445      713.14745    
   3533000   307.25351      0.021145685    13.226468      762.30443     -38.913157      723.39128    
   3534000   309.20862      0.021145685    11.996257      767.15511     -38.681049      728.47406    
   3535000   302.75358      0.021145685    13.583865      751.13997     -40.770821      710.36915    
   3536000   281.5586       0.021145685    12.414378      698.55465     -32.950993      665.60365    
   3537000   298.22654      0.021145685    7.8338944      739.90827     -39.012192      700.89608    
   3538000   301.35635      0.021145685    9.4965736      747.6734      -33.173598      714.4998     
   3539000   303.79215      0.021145685    11.601983      753.7167      -32.500381      721.21632    
   3540000   296.1528       0.021145685    12.460129      734.76325     -35.185231      699.57802    
   3541000   299.98323      0.021145685    10.542931      744.26667     -31.013942      713.25273    
   3542000   302.52982      0.021145685    6.8743714      750.58481     -37.349076      713.23574    
   3543000   312.43177      0.021145685    12.782669      775.15184     -35.927628      739.22421    
   3544000   297.07649      0.021145685    12.958181      737.05495     -36.110495      700.94445    
   3545000   291.41505      0.021145685    11.2816        723.00877     -32.196562      690.81221    
   3546000   305.4299       0.021145685    9.2241206      757.78        -37.336478      720.44352    
   3547000   307.86099      0.021145685    13.337216      763.81161     -34.432474      729.37914    
   3548000   293.06988      0.021145685    14.509556      727.11446     -30.232691      696.88177    
   3549000   308.20702      0.021145685    4.8600232      764.6701      -28.169985      736.50012    
   3550000   315.8724       0.021145685    18.260921      783.68813     -31.168545      752.51958    
   3551000   289.51112      0.021145685    10.728678      718.28506     -38.841299      679.44376    
   3552000   298.46477      0.021145685    8.6998771      740.49931     -36.009295      704.49002    
   3553000   296.53487      0.021145685    22.439458      735.7112      -33.095154      702.61604    
   3554000   297.78165      0.021145685    5.965625       738.80449     -35.310188      703.4943     
   3555000   303.27951      0.021145685    3.6724875      752.44483     -30.916794      721.52804    
   3556000   301.11565      0.021145685    8.776633       747.07622     -36.541015      710.5352     
   3557000   304.58179      0.021145685    24.806776      755.67582     -36.363647      719.31217    
   3558000   307.18262      0.021145685    10.983741      762.12856     -39.833515      722.29504    
   3559000   301.03084      0.021145685    7.3657924      746.86581     -36.724186      710.14162    
   3560000   298.78512      0.021145685    10.044697      741.29412     -39.364882      701.92924    
   3561000   315.18927      0.021145685    16.231181      781.99328     -38.778941      743.21433    
   3562000   291.81046      0.021145685    16.302935      723.98979     -34.400753      689.58903    
   3563000   294.94445      0.021145685    5.6081575      731.76531     -34.725138      697.04017    
   3564000   307.65387      0.021145685    10.902546      763.29773     -30.253609      733.04412    
   3565000   308.66769      0.021145685    15.963451      765.81305     -33.201612      732.61144    
   3566000   276.12159      0.021145685    8.5780059      685.06526     -34.010265      651.055      
   3567000   305.56575      0.021145685    7.5365148      758.11704     -31.676149      726.44089    
   3568000   315.09734      0.021145685    18.458904      781.76518     -32.04256       749.72262    
   3569000   293.45162      0.021145685    12.521266      728.06157     -30.87957       697.182      
   3570000   294.24096      0.021145685    11.517596      730.01993     -33.764429      696.2555     
   3571000   303.38703      0.021145685    11.448207      752.71157     -26.954599      725.75697    
   3572000   305.98477      0.021145685    10.749752      759.15666     -26.946953      732.20971    
   3573000   301.52846      0.021145685    11.782748      748.10043     -26.697728      721.4027     
   3574000   301.49627      0.021145685    11.132933      748.02056     -28.816303      719.20426    
   3575000   310.18484      0.021145685    11.460164      769.57714     -24.756714      744.82042    
   3576000   286.60028      0.021145685    11.136395      711.06319     -19.931767      691.13142    
   3577000   291.90997      0.021145685    11.545245      724.23668     -31.409969      692.82671    
   3578000   299.22776      0.021145685    13.297373      742.39232     -26.683227      715.7091     
   3579000   304.93985      0.021145685    8.0753199      756.56418     -29.544431      727.01974    
   3580000   294.90944      0.021145685    6.6910389      731.67845     -27.963512      703.71493    
   3581000   293.41929      0.021145685    8.9295122      727.98136     -27.557007      700.42435    
   3582000   291.40918      0.021145685    11.101823      722.99422     -25.451349      697.54287    
   3583000   305.23131      0.021145685    14.695375      757.28729     -28.920779      728.36651    
   3584000   318.81765      0.021145685    7.2152024      790.99538     -29.911374      761.08401    
   3585000   295.93707      0.021145685    0.091234319    734.22802     -31.353297      702.87473    
   3586000   287.87811      0.021145685    2.6088935      714.23353     -31.381058      682.85247    
   3587000   293.31838      0.021145685    29.522181      727.731       -33.110742      694.62025    
   3588000   312.61554      0.021145685    16.921451      775.60777     -33.090935      742.51683    
   3589000   302.15236      0.021145685    0.13687659     749.64833     -32.495104      717.15322    
   3590000   287.01677      0.021145685    4.5049142      712.09653     -34.9017        677.19483    
   3591000   312.49681      0.021145685    18.185923      775.3132      -35.04182       740.27138    
   3592000   301.74605      0.021145685    8.7369977      748.64026     -34.451561      714.1887     
   3593000   294.79689      0.021145685   -1.6244089      731.39922     -35.5552        695.84402    
   3594000   281.49143      0.021145685    15.84028       698.38799     -38.983037      659.40496    
   3595000   307.02464      0.021145685    15.201532      761.7366      -35.651302      726.08529    
   3596000   316.95855      0.021145685    20.374711      786.3829      -33.401097      752.9818     
   3597000   293.93975      0.021145685    8.1358138      729.27263     -36.2124        693.06023    
   3598000   292.71375      0.021145685    16.863195      726.23088     -36.189157      690.04172    
   3599000   310.84521      0.021145685    16.796742      771.21554     -42.537415      728.67812    
   3600000   301.79125      0.021145685    9.8034017      748.7524      -41.993205      706.7592     
   3601000   289.76424      0.021145685   -0.7129573      718.91308     -39.543772      679.36931    
   3602000   301.21804      0.021145685    10.937004      747.33026     -37.949632      709.38063    
   3603000   299.53701      0.021145685    15.612542      743.15957     -35.562262      707.59731    
   3604000   291.92284      0.021145685    13.126772      724.2686      -36.356873      687.91173    
   3605000   313.79397      0.021145685    15.640419      778.5315      -41.053412      737.47808    
   3606000   303.31641      0.021145685    9.3613689      752.53638     -41.377876      711.1585     
   3607000   301.97297      0.021145685    11.064296      749.20327     -41.759171      707.4441     
   3608000   280.71768      0.021145685    12.16637       696.46831     -40.238065      656.23024    
   3609000   296.03737      0.021145685    14.488983      734.47687     -35.332321      699.14455    
   3610000   318.03087      0.021145685    9.1131969      789.04335     -33.885356      755.15799    
   3611000   290.6596       0.021145685    11.04426       721.13448     -36.40414       684.73034    
   3612000   287.27738      0.021145685    11.991607      712.7431      -35.234445      677.50865    
   3613000   304.22007      0.021145685    12.23813       754.77837     -36.050277      718.72809    
   3614000   310.94789      0.021145685    12.266764      771.47029     -31.742116      739.72818    
   3615000   303.71354      0.021145685    12.486238      753.52166     -34.986219      718.53544    
   3616000   298.62526      0.021145685    7.2990184      740.8975      -36.905249      703.99225    
   3617000   301.82151      0.021145685    7.2273095      748.8275      -37.244254      711.58324    
   3618000   307.83889      0.021145685    11.335587      763.75677     -35.422868      728.33391    
   3619000   306.50531      0.021145685    14.07593       760.44812     -32.94992       727.4982     
   3620000   297.01324      0.021145685    10.693765      736.89803     -36.354044      700.54399    
   3621000   309.99353      0.021145685    12.696864      769.1025      -37.132092      731.97041    
   3622000   299.72406      0.021145685    11.880185      743.62367     -40.641206      702.98246    
   3623000   295.83346      0.021145685    10.629336      733.97096     -38.97279       694.99817    
   3624000   296.36447      0.021145685    8.3459016      735.28842     -38.433153      696.85527    
   3625000   298.53039      0.021145685    6.8748128      740.66212     -36.781752      703.88037    
   3626000   297.90849      0.021145685    13.033595      739.11918     -41.93922       697.17996    
   3627000   310.17164      0.021145685    18.881936      769.5444      -47.241348      722.30305    
   3628000   298.27528      0.021145685    20.984533      740.02919     -37.11937       702.90982    
   3629000   288.88796      0.021145685   -1.0375184      716.739       -39.985277      676.75373    
   3630000   309.07447      0.021145685    7.3589827      766.82227     -44.062981      722.75929    
   3631000   313.0151       0.021145685    27.681174      776.59909     -40.954395      735.64469    
   3632000   290.82295      0.021145685    30.673329      721.53976     -37.747685      683.79207    
   3633000   296.60136      0.021145685    16.189347      735.87616     -45.250401      690.62576    
   3634000   298.57126      0.021145685    8.6376526      740.76352     -43.138179      697.62534    
   3635000   309.50129      0.021145685    11.128506      767.88123     -39.786023      728.09521    
   3636000   307.59006      0.021145685    20.089137      763.13942     -42.121703      721.01772    
   3637000   294.79145      0.021145685    11.074753      731.38571     -38.89131       692.4944     
   3638000   308.60385      0.021145685    12.463047      765.65465     -38.929251      726.7254     
   3639000   291.85895      0.021145685    10.037012      724.1101      -34.800767      689.30933    
   3640000   298.84718      0.021145685    8.1127361      741.4481      -31.921953      709.52614    
   3641000   312.64651      0.021145685    12.337151      775.68461     -33.882583      741.80203    
   3642000   293.48055      0.021145685    12.343126      728.13334     -32.410845      695.72249    
   3643000   295.1988       0.021145685    10.708627      732.39635     -34.981024      697.41532    
   3644000   302.08041      0.021145685    11.9218        749.46983     -30.239802      719.23003    
   3645000   298.59334      0.021145685    9.3996991      740.81831     -32.905553      707.91276    
   3646000   290.29756      0.021145685    11.488023      720.23626     -31.479463      688.75679    
   3647000   299.03109      0.021145685    12.289876      741.90437     -29.451919      712.45246    
   3648000   312.70365      0.021145685    11.852212      775.82638     -25.294361      750.53202    
   3649000   304.67045      0.021145685    8.4356164      755.89579     -24.983431      730.91236    
   3650000   286.31885      0.021145685    8.3042021      710.36496     -25.503345      684.86162    
   3651000   297.08622      0.021145685    12.446464      737.0791      -25.951688      711.12741    
   3652000   305.13023      0.021145685    13.703617      757.03651     -28.247187      728.78932    
   3653000   307.0741       0.021145685    10.201362      761.85932     -29.182145      732.67717    
   3654000   306.05663      0.021145685    8.6534415      759.33493     -27.90841       731.42652    
   3655000   285.74478      0.021145685    2.90084        708.94068     -26.194074      682.74661    
   3656000   296.01941      0.021145685    19.185071      734.43233     -23.982991      710.44934    
   3657000   314.53304      0.021145685    15.91095       780.36513     -23.258846      757.10629    
   3658000   304.88819      0.021145685    9.4594897      756.43601     -27.335362      729.10064    
   3659000   288.20246      0.021145685    11.841849      715.03825     -26.46736       688.57089    
   3660000   283.91579      0.021145685    14.780906      704.4029      -22.873192      681.52971    
   3661000   309.0068       0.021145685    12.216301      766.65439     -23.378876      743.27551    
   3662000   303.37191      0.021145685    11.260457      752.67407     -26.682272      725.9918     
   3663000   285.86935      0.021145685    10.752093      709.24975     -28.220341      681.02941    
   3664000   300.21383      0.021145685    13.339949      744.83878     -34.701376      710.1374     
   3665000   307.41593      0.021145685    12.244692      762.70739     -34.119648      728.58775    
   3666000   307.15462      0.021145685    9.7051812      762.05909     -32.110571      729.94852    
   3667000   284.36586      0.021145685    6.5130638      705.51954     -22.270911      683.24863    
   3668000   283.61902      0.021145685    13.54366       703.66661     -28.290621      675.37599    
   3669000   309.15374      0.021145685    32.412818      767.01896     -28.682412      738.33655    
   3670000   313.10369      0.021145685    7.7664141      776.81887     -29.767827      747.05105    
   3671000   307.57217      0.021145685   -1.1659546      763.09504     -28.059061      735.03597    
   3672000   281.47389      0.021145685    5.3860979      698.34449     -24.692151      673.65234    
   3673000   305.81475      0.021145685    15.226755      758.73483     -30.975921      727.75891    
   3674000   310.29444      0.021145685    2.4687526      769.84906     -29.113609      740.73545    
   3675000   302.51112      0.021145685    6.9361088      750.53843     -34.483583      716.05485    
   3676000   292.67305      0.021145685    8.371403       726.12989     -33.200523      692.92937    
   3677000   293.23218      0.021145685    15.079732      727.51712     -33.407657      694.10946    
   3678000   312.98073      0.021145685    20.159391      776.51382     -31.823654      744.69016    
   3679000   300.27002      0.021145685    4.9936925      744.97819     -34.707468      710.27073    
   3680000   294.81297      0.021145685    8.9097413      731.4391      -27.645291      703.79381    
   3681000   299.19724      0.021145685    14.704495      742.3166      -30.515198      711.8014     
   3682000   324.54628      0.021145685    13.20843       805.20828     -33.465189      771.74309    
   3683000   308.43281      0.021145685    11.090764      765.23031     -37.310011      727.9203     
   3684000   293.54237      0.021145685    7.7793263      728.2867      -39.234335      689.05236    
   3685000   287.6052       0.021145685    8.7663807      713.55643     -35.528302      678.02812    
   3686000   302.58863      0.021145685    11.015942      750.73072     -38.181009      712.54971    
   3687000   308.32262      0.021145685    7.8355488      764.95691     -37.235412      727.7215     
   3688000   288.34897      0.021145685    10.777872      715.40175     -34.3687        681.03305    
   3689000   290.86594      0.021145685    9.9319122      721.64641     -38.229149      683.41726    
   3690000   300.67719      0.021145685    16.318304      745.98839     -37.727096      708.2613     
   3691000   302.25942      0.021145685    11.11624       749.91395     -36.427993      713.48596    
   3692000   293.02317      0.021145685    12.333223      726.99856     -33.907113      693.09145    
   3693000   292.63554      0.021145685    10.560845      726.03683     -35.688527      690.3483     
   3694000   300.47532      0.021145685    4.4866407      745.48754     -36.1316        709.35594    
   3695000   304.62123      0.021145685    10.502135      755.77366     -28.722987      727.05067    
   3696000   305.35258      0.021145685    13.158692      757.58817     -33.669998      723.91817    
   3697000   302.37021      0.021145685    11.315086      750.18883     -38.034233      712.1546     
   3698000   304.60971      0.021145685    10.153209      755.74508     -33.111952      722.63313    
   3699000   301.99213      0.021145685    14.662441      749.25079     -30.914594      718.3362     
   3700000   285.14312      0.021145685    11.838929      707.44793     -28.385654      679.06228    
   3701000   308.89769      0.021145685    11.688377      766.38368     -26.862406      739.52127    
   3702000   313.6622       0.021145685    12.029701      778.20456     -30.302126      747.90243    
   3703000   296.74904      0.021145685    11.195139      736.24255     -36.450512      699.79204    
   3704000   291.10253      0.021145685    11.61555       722.23341     -37.567213      684.66619    
   3705000   314.69214      0.021145685    11.049218      780.75986     -37.85265       742.90721    
   3706000   301.1971       0.021145685    13.291526      747.27832     -33.66516       713.61316    
   3707000   283.4528       0.021145685    10.147096      703.25422     -35.72981       667.52441    
   3708000   313.33197      0.021145685    10.888197      777.38525     -35.079262      742.30598    
   3709000   306.53587      0.021145685    13.115244      760.52395     -30.995065      729.52889    
   3710000   288.29641      0.021145685    11.742677      715.27134     -29.881813      685.38952    
   3711000   294.73337      0.021145685    14.443591      731.24163     -35.394125      695.8475     
   3712000   307.61117      0.021145685    11.011666      763.19179     -33.022623      730.16917    
   3713000   310.69173      0.021145685    9.3964558      770.83474     -35.284278      735.55046    
   3714000   296.10582      0.021145685    10.751325      734.64669     -32.593655      702.05304    
   3715000   290.22469      0.021145685    12.313808      720.05545     -33.245462      686.80998    
   3716000   310.09566      0.021145685    10.509523      769.35588     -35.954367      733.40151    
   3717000   303.65417      0.021145685    10.934062      753.37437     -34.711574      718.66279    
   3718000   302.32895      0.021145685    12.016868      750.08646     -29.896205      720.19025    
   3719000   304.41563      0.021145685    11.640803      755.26357     -27.049066      728.2145     
   3720000   308.18292      0.021145685    12.22856       764.61033     -25.480693      739.12963    
   3721000   295.7713       0.021145685    9.5749048      733.81675     -32.054482      701.76227    
   3722000   304.001        0.021145685    10.878889      754.23486     -30.320052      723.91481    
   3723000   301.37799      0.021145685    10.775432      747.72711     -36.436602      711.29051    
   3724000   311.00973      0.021145685    11.248214      771.62372     -34.176364      737.44736    
   3725000   300.96006      0.021145685    11.115899      746.6902      -27.666504      719.02369    
   3726000   291.34074      0.021145685    6.1328879      722.8244      -34.143452      688.68095    
   3727000   303.8431       0.021145685    13.580339      753.84311     -30.742637      723.10048    
   3728000   315.04749      0.021145685    15.476504      781.64151     -32.49965       749.14186    
   3729000   287.51856      0.021145685    10.00715       713.34147     -32.391406      680.95007    
   3730000   299.35855      0.021145685    9.1629296      742.71683     -33.478115      709.23871    
   3731000   310.11723      0.021145685    13.587931      769.4094      -31.19656       738.21284    
   3732000   292.18568      0.021145685    11.512854      724.92072     -36.063422      688.8573     
   3733000   295.9749       0.021145685    11.7583        734.32189     -35.510067      698.81182    
   3734000   305.42088      0.021145685    12.306497      757.75763     -33.340445      724.41719    
   3735000   296.09725      0.021145685    11.090666      734.62545     -36.786363      697.83909    
   3736000   289.427        0.021145685    11.04157       718.07636     -34.994373      683.08198    
   3737000   295.95407      0.021145685    11.067196      734.2702      -35.73583       698.53437    
   3738000   314.65649      0.021145685    11.979842      780.67144     -36.287938      744.3835     
   3739000   302.18113      0.021145685    13.033312      749.7197      -41.285434      708.43427    
   3740000   297.14457      0.021145685    11.537309      737.22388     -32.603625      704.62025    
   3741000   306.33513      0.021145685    1.9072357      760.0259      -30.402846      729.62305    
   3742000   304.36942      0.021145685    12.536719      755.14891     -35.346748      719.80216    
   3743000   304.26692      0.021145685    16.121939      754.89461     -36.344876      718.54974    
   3744000   299.05677      0.021145685    9.1241923      741.9681      -35.830729      706.13737    
   3745000   310.52917      0.021145685    2.9591735      770.43142     -34.368097      736.06332    
   3746000   297.20121      0.021145685    15.227179      737.36438     -30.996851      706.36753    
   3747000   291.90406      0.021145685    13.405335      724.22202     -32.135627      692.08639    
   3748000   302.93394      0.021145685    8.4432262      751.58746     -28.60173       722.98572    
   3749000   313.23282      0.021145685   -0.90660826     777.13925     -28.987682      748.15157    
   3750000   293.12117      0.021145685    18.466684      727.2417      -30.600215      696.64149    
   3751000   279.49422      0.021145685    8.9812134      693.43286     -30.760091      662.67277    
   3752000   312.29983      0.021145685    4.2131692      774.82448     -26.235406      748.58907    
   3753000   307.54899      0.021145685    9.1410066      763.03753     -26.227356      736.81017    
   3754000   299.34105      0.021145685    17.339445      742.6734      -26.29716       716.37624    
   3755000   295.38091      0.021145685    11.994155      732.84818     -24.076806      708.77137    
   3756000   303.09698      0.021145685    11.857961      751.99195     -23.050357      728.9416     
   3757000   292.24195      0.021145685    10.827767      725.06032     -24.481487      700.57884    
   3758000   301.90092      0.021145685    11.0874        749.02451     -23.420713      725.6038     
   3759000   295.06651      0.021145685    11.278067      732.06815     -30.400382      701.66777    
   3760000   304.77736      0.021145685    12.14307       756.16103     -31.572515      724.58852    
   3761000   305.79946      0.021145685    11.240084      758.69689     -29.965141      728.73175    
   3762000   296.72649      0.021145685    11.590543      736.1866      -30.996319      705.19028    
   3763000   305.2427       0.021145685    10.622016      757.31555     -35.66643       721.64912    
   3764000   295.09544      0.021145685    10.567415      732.13991     -33.19132       698.94859    
   3765000   302.25955      0.021145685    11.698195      749.91428     -28.715479      721.1988     
   3766000   305.59398      0.021145685    10.315188      758.18709     -30.905528      727.28156    
   3767000   295.96664      0.021145685    10.106104      734.3014      -30.392123      703.90928    
   3768000   290.61492      0.021145685    13.680641      721.02362     -28.935845      692.08777    
   3769000   318.78938      0.021145685    11.216857      790.92524     -35.221099      755.70415    
   3770000   294.7865       0.021145685    10.817452      731.37343     -29.544374      701.82906    
   3771000   282.91902      0.021145685    10.384285      701.92989     -31.995054      669.93484    
   3772000   299.58019      0.021145685    11.045954      743.2667      -34.226706      709.04       
   3773000   306.34616      0.021145685    12.142878      760.05326     -30.20827       729.84499    
   3774000   290.36003      0.021145685    10.671464      720.39123     -29.878493      690.51274    
   3775000   296.72842      0.021145685    10.828552      736.19138     -35.241775      700.94961    
   3776000   293.86774      0.021145685    12.681623      729.09396     -35.031034      694.06293    
   3777000   297.96293      0.021145685    9.5667787      739.25424     -34.98286       704.27138    
   3778000   320.99222      0.021145685    11.660319      796.39053     -30.877442      765.51309    
   3779000   298.15025      0.021145685    14.33673       739.71898     -35.254449      704.46453    
   3780000   285.46527      0.021145685    10.951111      708.24721     -35.397769      672.84944    
   3781000   303.9085       0.021145685    19.087501      754.00536     -38.481677      715.52368    
   3782000   296.74728      0.021145685    15.592188      736.23818     -33.583593      702.65459    
   3783000   295.98219      0.021145685    7.5748397      734.33997     -39.194431      695.14554    
   3784000   301.20718      0.021145685    10.465242      747.30331     -32.66606       714.63725    
   3785000   287.13578      0.021145685    16.109791      712.39179     -31.722595      680.6692     
   3786000   300.53028      0.021145685    10.541616      745.6239      -31.613727      714.01017    
   3787000   311.1378       0.021145685    11.365708      771.94147     -35.286639      736.65483    
   3788000   299.38671      0.021145685    10.142796      742.78669     -31.666335      711.12036    
   3789000   305.21636      0.021145685    11.111526      757.25021     -39.485859      717.76435    
   3790000   309.01845      0.021145685    12.053226      766.6833      -33.819662      732.86364    
   3791000   289.51401      0.021145685    10.555544      718.29225     -34.885471      683.40677    
   3792000   288.2923       0.021145685    10.091881      715.26115     -34.497317      680.76384    
   3793000   308.87627      0.021145685    11.856924      766.33054     -34.679124      731.65142    
   3794000   317.43726      0.021145685    12.700844      787.57058     -35.488761      752.08182    
   3795000   293.49936      0.021145685    10.662582      728.17999     -38.794609      689.38538    
   3796000   305.35264      0.021145685    13.163926      757.58832     -39.108024      718.4803     
   3797000   302.04668      0.021145685    8.1958048      749.38613     -33.9744        715.41173    
   3798000   295.07705      0.021145685    10.131615      732.09429     -37.461393      694.6329     
   3799000   294.89496      0.021145685    14.918591      731.64254     -38.2618        693.38074    
   3800000   305.57276      0.021145685    13.129666      758.13445     -36.639883      721.49456    
   3801000   308.32657      0.021145685    8.7630001      764.96672     -37.559236      727.40748    
   3802000   282.57187      0.021145685    8.984949       701.06859     -35.903764      665.16483    
   3803000   303.67631      0.021145685    12.301499      753.4293      -37.410254      716.01904    
   3804000   318.16563      0.021145685    6.2285056      789.3777      -35.554421      753.82328    
   3805000   290.30487      0.021145685    10.068175      720.25439     -31.804945      688.44945    
   3806000   292.1966       0.021145685    12.003423      724.94783     -35.660174      689.28766    
   3807000   305.28123      0.021145685    10.877484      757.41116     -36.886024      720.52513    
   3808000   300.84231      0.021145685    9.7229779      746.39807     -37.066136      709.33193    
   3809000   294.23914      0.021145685    11.513865      730.01541     -37.181946      692.83346    
   3810000   288.93233      0.021145685    11.017172      716.84907     -36.988406      679.86067    
   3811000   293.75438      0.021145685    10.031101      728.81272     -33.524858      695.28786    
   3812000   306.29641      0.021145685    11.504347      759.92984     -32.012033      727.9178     
   3813000   301.11948      0.021145685    12.049212      747.08573     -27.867447      719.21828    
   3814000   305.93608      0.021145685    15.034347      759.03586     -35.389398      723.64646    
   3815000   302.85405      0.021145685    9.9574497      751.38925     -34.535101      716.85415    
   3816000   302.12011      0.021145685    12.237152      749.56832     -31.006478      718.56185    
   3817000   306.36091      0.021145685    16.526176      760.08985     -30.775876      729.31398    
   3818000   299.12903      0.021145685    13.18414       742.14738     -34.231278      707.9161     
   3819000   300.75229      0.021145685    0.19260156     746.17472     -30.449391      715.72533    
   3820000   320.6819       0.021145685    11.96439       795.62063     -35.489167      760.13146    
   3821000   295.32635      0.021145685    14.548165      732.71281     -35.546951      697.16585    
   3822000   303.91049      0.021145685    6.9133205      754.01029     -39.034233      714.97606    
   3823000   302.75486      0.021145685    15.754551      751.14315     -35.513962      715.62919    
   3824000   291.24979      0.021145685    12.616417      722.59876     -40.117282      682.48148    
   3825000   311.81723      0.021145685    9.7915083      773.62714     -37.843417      735.78372    
   3826000   294.80648      0.021145685    17.315782      731.423       -35.665612      695.75739    
   3827000   298.19444      0.021145685    10.065926      739.82863     -29.766688      710.06194    
   3828000   318.30066      0.021145685    8.6010836      789.71272     -31.312863      758.39986    
   3829000   295.05892      0.021145685    15.415416      732.0493      -33.180357      698.86895    
   3830000   288.93768      0.021145685    10.66187       716.86235     -28.774508      688.08785    
   3831000   312.26364      0.021145685    6.2696594      774.73471     -33.748714      740.98599    
   3832000   304.95829      0.021145685    13.079812      756.60993     -36.23098       720.37895    
   3833000   282.05398      0.021145685    1.3673096      699.7837      -37.245594      662.53811    
   3834000   319.34463      0.021145685   -7.0652968      792.30283     -36.204523      756.0983     
   3835000   314.4461       0.021145685    19.434131      780.14945     -34.715398      745.43405    
   3836000   290.39425      0.021145685    13.639701      720.47614     -36.164657      684.31148    
   3837000   300.8355       0.021145685   -0.54565053     746.38116     -40.763788      705.61737    
   3838000   318.60922      0.021145685    14.184484      790.47825     -44.792019      745.68623    
   3839000   293.67232      0.021145685    12.809096      728.60911     -43.959803      684.64931    
   3840000   296.90504      0.021145685    11.277857      736.62959     -42.274171      694.35542    
   3841000   314.27336      0.021145685    7.8543954      779.72086     -41.642802      738.07806    
   3842000   309.04744      0.021145685    14.098988      766.75523     -37.204316      729.55091    
   3843000   293.12416      0.021145685    10.4436        727.24911     -38.656196      688.59291    
   3844000   307.2815       0.021145685    11.356807      762.37388     -45.001042      717.37284    
   3845000   299.42504      0.021145685    11.977498      742.88177     -45.936375      696.94539    
   3846000   301.0266       0.021145685    13.080784      746.8553      -42.142579      704.71272    
   3847000   298.45648      0.021145685    6.1450185      740.47876     -34.686619      705.79214    
   3848000   291.36872      0.021145685    11.412748      722.89382     -31.447774      691.44605    
   3849000   315.04867      0.021145685    11.938392      781.64445     -38.680757      742.96369    
   3850000   307.0184       0.021145685    11.44877       761.7211      -36.056713      725.66439    
   3851000   293.33063      0.021145685    11.42537       727.76138     -38.120426      689.64096    
   3852000   288.23076      0.021145685    12.519813      715.10846     -42.91756       672.1909     
   3853000   304.18863      0.021145685    11.532866      754.70039     -42.483404      712.21698    
   3854000   297.941        0.021145685    12.412346      739.19983     -42.06831       697.13152    
   3855000   304.16751      0.021145685    11.734396      754.64798     -38.266419      716.38156    
   3856000   302.18823      0.021145685    13.275987      749.73733     -37.898148      711.83918    
   3857000   299.55327      0.021145685    15.144115      743.19991     -34.607458      708.59246    
   3858000   301.35632      0.021145685    7.1329497      747.67334     -37.558181      710.11516    
   3859000   298.42619      0.021145685    11.458382      740.40361     -32.637751      707.76586    
   3860000   299.88237      0.021145685    15.288204      744.01643     -34.838723      709.17771    
   3861000   306.09376      0.021145685    10.412401      759.42707     -32.129635      727.29743    
   3862000   292.69135      0.021145685    6.7652609      726.1753      -30.903643      695.27166    
   3863000   294.24113      0.021145685    11.321249      730.02035     -37.294166      692.72619    
   3864000   302.08267      0.021145685    11.193869      749.47543     -39.978824      709.49661    
   3865000   317.25463      0.021145685    5.9790513      787.11748     -39.420043      747.69744    
   3866000   292.07733      0.021145685   -2.4605757      724.65191     -45.817732      678.83417    
   3867000   292.75641      0.021145685    19.279195      726.33673     -41.431379      684.90535    
   3868000   303.28203      0.021145685    18.645204      752.45108     -40.314126      712.13695    
   3869000   316.30253      0.021145685   -0.25983172     784.75528     -37.035567      747.71972    
   3870000   280.73868      0.021145685    12.123816      696.5204      -40.743014      655.77739    
   3871000   297.44224      0.021145685    12.679136      737.96239     -41.540956      696.42144    
   3872000   317.02491      0.021145685    12.241981      786.54753     -37.108806      749.43873    
   3873000   294.85844      0.021145685    8.609813       731.55191     -41.999063      689.55285    
   3874000   292.53136      0.021145685    10.998055      725.77836     -40.760553      685.01781    
   3875000   294.8246       0.021145685    11.889262      731.46795     -42.470231      688.99772    
   3876000   311.87859      0.021145685    12.360454      773.77939     -47.311156      726.46823    
   3877000   306.92145      0.021145685    11.325574      761.48059     -47.840867      713.63972    
   3878000   284.72841      0.021145685    10.069693      706.41903     -45.492356      660.92668    
   3879000   297.90498      0.021145685    10.555839      739.11046     -49.965706      689.14476    
   3880000   317.4007       0.021145685    13.494761      787.47988     -41.537747      745.94213    
   3881000   295.53211      0.021145685    6.0450219      733.22332     -39.640512      693.5828     
   3882000   294.7406       0.021145685    9.8286794      731.25954     -41.896294      689.36325    
   3883000   292.1418       0.021145685    19.094609      724.81186     -39.490493      685.32136    
   3884000   308.0154       0.021145685    19.440992      764.19469     -39.668164      724.52653    
   3885000   304.95175      0.021145685    9.84799        756.59371     -40.89943       715.69428    
   3886000   288.42894      0.021145685    8.1383792      715.60015     -42.272303      673.32784    
   3887000   296.75633      0.021145685    7.0802816      736.26063     -41.593797      694.66683    
   3888000   290.78504      0.021145685    29.651162      721.4457      -42.739164      678.70654    
   3889000   291.18791      0.021145685    16.05967       722.44522     -42.410461      680.03476    
   3890000   311.07219      0.021145685    13.481218      771.77868     -38.184984      733.5937     
   3891000   301.64855      0.021145685    8.2231755      748.39837     -38.055705      710.34267    
   3892000   302.89016      0.021145685    21.26241       751.47884     -37.042249      714.43659    
   3893000   311.82675      0.021145685    16.556499      773.65077     -37.865747      735.78502    
   3894000   280.89501      0.021145685    5.2342434      696.90826     -38.127558      658.7807     
   3895000   302.82794      0.021145685    14.752666      751.32447     -34.440869      716.8836     
   3896000   313.18149      0.021145685    23.661299      777.01191     -41.155901      735.85601    
   3897000   288.56762      0.021145685    6.1282219      715.94423     -38.402804      677.54143    
   3898000   293.23984      0.021145685    7.9480225      727.53613     -42.956059      684.58007    
   3899000   302.3253       0.021145685    22.376597      750.07741     -33.848452      716.22896    
   3900000   316.08731      0.021145685    12.101836      784.22134     -35.622817      748.59852    
   3901000   301.4016       0.021145685    6.2485876      747.78568     -38.220352      709.56533    
   3902000   295.06741      0.021145685    8.7870762      732.07038     -36.181398      695.88898    
   3903000   294.95018      0.021145685    13.688914      731.77953     -34.188133      697.5914     
   3904000   312.80053      0.021145685    10.626318      776.06673     -40.018229      736.0485     
   3905000   296.65723      0.021145685    11.790702      736.01477     -31.465111      704.54966    
   3906000   294.86219      0.021145685    4.2066         731.56123     -36.742432      694.8188     
   3907000   297.67084      0.021145685    9.0902211      738.52956     -33.031372      705.49819    
   3908000   302.65226      0.021145685    11.019914      750.88861     -36.942323      713.94628    
   3909000   310.40965      0.021145685    18.234888      770.13489     -35.888252      734.24664    
   3910000   299.00717      0.021145685    12.440385      741.84504     -40.678897      701.16614    
   3911000   299.03825      0.021145685    10.348507      741.92214     -43.979401      697.94274    
   3912000   295.48895      0.021145685    12.490511      733.11623     -33.91873       699.1975     
   3913000   309.69292      0.021145685    11.329339      768.35668     -33.666021      734.69066    
   3914000   296.89862      0.021145685    14.419242      736.61367     -37.458783      699.15489    
   3915000   287.01665      0.021145685    12.497204      712.09623     -34.438956      677.65728    
   3916000   298.29696      0.021145685    10.168033      740.08299     -35.080358      705.00263    
   3917000   313.27452      0.021145685    6.5805907      777.24271     -28.409109      748.8336     
   3918000   300.66095      0.021145685    11.082626      745.94812     -29.98386       715.96426    
   3919000   297.9957       0.021145685    11.411675      739.33555     -41.110846      698.2247     
   3920000   300.54811      0.021145685    12.638943      745.66814     -35.07975       710.58839    
   3921000   299.25258      0.021145685    6.8587567      742.45389     -38.048822      704.40507    
   3922000   304.3461       0.021145685    16.966249      755.09107     -36.729543      718.36153    
   3923000   291.40599      0.021145685    12.717395      722.9863      -37.635669      685.35063    
   3924000   313.73405      0.021145685    8.3033788      778.38283     -33.691283      744.69155    
   3925000   298.4838       0.021145685    22.651304      740.54654     -33.682177      706.86436    
   3926000   288.37376      0.021145685    12.445306      715.46324     -37.675077      677.78817    
   3927000   308.09069      0.021145685   -4.3929329      764.38149     -39.086879      725.29462    
   3928000   315.57831      0.021145685    10.655257      782.95849     -34.520775      748.43771    
   3929000   288.92586      0.021145685    15.359254      716.83303     -31.965899      684.86714    
   3930000   289.24819      0.021145685    9.0011248      717.63274     -32.873718      684.75902    
   3931000   302.9949       0.021145685    5.7028535      751.7387      -40.759402      710.9793     
   3932000   306.89719      0.021145685    12.490959      761.4204      -42.184952      719.23545    
   3933000   295.31637      0.021145685    24.556518      732.68807     -41.719412      690.96865    
   3934000   287.05322      0.021145685   -0.33512474     712.18696     -39.904705      672.28225    
   3935000   302.25839      0.021145685    1.5669587      749.91139     -37.172864      712.73853    
   3936000   303.44765      0.021145685    15.19776       752.86199     -35.162669      717.69932    
   3937000   292.05056      0.021145685    22.919878      724.58549     -39.93478       684.65071    
   3938000   299.20957      0.021145685    7.5817974      742.34718     -41.610735      700.73644    
   3939000   305.41148      0.021145685    9.3206881      757.73429     -40.964262      716.77003    
   3940000   307.43695      0.021145685    19.717899      762.75956     -39.600329      723.15923    
   3941000   284.07614      0.021145685    15.193672      704.80073     -33.540625      671.26011    
   3942000   308.76071      0.021145685    5.3395923      766.04384     -41.266937      724.7769     
   3943000   310.20702      0.021145685    12.878386      769.63216     -36.711566      732.92059    
   3944000   284.05515      0.021145685    19.959801      704.74866     -34.628313      670.12035    
   3945000   295.29713      0.021145685    5.3221151      732.64032     -31.773593      700.86672    
   3946000   314.88079      0.021145685    8.6682334      781.22792     -28.990245      752.23768    
   3947000   297.94953      0.021145685    15.707212      739.22098     -32.966156      706.25483    
   3948000   289.34541      0.021145685    7.7292124      717.87393     -36.546398      681.32753    
   3949000   299.64176      0.021145685    5.8308866      743.41946     -37.097328      706.32213    
   3950000   306.90221      0.021145685    10.147161      761.43284     -39.939112      721.49373    
   3951000   297.46761      0.021145685    28.724598      738.02534     -35.995514      702.02983    
   3952000   290.28557      0.021145685    0.72597809     720.20651     -33.205412      687.0011     
   3953000   298.6201       0.021145685    4.7709359      740.88471     -34.615415      706.26929    
   3954000   307.58932      0.021145685    22.060833      763.13757     -29.637551      733.50002    
   3955000   304.00779      0.021145685    12.02548       754.2517      -24.373366      729.87833    
   3956000   291.53616      0.021145685    9.065576       723.30925     -31.64422       691.66503    
   3957000   313.85822      0.021145685    9.5111068      778.6909      -31.539233      747.15166    
   3958000   306.66835      0.021145685    20.542022      760.85263     -37.760812      723.09182    
   3959000   291.52379      0.021145685    13.589795      723.27856     -39.798081      683.48048    
   3960000   291.30106      0.021145685    3.2380817      722.72597     -36.420974      686.30499    
   3961000   310.73803      0.021145685    16.737982      770.94961     -33.966864      736.98274    
   3962000   295.61766      0.021145685    15.274776      733.43557     -30.57401       702.86156    
   3963000   276.64422      0.021145685    1.8142514      686.36195     -33.88667       652.47528    
   3964000   308.3556       0.021145685    8.7064591      765.03874     -30.895692      734.14305    
   3965000   307.11532      0.021145685    26.649267      761.96158     -29.143602      732.81798    
   3966000   287.77882      0.021145685    16.002633      713.9872      -31.445833      682.54136    
   3967000   295.46766      0.021145685    5.1643182      733.0634      -34.04128       699.02212    
   3968000   306.97824      0.021145685    6.4284466      761.62148     -32.759404      728.86207    
   3969000   293.84789      0.021145685    16.231075      729.04471     -37.034291      692.01042    
   3970000   288.78406      0.021145685    11.380346      716.48121     -32.876854      683.60435    
   3971000   294.25857      0.021145685    8.722825       730.06363     -40.679922      689.38371    
   3972000   317.90971      0.021145685    12.997567      788.74275     -34.452148      754.2906     
   3973000   289.61685      0.021145685    11.460071      718.54738     -29.793883      688.75349    
   3974000   296.55892      0.021145685    10.675332      735.77085     -36.401976      699.36887    
   3975000   318.21665      0.021145685    11.249362      789.50429     -36.815575      752.68872    
   3976000   304.59834      0.021145685    13.448751      755.71687     -35.342911      720.37396    
   3977000   287.68953      0.021145685    13.72116       713.76565     -38.34955       675.4161     
   3978000   295.92141      0.021145685    12.053698      734.18917     -36.903538      697.28563    
   3979000   300.95097      0.021145685    6.5497569      746.66766     -36.190109      710.47755    
   3980000   315.25375      0.021145685    10.074342      782.15325     -33.997561      748.15569    
   3981000   297.85469      0.021145685    11.967578      738.98568     -29.507313      709.47837    
   3982000   290.591        0.021145685    11.310455      720.96429     -30.561206      690.40308    
   3983000   307.14057      0.021145685    10.707382      762.02421     -30.951856      731.07236    
   3984000   304.52332      0.021145685    11.588351      755.53076     -29.075666      726.4551     
   3985000   299.89218      0.021145685    13.27665       744.04078     -29.549601      714.49118    
   3986000   302.61665      0.021145685    11.424057      750.80026     -33.785919      717.01434    
   3987000   293.37635      0.021145685    10.919787      727.8748      -32.49283       695.38197    
   3988000   297.70426      0.021145685    9.4781627      738.61247     -34.892422      703.72005    
   3989000   303.26151      0.021145685    12.159539      752.40017     -29.214042      723.18613    
   3990000   307.43348      0.021145685    11.205475      762.75093     -31.004387      731.74655    
   3991000   282.85828      0.021145685    8.5377947      701.77918     -30.253786      671.5254     
   3992000   295.70512      0.021145685    10.946093      733.65256     -32.694398      700.95817    
   3993000   306.74164      0.021145685    11.250108      761.03447     -29.776178      731.25829    
   3994000   313.84073      0.021145685    10.569152      778.6475      -30.988997      747.65851    
   3995000   302.84242      0.021145685    8.2276176      751.3604      -34.843861      716.51654    
   3996000   282.2071       0.021145685    9.3848987      700.16359     -32.917399      667.24619    
   3997000   295.67323      0.021145685    13.455213      733.57343     -34.680466      698.89296    
   3998000   313.12783      0.021145685    10.844671      776.87877     -31.570512      745.30825    
   3999000   300.20439      0.021145685    7.1003722      744.81536     -31.0596        713.75577    
   4000000   294.42323      0.021145685    23.521285      730.47216     -33.030189      697.44197    
Loop time of 7533.13 on 1 procs for 4000000 steps with 1500 atoms

Performance: 11.469 ns/day, 2.093 hours/ns, 530.988 timesteps/s, 796.481 katom-step/s
100.0% CPU use with 1 MPI tasks x 1 OpenMP threads

MPI task timing breakdown:
Section |  min time  |  avg time  |  max time  |%varavg| %total
---------------------------------------------------------------
Pair    | 697.71     | 697.71     | 697.71     |   0.0 |  9.26
Bond    | 103.33     | 103.33     | 103.33     |   0.0 |  1.37
Kspace  | 6142.7     | 6142.7     | 6142.7     |   0.0 | 81.54
Neigh   | 0.030795   | 0.030795   | 0.030795   |   0.0 |  0.00
Comm    | 25.757     | 25.757     | 25.757     |   0.0 |  0.34
Output  | 0.10437    | 0.10437    | 0.10437    |   0.0 |  0.00
Modify  | 547.6      | 547.6      | 547.6      |   0.0 |  7.27
Other   |            | 15.9       |            |       |  0.21

Nlocal:           1500 ave        1500 max        1500 min
Histogram: 1 0 0 0 0 0 0 0 0 0
Nghost:           1195 ave        1195 max        1195 min
Histogram: 1 0 0 0 0 0 0 0 0 0
Neighs:              0 ave           0 max           0 min
Histogram: 1 0 0 0 0 0 0 0 0 0

Total # of neighbors = 0
Ave neighs/atom = 0
Ave special neighs/atom = 2
Neighbor list builds = 15806
Dangerous builds = 0
write_data	last_conf.data pair ij
System init for write_data ...
PPPM initialization ...
  using 12-bit tables for long-range coulomb (src/kspace.cpp:342)
  G vector (1/distance) = 0.17038764
  grid = 27 27 27
  stencil order = 5
  estimated absolute RMS force accuracy = 0.029922947
  estimated relative force accuracy = 9.0112066e-05
  using double precision FFTW3
  3d grid and FFT values/proc = 32768 19683
Generated 1 of 1 mixed pair_coeff terms from arithmetic mixing rule
Total wall time: 2:05:33
