LAMMPS (29 Aug 2024 - Update 1)
  using 1 OpenMP thread(s) per MPI task
package gpu 1 gpuID 0
# GCMC for CO2 molecular fluid, rigid/small/nvt dynamics
# Rigid CO2 TraPPE model
# [Potoff and J.I. Siepmann, Vapor-liquid equilibria of
# mixtures containing alkanes, carbon dioxide and
# nitrogen AIChE J., 47,1676-1682 (2001)].

# global model settings

units           real
atom_style      full
boundary        p p p
pair_style      lj/cut/coul/long  12
pair_modify     mix arithmetic shift yes
kspace_style    pppm 1.0e-4
bond_style      harmonic
angle_style     harmonic
neigh_modify    one 4000

# box, start molecules on simple cubic lattice
region          mbox block 0 ${lbox} 0 ${lbox} 0 ${lbox} units box
region          mbox block 0 135.0 0 ${lbox} 0 ${lbox} units box
region          mbox block 0 135.0 0 135.0 0 ${lbox} units box
region          mbox block 0 135.0 0 135.0 0 135.0 units box
create_box      2 mbox                                       bond/types 1                                angle/types 1                               extra/bond/per/atom 2                       extra/angle/per/atom 1                      extra/special/per/atom 2
Created orthogonal box = (0 0 0) to (135 135 135)
  1 by 1 by 1 MPI processor grid
molecule        co2mol ../CO2.txt
Read molecule template co2mol:
# CO2 molecule file. TraPPE model.
  1 molecules
  0 fragments
  3 atoms with max type 2
  2 bonds with max type 1
  1 angles with max type 1
  0 dihedrals with max type 0
  0 impropers with max type 0
create_atoms   	0 random ${nmols} 34578 mbox mol co2mol 464563 overlap 1.2
create_atoms   	0 random 500 34578 mbox mol co2mol 464563 overlap 1.2
Created 1500 atoms
  using lattice units in orthogonal box = (0 0 0) to (135 135 135)
  create_atoms CPU = 0.008 seconds

# rigid CO2 TraPPE model

pair_coeff      1   1  0.053649   2.800
pair_coeff      2   2  0.156973   3.050
bond_coeff      1       0       1.16
angle_coeff     1       0       180

# masses

mass 1 12.0107
mass 2 15.9994

write_data init_conf.data  pair ij
System init for write_data ...
PPPM initialization ...
  using 12-bit tables for long-range coulomb (src/kspace.cpp:342)
  G vector (1/distance) = 0.16093008
  grid = 27 27 27
  stencil order = 5
  estimated absolute RMS force accuracy = 0.039376449
  estimated relative force accuracy = 0.00011858101
  using double precision FFTW3
  3d grid and FFT values/proc = 32768 19683
Generated 1 of 1 mixed pair_coeff terms from arithmetic mixing rule

# MD settings

group           co2 type 1 2
1500 atoms in group co2
velocity       	all create 300 54654
timestep        0.25

# rigid constraints with thermostat
fix             myrigidnvt co2 rigid/nvt molecule temp 300 300 $(100*dt)
fix             myrigidnvt co2 rigid/nvt molecule temp 300 300 25
  500 rigid bodies with 1500 atoms

thermo 1000
thermo_style custom step temp density press ke pe etotal


variable    mvol equal vol
variable    mden equal density
variable	mtmp equal temp
variable    mpre equal press

fix mydat all ave/time 1 4000 4000 v_mtmp v_mden v_mpre file statistics.dat ## every 1ps

run 4000000 ## 1ns

CITE-CITE-CITE-CITE-CITE-CITE-CITE-CITE-CITE-CITE-CITE-CITE-CITE

Your simulation uses code contributions which should be cited:

- GPU package (short-range, long-range and three-body potentials): doi:10.1016/j.cpc.2010.12.021, doi:10.1016/j.cpc.2011.10.012, doi:10.1016/j.cpc.2013.08.002, doi:10.1016/j.commatsci.2014.10.068, doi:10.1016/j.cpc.2016.10.020, doi:10.3233/APC200086

@Article{Brown11,
 author = {W. M. Brown and P. Wang and S. J. Plimpton and A. N. Tharrington},
 title = {Implementing Molecular Dynamics on Hybrid High Performance Computers---Short Range Forces},
 journal = {Comput.\ Phys.\ Commun.},
 year =    2011,
 volume =  182,
 pages =   {898--911},
 doi =     {10.1016/j.cpc.2010.12.021}
}

@Article{Brown12,
 author = {W. M. Brown and A. Kohlmeyer and S. J. Plimpton and A. N. Tharrington},
 title = {Implementing Molecular Dynamics on Hybrid High Performance Computers - Particle-Particle Particle-Mesh},
 journal = {Comput.\ Phys.\ Commun.},
 year =    2012,
 volume =  183,
 doi =     {10.1016/j.cpc.2011.10.012},
 pages =   {449--459}
}

@Article{Brown13,
 author = {W. M. Brown and Y. Masako},
 title = {Implementing Molecular Dynamics on Hybrid High Performance Computers---Three-Body Potentials},
 journal = {Comput.\ Phys.\ Commun.},
 year =    2013,
 volume =  184,
 pages =   {2785--2793},
 doi =     {10.1016/j.cpc.2013.08.002},
}

@Article{Trung15,
 author = {T. D. Nguyen and S. J. Plimpton},
 title = {Accelerating Dissipative Particle Dynamics Simulations for Soft Matter Systems},
 journal = {Comput.\ Mater.\ Sci.},
 year =    2015,
 doi =     {10.1016/j.commatsci.2014.10.068},
 volume =  100,
 pages =   {173--180}
}

@Article{Trung17,
 author = {T. D. Nguyen},
 title = {{GPU}-Accelerated {T}ersoff Potentials for Massively Parallel
    Molecular Dynamics Simulations},
 journal = {Comput.\ Phys.\ Commun.},
 year =    2017,
 doi =     {10.1016/j.cpc.2016.10.020},
 volume =  212,
 pages =   {113--122}
}

@inproceedings{Nikolskiy19,
 author = {V. Nikolskiy and V. Stegailov},
 title = {{GPU} Acceleration of Four-Site Water Models in {LAMMPS}},
 booktitle = {Proceedings of the International Conference on Parallel
    Computing (ParCo 2019), Prague, Czech Republic},
 doi =     {10.3233/APC200086},
 year =    2019
}

CITE-CITE-CITE-CITE-CITE-CITE-CITE-CITE-CITE-CITE-CITE-CITE-CITE

PPPM initialization ...
  using 12-bit tables for long-range coulomb (src/kspace.cpp:342)
  G vector (1/distance) = 0.16093008
  grid = 27 27 27
  stencil order = 5
  estimated absolute RMS force accuracy = 0.039376449
  estimated relative force accuracy = 0.00011858101
  using double precision FFTW3
  3d grid and FFT values/proc = 32768 19683
Generated 1 of 1 mixed pair_coeff terms from arithmetic mixing rule
Per MPI rank memory allocation (min/avg/max) = 10.38 | 10.38 | 10.38 Mbytes
   Step          Temp         Density         Press          KinEng         PotEng         TotEng    
         0   307.41471      0.01485129    -173.66091      762.70438      17316.32       18079.024    
      1000   317.49016      0.01485129     13.404378      787.70183     -18.446583      769.25525    
      2000   309.98173      0.01485129     10.195651      769.0732      -24.310582      744.76262    
      3000   295.37641      0.01485129     3.8208658      732.83702     -27.930518      704.9065     
      4000   294.24014      0.01485129     8.3204505      730.01791     -34.993205      695.0247     
      5000   301.88862      0.01485129     10.029806      748.99398     -36.976231      712.01775    
      6000   294.87325      0.01485129     9.0331817      731.58865     -42.663671      688.92498    
      7000   291.13258      0.01485129     8.0832875      722.30796     -46.234158      676.0738     
      8000   304.71882      0.01485129     8.1376427      756.0158      -49.184621      706.83118    
      9000   298.41805      0.01485129     9.5856348      740.38341     -49.487355      690.89606    
     10000   285.14643      0.01485129    -3.5873753      707.45615     -53.555727      653.90043    
     11000   281.28876      0.01485129     5.8623499      697.88516     -51.455759      646.4294     
     12000   304.55589      0.01485129     7.2084291      755.61156     -50.854641      704.75692    
     13000   320.16542      0.01485129     6.8862429      794.33923     -56.100777      738.23845    
     14000   313.2114       0.01485129     3.6208799      777.08613     -59.245116      717.84101    
     15000   293.6344       0.01485129     12.875802      728.51504     -58.773277      669.74176    
     16000   295.26275      0.01485129     14.167081      732.55503     -57.611628      674.9434     
     17000   292.62993      0.01485129     19.230421      726.02292     -57.449854      668.57307    
     18000   307.44335      0.01485129     4.3039801      762.77544     -55.806199      706.96924    
     19000   299.39385      0.01485129     9.989747       742.80438     -58.271118      684.53326    
     20000   292.70793      0.01485129     5.2899624      726.21644     -62.074667      664.14177    
     21000   297.31809      0.01485129     7.4269738      737.65438     -62.615088      675.03929    
     22000   309.01081      0.01485129     7.3850243      766.66434     -63.943257      702.72109    
     23000   299.63801      0.01485129     9.1195398      743.41016     -63.566483      679.84368    
     24000   292.09894      0.01485129     5.3814796      724.70552     -70.533613      654.17191    
     25000   290.46964      0.01485129     1.6768438      720.66319     -67.671806      652.99138    
     26000   306.09014      0.01485129     10.977375      759.41808     -70.629287      688.78879    
     27000   309.13779      0.01485129     9.5611106      766.97938     -71.729947      695.24944    
     28000   293.86958      0.01485129     9.2349516      729.09852     -73.701872      655.39664    
     29000   299.32087      0.01485129     5.7549628      742.62333     -73.213332      669.41       
     30000   309.62092      0.01485129     7.2811419      768.17803     -74.982076      693.19596    
     31000   300.85386      0.01485129     9.126719       746.42673     -76.113094      670.31364    
     32000   296.05379      0.01485129     6.5323961      734.51761     -75.474748      659.04286    
     33000   296.12048      0.01485129     8.2544347      734.68307     -82.153787      652.52928    
     34000   304.89039      0.01485129     6.4605677      756.44146     -86.768847      669.67262    
     35000   318.77204      0.01485129     8.375896       790.88222     -86.398146      704.48408    
     36000   298.3774       0.01485129     4.5926899      740.28255     -88.111138      652.17141    
     37000   293.05962      0.01485129     7.1686229      727.08898     -90.1909        636.89809    
     38000   289.71348      0.01485129     12.754701      718.78713     -85.451804      633.33532    
     39000   309.28592      0.01485129     7.665828       767.34689     -90.821341      676.52555    
     40000   303.93724      0.01485129     14.382892      754.07666     -91.967674      662.10899    
     41000   281.2418       0.01485129     7.8849494      697.76865     -90.053625      607.71503    
     42000   293.73639      0.01485129     9.1935699      728.76808     -95.964317      632.80376    
     43000   302.70359      0.01485129     6.5361806      751.01594     -92.014648      659.00129    
     44000   293.82921      0.01485129     7.8991506      728.99837     -91.622281      637.37609    
     45000   304.37234      0.01485129     5.064032       755.15616     -91.154049      664.00211    
     46000   292.43526      0.01485129     5.2594486      725.53995     -94.440787      631.09916    
     47000   288.16584      0.01485129     5.7086111      714.9474      -96.551735      618.39566    
     48000   300.94035      0.01485129     13.607343      746.64132     -98.363025      648.27829    
     49000   308.64579      0.01485129     11.449223      765.75872     -99.805437      665.95329    
     50000   303.02082      0.01485129     3.8422773      751.80302     -101.81457      649.98845    
     51000   302.43639      0.01485129     12.387211      750.35302     -100.93004      649.42298    
     52000   293.3523       0.01485129     8.0564297      727.81514     -98.915927      628.89921    
     53000   295.66509      0.01485129     7.5325978      733.55324     -102.60648      630.94676    
     54000   295.02785      0.01485129     6.688664       731.97224     -100.6568       631.31543    
     55000   313.27176      0.01485129     10.504851      777.23587     -105.87752      671.35836    
     56000   301.7191       0.01485129     8.9648894      748.57339     -103.14684      645.42656    
     57000   296.1451       0.01485129     7.6018413      734.74416     -103.08984      631.65432    
     58000   287.11987      0.01485129     9.4475672      712.35231     -104.86197      607.49034    
     59000   303.31494      0.01485129     6.1700598      752.53273     -106.29928      646.23345    
     60000   295.48764      0.01485129     1.0189976      733.11299     -104.23208      628.88091    
     61000   304.86926      0.01485129     9.7471215      756.38904     -101.16729      655.22175    
     62000   291.25475      0.01485129     8.7177627      722.61107     -101.56919      621.04188    
     63000   292.68611      0.01485129     9.0758522      726.1623      -108.2321       617.93019    
     64000   300.12062      0.01485129     1.906959       744.60752     -109.15731      635.45021    
     65000   309.29578      0.01485129     7.7230634      767.37134     -107.92845      659.44289    
     66000   294.01959      0.01485129     11.954021      729.4707      -101.58582      627.88488    
     67000   294.01175      0.01485129     9.567842       729.45126     -94.235078      635.21618    
     68000   308.1856       0.01485129     7.4340945      764.61696     -94.064081      670.55288    
     69000   300.98724      0.01485129     7.329403       746.75765     -101.67715      645.0805     
     70000   301.63207      0.01485129     10.027536      748.35748     -99.33001       649.02747    
     71000   311.31147      0.01485129     7.2065697      772.37233     -94.832742      677.53959    
     72000   293.30619      0.01485129     6.3023244      727.70075     -98.726527      628.97422    
     73000   286.60581      0.01485129     7.9584302      711.07692     -97.392571      613.68435    
     74000   321.53254      0.01485129     10.816288      797.7311      -97.078015      700.65309    
     75000   304.17456      0.01485129     7.8243709      754.66547     -100.19359      654.47188    
     76000   297.27046      0.01485129     7.2661303      737.53621     -99.789009      637.7472     
     77000   288.98112      0.01485129     6.2439392      716.97013     -107.89367      609.07646    
     78000   310.0455       0.01485129     5.5065475      769.23144     -108.92741      660.30403    
     79000   303.65303      0.01485129     14.825977      753.37153     -106.46087      646.91066    
     80000   282.6831       0.01485129     6.9391991      701.34457     -104.49333      596.85124    
     81000   303.62544      0.01485129     5.6925395      753.30309     -100.37949      652.9236     
     82000   318.6419       0.01485129     6.9429837      790.55934     -106.69631      683.86303    
     83000   308.83272      0.01485129     6.8273327      766.2225      -105.60578      660.61671    
     84000   304.89196      0.01485129     8.2994618      756.44536     -102.86203      653.58333    
     85000   311.27247      0.01485129     6.7840407      772.27557     -106.25507      666.0205     
     86000   289.08788      0.01485129     4.8383103      717.23499     -102.14824      615.08675    
     87000   298.73307      0.01485129     7.5508313      741.16498     -99.141028      642.02395    
     88000   291.56744      0.01485129     9.7333298      723.38686     -89.609687      633.77717    
     89000   307.65384      0.01485129     7.9064025      763.29765     -98.001593      665.29606    
     90000   304.98787      0.01485129     6.3992478      756.68331     -96.496195      660.18711    
     91000   304.7251       0.01485129     7.3068048      756.03137     -97.385859      658.64551    
     92000   296.99557      0.01485129     8.1229845      736.85419     -101.06528      635.7889     
     93000   289.7511       0.01485129     10.221507      718.88047     -98.569197      620.31127    
     94000   297.1718       0.01485129     7.0820637      737.29144     -100.47825      636.81319    
     95000   308.43805      0.01485129     6.4755486      765.24329     -101.28198      663.96131    
     96000   291.58068      0.01485129     6.3190911      723.41972     -109.37261      614.04711    
     97000   285.79104      0.01485129     6.2053806      709.05544     -106.78667      602.26877    
     98000   303.70098      0.01485129     8.3786884      753.49049     -114.35662      639.13387    
     99000   297.69476      0.01485129     6.817816       738.58891     -108.60525      629.98366    
    100000   295.62872      0.01485129     7.4471743      733.46301     -108.28514      625.17787    
    101000   309.9763       0.01485129     11.495038      769.05975     -107.33879      661.72097    
    102000   315.14367      0.01485129     7.8279372      781.88013     -111.63593      670.2442     
    103000   299.29863      0.01485129     7.9342519      742.56815     -116.85302      625.71513    
    104000   289.98735      0.01485129     8.3021373      719.4666      -112.12476      607.34184    
    105000   288.74732      0.01485129     6.6220274      716.39007     -115.15657      601.2335     
    106000   304.38467      0.01485129     7.2329127      755.18675     -111.81467      643.37207    
    107000   310.01101      0.01485129     8.5966914      769.14587     -110.25192      658.89395    
    108000   302.03639      0.01485129     6.7968111      749.36062     -113.86964      635.49098    
    109000   300.19068      0.01485129     8.2121984      744.78136     -109.57769      635.20367    
    110000   303.99162      0.01485129     6.5126427      754.21158     -107.6306       646.58098    
    111000   305.50126      0.01485129     4.2009187      757.95705     -113.26578      644.69128    
    112000   309.73545      0.01485129     6.3481309      768.46219     -115.57352      652.88867    
    113000   299.43192      0.01485129     16.153484      742.89885     -110.42247      632.47638    
    114000   290.16906      0.01485129     5.6017836      719.91743     -106.07389      613.84353    
    115000   300.55425      0.01485129     4.9131739      745.68338     -114.92682      630.75656    
    116000   314.91084      0.01485129     17.422448      781.30248     -114.9696       666.33288    
    117000   286.73757      0.01485129     16.009617      711.40382     -113.69609      597.70773    
    118000   299.6517       0.01485129     2.8324754      743.44413     -108.52057      634.92355    
    119000   308.17244      0.01485129     18.233118      764.58433     -108.06701      656.51732    
    120000   301.67751      0.01485129     16.738829      748.47021     -101.63968      646.83054    
    121000   293.49894      0.01485129     8.5144621      728.17896     -105.92088      622.25808    
    122000   296.73236      0.01485129     0.43058115     736.20116     -101.16267      635.0385     
    123000   307.73488      0.01485129    -0.81501216     763.49873     -107.46398      656.03474    
    124000   299.63863      0.01485129     2.8127142      743.41171     -106.42819      636.98352    
    125000   287.31825      0.01485129     19.597634      712.84449     -109.22454      603.61995    
    126000   298.4051       0.01485129     3.0404411      740.35128     -105.07219      635.27909    
    127000   303.20859      0.01485129    -0.34743046     752.26888     -110.49237      641.77651    
    128000   301.20024      0.01485129     16.039186      747.28611     -114.19706      633.08905    
    129000   292.93872      0.01485129     17.109234      726.78904     -115.36839      611.42065    
    130000   297.63408      0.01485129     5.5929344      738.43836     -110.96524      627.47312    
    131000   300.09928      0.01485129     6.20358        744.55458     -108.96604      635.58854    
    132000   299.47777      0.01485129     8.4173046      743.01259     -111.79637      631.21622    
    133000   292.95472      0.01485129     6.5486938      726.82874     -111.32846      615.50028    
    134000   283.88388      0.01485129     5.9292441      704.32372     -104.29174      600.03198    
    135000   315.42269      0.01485129     9.0338693      782.57238     -111.49338      671.079      
    136000   299.47417      0.01485129     5.2720557      743.00368     -109.6309       633.37278    
    137000   295.85143      0.01485129     12.833735      734.01556     -113.46399      620.55157    
    138000   299.50218      0.01485129     6.1530448      743.07317     -108.30912      634.76405    
    139000   297.54265      0.01485129     2.1199156      738.21151     -108.34231      629.8692     
    140000   303.54706      0.01485129     8.0638097      753.10861     -110.13592      642.97269    
    141000   289.90378      0.01485129     8.2443544      719.25927     -110.27232      608.98695    
    142000   303.95876      0.01485129     8.1033898      754.13007     -115.77841      638.35166    
    143000   301.38934      0.01485129     5.2023672      747.75526     -110.75257      637.00269    
    144000   294.69153      0.01485129     10.114917      731.13781     -108.55433      622.58348    
    145000   301.23322      0.01485129     5.8907707      747.36792     -108.86318      638.50475    
    146000   298.80205      0.01485129     5.189147       741.33613     -103.03825      638.29788    
    147000   306.18989      0.01485129     4.4295716      759.66555     -103.81898      655.84657    
    148000   303.96425      0.01485129     7.9732629      754.14367     -108.70071      645.44296    
    149000   303.70561      0.01485129     13.363443      753.50199     -107.45561      646.04638    
    150000   301.91974      0.01485129     8.1332068      749.0712      -103.3782       645.693      
    151000   316.83517      0.01485129     5.8983224      786.07679     -102.08819      683.98861    
    152000   301.65611      0.01485129     4.6358927      748.41713     -99.437491      648.97964    
    153000   308.90101      0.01485129     7.2880362      766.39193     -98.8687        667.52323    
    154000   297.59972      0.01485129     8.221803       738.3531      -95.947841      642.40526    
    155000   311.42412      0.01485129     7.3780646      772.65183     -98.242612      674.40922    
    156000   301.35528      0.01485129     10.25534       747.67076     -100.49323      647.17752    
    157000   303.14223      0.01485129     6.7658328      752.10423     -98.113253      653.99098    
    158000   294.45879      0.01485129     0.2727126      730.56038     -100.8236       629.73678    
    159000   302.88797      0.01485129     12.471628      751.47341     -91.957768      659.51564    
    160000   302.90558      0.01485129     6.5367395      751.5171      -96.895028      654.62207    
    161000   286.31057      0.01485129     1.934988       710.34441     -92.889091      617.45532    
    162000   293.61895      0.01485129     9.4701709      728.47672     -93.685196      634.79152    
    163000   293.01573      0.01485129     10.592101      726.9801      -95.370355      631.60975    
    164000   311.20666      0.01485129     4.9054497      772.11231     -98.47043       673.64188    
    165000   297.37278      0.01485129     4.4782844      737.79007     -96.418248      641.37182    
    166000   279.84973      0.01485129     11.520466      694.31489     -95.788185      598.5267     
    167000   299.11737      0.01485129     11.921563      742.11844     -103.05384      639.06459    
    168000   307.43762      0.01485129     10.151362      762.76121     -100.84986      661.91135    
    169000   301.91003      0.01485129    -1.9419337      749.0471      -97.440103      651.607      
    170000   289.43675      0.01485129     10.521512      718.10057     -92.979841      625.12073    
    171000   293.4048       0.01485129     14.589407      727.94539     -90.035308      637.91008    
    172000   301.25581      0.01485129     11.667952      747.42398     -98.257887      649.16609    
    173000   297.63557      0.01485129    -1.7615763      738.44206     -89.581686      648.86037    
    174000   305.21635      0.01485129     8.0993935      757.25017     -93.180804      664.06936    
    175000   305.87514      0.01485129     8.2602043      758.88465     -97.872023      661.01263    
    176000   306.53743      0.01485129     9.8142476      760.52782     -100.43941      660.08841    
    177000   298.18185      0.01485129     10.266986      739.7974      -95.143117      644.65428    
    178000   280.14192      0.01485129     6.4063713      695.03984     -97.776228      597.26361    
    179000   300.1853       0.01485129     6.2823104      744.768       -101.80454      642.96346    
    180000   328.8705       0.01485129     8.8760947      815.93677     -98.111188      717.82558    
    181000   300.28854      0.01485129     9.6549896      745.02414     -94.153308      650.87084    
    182000   282.25036      0.01485129     5.059213       700.27092     -96.823016      603.44791    
    183000   312.60984      0.01485129     3.2453039      775.59364     -93.69288       681.90076    
    184000   298.36274      0.01485129     10.570659      740.24619     -98.456491      641.78969    
    185000   296.12073      0.01485129     7.9140533      734.6837      -99.532229      635.15147    
    186000   303.29552      0.01485129     3.0439811      752.48453     -107.64719      644.83734    
    187000   311.48427      0.01485129     18.465209      772.80107     -109.74308      663.05799    
    188000   294.16522      0.01485129     11.561515      729.83201     -106.80228      623.02974    
    189000   292.42552      0.01485129     7.8484236      725.51577     -106.11643      619.39933    
    190000   295.30557      0.01485129     6.6921641      732.66127     -105.54644      627.11482    
    191000   297.77754      0.01485129     6.1819821      738.79428     -98.785884      640.0084     
    192000   305.32737      0.01485129     8.0552206      757.52562     -100.80715      656.71847    
    193000   304.0361       0.01485129     7.9187145      754.32194     -102.82444      651.4975     
    194000   308.1706       0.01485129     5.1186736      764.57975     -102.93411      661.64564    
    195000   317.1005       0.01485129     7.4958684      786.73508     -106.39518      680.3399     
    196000   304.16887      0.01485129     9.7229351      754.65135     -101.87444      652.77691    
    197000   307.15842      0.01485129     6.3986056      762.06851     -98.435013      663.6335     
    198000   299.49864      0.01485129     7.9211448      743.06438     -98.342661      644.72172    
    199000   305.67361      0.01485129     9.1189515      758.38465     -94.091424      664.29323    
    200000   309.9491       0.01485129     11.951157      768.99227     -93.772466      675.2198     
    201000   282.55045      0.01485129     2.5563912      701.01545     -95.360185      605.65527    
    202000   308.16263      0.01485129     1.9584447      764.55999     -97.466626      667.09336    
    203000   312.69964      0.01485129     11.763819      775.81643     -96.090282      679.72615    
    204000   294.68169      0.01485129     8.775479       731.1134      -97.380595      633.7328     
    205000   297.74872      0.01485129     6.7913482      738.72278     -96.096643      642.62613    
    206000   311.722        0.01485129     6.9540067      773.39088     -95.794762      677.59612    
    207000   300.23176      0.01485129     7.7123938      744.88327     -97.092693      647.79057    
    208000   295.4883       0.01485129     8.0014049      733.11461     -98.867129      634.24748    
    209000   295.89302      0.01485129     6.1885468      734.11874     -96.608488      637.51026    
    210000   307.937        0.01485129     5.5054297      764.00019     -97.490701      666.50948    
    211000   305.07806      0.01485129     6.5655204      756.90708     -94.50657       662.40051    
    212000   292.97958      0.01485129     10.977209      726.8904      -96.850804      630.0396     
    213000   292.69982      0.01485129     4.8931825      726.19632     -101.45546      624.74085    
    214000   305.21477      0.01485129     7.3845468      757.24626     -98.714303      658.53195    
    215000   317.59645      0.01485129     9.3769255      787.96554     -95.50489       692.46065    
    216000   283.97326      0.01485129     7.1594914      704.54548     -97.522455      607.02303    
    217000   285.65527      0.01485129     6.7324747      708.71861     -93.598042      615.12057    
    218000   302.21861      0.01485129     5.4556439      749.81271     -95.638887      654.17383    
    219000   311.6411       0.01485129     8.8113226      773.19015     -95.426431      677.76372    
    220000   291.4214       0.01485129     12.569949      723.02453     -101.67705      621.34748    
    221000   295.54624      0.01485129     9.7805295      733.25837     -93.237145      640.02122    
    222000   294.11224      0.01485129     7.3105391      729.70057     -86.050785      643.64978    
    223000   313.85539      0.01485129     2.0589979      778.68388     -89.964032      688.71985    
    224000   302.1314       0.01485129     15.838605      749.59634     -90.475595      659.12075    
    225000   293.76226      0.01485129     4.7007706      728.83226     -88.303566      640.5287     
    226000   308.1107       0.01485129     7.4996958      764.43114     -87.130676      677.30046    
    227000   296.29713      0.01485129     12.952007      735.12136     -87.837211      647.28415    
    228000   298.10875      0.01485129     7.0216892      739.61602     -83.379113      656.23691    
    229000   300.59893      0.01485129    -0.98655899     745.79423     -81.86925       663.92498    
    230000   302.70267      0.01485129     7.8669137      751.01367     -79.443446      671.57023    
    231000   300.54181      0.01485129     12.417816      745.65251     -80.692011      664.9605     
    232000   285.47188      0.01485129     10.393581      708.26361     -88.627319      619.63629    
    233000   292.95703      0.01485129     6.4217624      726.83448     -79.638955      647.19552    
    234000   319.00666      0.01485129     9.1085555      791.46433     -81.725054      709.73927    
    235000   302.11533      0.01485129     7.9090984      749.55647     -83.93384       665.62263    
    236000   290.74141      0.01485129     7.9131266      721.33746     -79.939515      641.39794    
    237000   318.24707      0.01485129     8.0391518      789.57976     -79.641972      709.93779    
    238000   303.1925       0.01485129     7.2422016      752.22894     -75.939164      676.28978    
    239000   291.46027      0.01485129     7.8534446      723.12097     -71.42298       651.69799    
    240000   298.56035      0.01485129     9.9999272      740.73645     -74.843358      665.89309    
    241000   307.64436      0.01485129     6.4008244      763.27414     -80.349693      682.92444    
    242000   290.71487      0.01485129     7.2992099      721.2716      -75.757614      645.51399    
    243000   285.59153      0.01485129     6.3776102      708.56045     -77.875945      630.6845     
    244000   305.55348      0.01485129     8.0367119      758.08661     -78.260235      679.82637    
    245000   317.42475      0.01485129     7.8643911      787.53955     -79.61354       707.92601    
    246000   295.02695      0.01485129     9.6027135      731.97        -79.935321      652.03468    
    247000   299.97953      0.01485129     3.7434317      744.25747     -78.160302      666.09717    
    248000   316.92001      0.01485129     8.8285179      786.28728     -79.334503      706.95278    
    249000   299.20679      0.01485129     9.5826604      742.34029     -82.784912      659.55538    
    250000   307.15023      0.01485129     10.199158      762.04818     -85.190895      676.85729    
    251000   285.67485      0.01485129     3.1138394      708.76717     -85.377992      623.38918    
    252000   309.62709      0.01485129     7.3746571      768.19336     -86.472274      681.72108    
    253000   296.36632      0.01485129     8.0181892      735.29302     -80.082902      655.21012    
    254000   300.12731      0.01485129     7.2537045      744.62414     -78.459693      666.16445    
    255000   309.56712      0.01485129     7.1048305      768.04456     -82.565352      685.47921    
    256000   302.49374      0.01485129     10.363255      750.4953      -82.828623      667.66667    
    257000   292.67494      0.01485129     7.6234226      726.1346      -84.023724      642.11087    
    258000   297.27387      0.01485129     7.2806865      737.54467     -77.740742      659.80393    
    259000   315.42613      0.01485129     8.6984364      782.58092     -72.2519        710.32902    
    260000   293.36979      0.01485129     7.8378443      727.85854     -69.916388      657.94215    
    261000   307.84092      0.01485129     7.5371424      763.7618      -69.217866      694.54393    
    262000   297.77915      0.01485129     5.0755413      738.79828     -71.30643       667.49185    
    263000   287.66674      0.01485129     7.6245275      713.70911     -72.003336      641.70578    
    264000   305.33042      0.01485129     7.3856853      757.5332      -77.587721      679.94547    
    265000   322.94631      0.01485129     10.142585      801.23871     -75.717657      725.52105    
    266000   294.70572      0.01485129     7.4183354      731.17301     -76.672235      654.50077    
    267000   292.81859      0.01485129     6.4195189      726.491       -73.429301      653.0617     
    268000   311.07821      0.01485129     7.3964298      771.79362     -76.477203      695.31642    
    269000   301.3963       0.01485129     7.5026186      747.77252     -73.101568      674.67095    
    270000   292.60454      0.01485129     7.671917       725.95992     -76.5138        649.44612    
    271000   296.60854      0.01485129     6.9039209      735.89395     -82.103457      653.7905     
    272000   315.99966      0.01485129     9.369315       784.00386     -81.499655      702.50421    
    273000   309.92581      0.01485129     8.4251592      768.93447     -73.211329      695.72314    
    274000   304.21933      0.01485129     7.7456476      754.77655     -76.306768      678.46978    
    275000   294.60416      0.01485129     4.0246091      730.92103     -80.174039      650.74699    
    276000   293.68338      0.01485129     7.2530067      728.63657     -80.59162       648.04495    
    277000   310.23848      0.01485129     7.9651916      769.71022     -77.213306      692.49692    
    278000   303.89186      0.01485129     5.4354257      753.96408     -79.066297      674.89779    
    279000   290.85194      0.01485129     5.4458584      721.61168     -77.413212      644.19847    
    280000   295.20033      0.01485129     7.9419662      732.40015     -74.950173      657.44997    
    281000   321.26047      0.01485129     9.442077       797.05609     -78.936181      718.11991    
    282000   295.1122       0.01485129     6.4444276      732.18151     -75.013024      657.16849    
    283000   296.61658      0.01485129     9.1727897      735.9139      -69.544234      666.36967    
    284000   309.77689      0.01485129     7.7966887      768.56501     -71.946497      696.61851    
    285000   304.7226       0.01485129     5.5017651      756.02518     -73.152686      682.87249    
    286000   293.306        0.01485129     1.6636412      727.70028     -74.228989      653.47129    
    287000   296.63179      0.01485129     18.152615      735.95166     -74.517467      661.43419    
    288000   315.08854      0.01485129     17.946938      781.74334     -73.533565      708.20978    
    289000   304.83175      0.01485129    -6.5189366      756.29598     -74.128346      682.16764    
    290000   296.0867       0.01485129     9.343505       734.59926     -69.906774      664.69249    
    291000   301.3347       0.01485129     18.199361      747.61971     -70.38237       677.23734    
    292000   308.43379      0.01485129     0.70122568     765.23274     -70.992611      694.24013    
    293000   296.5469       0.01485129     7.4049706      735.74103     -67.519474      668.22156    
    294000   302.47948      0.01485129     13.742967      750.45994     -70.111918      680.34802    
    295000   305.76401      0.01485129     6.7763987      758.60894     -69.580412      689.02853    
    296000   296.22307      0.01485129     2.2225388      734.93761     -67.541833      667.39578    
    297000   291.47082      0.01485129     5.5195299      723.14713     -65.961149      657.18598    
    298000   291.05479      0.01485129     11.512029      722.11495     -63.521111      658.59384    
    299000   316.18242      0.01485129     12.121588      784.45729     -60.30036       724.15693    
    300000   298.21448      0.01485129     3.9769174      739.87834     -58.785058      681.09329    
    301000   293.30629      0.01485129     4.805322       727.701       -65.524143      662.17686    
    302000   295.17233      0.01485129     7.3938507      732.33069     -67.243926      665.08677    
    303000   303.94845      0.01485129     11.792221      754.10448     -72.785694      681.31878    
    304000   302.44025      0.01485129     6.2157699      750.3626      -70.270122      680.09248    
    305000   292.64974      0.01485129     8.2298564      726.07206     -61.323056      664.749      
    306000   295.49828      0.01485129     6.7322168      733.13938     -65.280633      667.85875    
    307000   316.63861      0.01485129     8.6165141      785.58913     -65.483978      720.10515    
    308000   308.85541      0.01485129     8.4415462      766.27877     -65.88519       700.39358    
    309000   298.03802      0.01485129     7.439404       739.44053     -64.513989      674.92655    
    310000   293.29076      0.01485129     6.971024       727.66245     -65.636144      662.02631    
    311000   293.86373      0.01485129     8.0283095      729.08402     -62.632544      666.45148    
    312000   306.56907      0.01485129     6.5726326      760.60632     -62.810807      697.79552    
    313000   309.27722      0.01485129     8.5490097      767.32531     -64.628468      702.69684    
    314000   291.75756      0.01485129     8.3079601      723.85855     -61.692181      662.16637    
    315000   297.39172      0.01485129     9.4704175      737.83706     -62.937256      674.8998     
    316000   313.52463      0.01485129     5.3724953      777.86324     -58.794096      719.06914    
    317000   292.77105      0.01485129     6.7442475      726.37304     -59.268942      667.1041     
    318000   294.21487      0.01485129     8.5685811      729.95521     -60.833875      669.12133    
    319000   304.0543       0.01485129     8.0152417      754.3671      -61.789172      692.57793    
    320000   294.95561      0.01485129     8.2551236      731.79299     -63.036153      668.75684    
    321000   303.26798      0.01485129     7.3522564      752.41621     -56.51122       695.905      
    322000   313.00041      0.01485129     7.9078937      776.56263     -57.456677      719.10596    
    323000   299.84681      0.01485129     9.3677944      743.9282      -59.390321      684.53788    
    324000   275.08745      0.01485129     6.2969547      682.49954     -63.257734      619.2418     
    325000   300.98479      0.01485129     7.2318428      746.75157     -61.950864      684.8007     
    326000   316.6002       0.01485129     9.8650418      785.49382     -65.069567      720.42425    
    327000   303.36166      0.01485129     7.3510638      752.64864     -65.077105      687.57153    
    328000   308.29391      0.01485129     7.0915574      764.8857      -56.557344      708.32836    
    329000   304.0344       0.01485129     7.3394368      754.31773     -56.709796      697.60794    
    330000   293.77452      0.01485129     9.1737123      728.86268     -57.05227       671.81041    
    331000   288.89992      0.01485129     14.373671      716.76865     -57.473776      659.29488    
    332000   290.8532       0.01485129     4.7557782      721.61481     -59.551498      662.06331    
    333000   308.9122       0.01485129     4.8630906      766.41969     -58.212673      708.20702    
    334000   292.42111      0.01485129     21.922032      725.50482     -54.199059      671.30576    
    335000   291.036        0.01485129     8.1859574      722.06833     -55.711018      666.35732    
    336000   303.03508      0.01485129     1.6237225      751.83839     -52.814033      699.02436    
    337000   307.06199      0.01485129     6.8212652      761.82927     -55.621616      706.20765    
    338000   305.61618      0.01485129     13.104624      758.24217     -63.958291      694.28388    
    339000   302.21427      0.01485129     19.597331      749.80193     -61.481897      688.32003    
    340000   299.65822      0.01485129     7.5363459      743.46031     -55.233961      688.22635    
    341000   291.58857      0.01485129     0.39246288     723.43928     -55.424499      668.01478    
    342000   299.44676      0.01485129     0.80865649     742.93567     -54.88144       688.05423    
    343000   295.79818      0.01485129     12.744535      733.88343     -52.390709      681.49272    
    344000   311.46406      0.01485129     7.7530747      772.75092     -58.01185       714.73907    
    345000   319.50192      0.01485129     6.049022       792.69308     -53.465732      739.22735    
    346000   300.82364      0.01485129     7.4320789      746.35175     -58.512212      687.83953    
    347000   293.99872      0.01485129     7.6846858      729.41893     -57.22971       672.18922    
    348000   310.55572      0.01485129     7.9255666      770.4973      -53.347355      717.14995    
    349000   290.95518      0.01485129     8.3136302      721.86782     -50.712657      671.15516    
    350000   289.00329      0.01485129     7.2489264      717.02513     -51.483906      665.54122    
    351000   309.70489      0.01485129     8.1276276      768.38636     -48.45306       719.9333     
    352000   301.54999      0.01485129     7.5388501      748.15383     -42.032901      706.12093    
    353000   292.21874      0.01485129     6.3463211      725.00276     -47.575339      677.42742    
    354000   296.05908      0.01485129     7.9128161      734.53073     -50.141945      684.38879    
    355000   305.86178      0.01485129     10.224096      758.8515      -51.767583      707.08392    
    356000   296.29923      0.01485129     7.3291436      735.12656     -53.537914      681.58865    
    357000   299.4296       0.01485129     7.8872629      742.8931      -57.784228      685.10887    
    358000   288.63048      0.01485129     9.7203695      716.10017     -55.994024      660.10615    
    359000   308.16425      0.01485129     7.2578761      764.564       -47.959848      716.60415    
    360000   294.3066       0.01485129     3.8116287      730.18278     -55.86059       674.32219    
    361000   292.708        0.01485129     12.396886      726.21661     -52.219454      673.99715    
    362000   311.09291      0.01485129     5.1295584      771.83008     -48.508514      723.32156    
    363000   305.12799      0.01485129     6.1633992      757.03094     -49.879741      707.1512     
    364000   291.56202      0.01485129     5.0436184      723.37341     -47.871014      675.50239    
    365000   289.21382      0.01485129     11.998687      717.54745     -44.892377      672.65508    
    366000   303.08886      0.01485129     11.826716      751.97182     -50.341346      701.63048    
    367000   309.39713      0.01485129     7.3754263      767.62282     -48.253735      719.36908    
    368000   306.05258      0.01485129     0.89831816     759.3249      -43.745637      715.57926    
    369000   292.39744      0.01485129     8.3152577      725.4461      -40.85804       684.58806    
    370000   299.97407      0.01485129     8.2063991      744.24394     -41.051822      703.19212    
    371000   295.91536      0.01485129     5.9293414      734.17415     -37.783521      696.39063    
    372000   300.38261      0.01485129     10.751957      745.25754     -43.863778      701.39376    
    373000   304.12768      0.01485129     5.5363262      754.54915     -45.222216      709.32693    
    374000   293.96367      0.01485129     3.9837022      729.33196     -40.442167      688.88979    
    375000   300.40653      0.01485129     9.3754875      745.31689     -41.488896      703.828      
    376000   305.83366      0.01485129     10.427042      758.78174     -41.760116      717.02162    
    377000   300.4704       0.01485129     4.2818289      745.47535     -38.063746      707.4116     
    378000   302.49147      0.01485129     7.3428423      750.48968     -42.932254      707.55743    
    379000   307.54417      0.01485129     11.87141       763.02557     -49.393753      713.63182    
    380000   304.63896      0.01485129     7.7277539      755.81766     -44.274352      711.5433     
    381000   313.97447      0.01485129     10.394028      778.9793      -41.345192      737.63411    
    382000   295.27134      0.01485129     7.3183899      732.57634     -46.321439      686.2549     
    383000   301.28381      0.01485129     6.6704404      747.49345     -45.104096      702.38935    
    384000   298.00993      0.01485129     8.7677407      739.37085     -38.399948      700.9709     
    385000   300.99259      0.01485129     8.8465422      746.77091     -37.637575      709.13333    
    386000   295.23341      0.01485129     3.2875614      732.48223     -39.680114      692.80211    
    387000   310.07067      0.01485129     5.0969587      769.29388     -37.827645      731.46624    
    388000   313.93499      0.01485129     9.70512        778.88137     -40.586512      738.29485    
    389000   299.58815      0.01485129     8.549237       743.28645     -39.480321      703.80613    
    390000   287.16929      0.01485129     11.356922      712.47493     -40.148632      672.3263     
    391000   297.9569       0.01485129     6.8281909      739.23929     -37.21828       702.02101    
    392000   319.82139      0.01485129     4.8098065      793.48569     -36.012803      757.47288    
    393000   283.75603      0.01485129     10.297101      704.00653     -33.981089      670.02544    
    394000   292.05878      0.01485129     4.6011745      724.60589     -36.719369      687.88652    
    395000   313.23992      0.01485129     3.934913       777.15687     -37.725601      739.43127    
    396000   305.42908      0.01485129     6.7426114      757.77796     -34.390781      723.38718    
    397000   305.15514      0.01485129     14.462609      757.09832     -33.87971       723.21861    
    398000   286.00215      0.01485129     11.117667      709.57922     -36.926705      672.65252    
    399000   296.65975      0.01485129     3.2936608      736.02101     -34.630955      701.39005    
    400000   311.02563      0.01485129     7.5120841      771.66316     -32.572912      739.09024    
    401000   293.43208      0.01485129     10.607967      728.01309     -32.390373      695.62271    
    402000   288.80423      0.01485129     6.6930537      716.53124     -34.252531      682.27871    
    403000   310.69205      0.01485129     4.67538        770.83555     -39.627663      731.20788    
    404000   310.77441      0.01485129     14.920196      771.03989     -35.889696      735.15019    
    405000   299.08111      0.01485129     8.5692946      742.02847     -39.971357      702.05712    
    406000   296.0827       0.01485129     1.1632537      734.58933     -37.5323        697.05703    
    407000   306.85898      0.01485129     12.352233      761.32558     -32.410588      728.915      
    408000   309.8216       0.01485129     21.478362      768.67592     -37.840338      730.83558    
    409000   289.27228      0.01485129     13.449203      717.69249     -41.164366      676.52813    
    410000   293.41676      0.01485129     5.8586223      727.97507     -41.461205      686.51387    
    411000   282.87512      0.01485129     6.8286964      701.82097     -41.926905      659.89407    
    412000   308.41518      0.01485129     8.3131605      765.18656     -40.197955      724.9886     
    413000   296.81303      0.01485129     14.003323      736.40131     -40.299361      696.10194    
    414000   290.60586      0.01485129     5.2540899      721.00115     -38.036553      682.9646     
    415000   302.91352      0.01485129    -6.2402249      751.5368      -37.583122      713.95368    
    416000   295.60535      0.01485129     4.1960244      733.40501     -42.138041      691.26697    
    417000   324.83785      0.01485129     10.159536      805.93167     -41.304108      764.62756    
    418000   290.74426      0.01485129     10.615963      721.34453     -33.17558       688.16895    
    419000   295.08986      0.01485129     6.8341003      732.12608     -34.985361      697.14072    
    420000   304.25174      0.01485129     8.4451945      754.85695     -40.879691      713.97726    
    421000   303.66596      0.01485129     7.6345609      753.40361     -38.865431      714.53818    
    422000   291.5769       0.01485129     6.9014244      723.41033     -33.958194      689.45214    
    423000   304.03854      0.01485129     9.0782032      754.32799     -40.342006      713.98599    
    424000   289.93799      0.01485129     6.1548688      719.34415     -41.855233      677.48892    
    425000   299.86037      0.01485129     7.0265571      743.96184     -41.196298      702.76554    
    426000   307.12142      0.01485129     5.724885       761.97671     -41.712859      720.26385    
    427000   307.81683      0.01485129     8.4452891      763.70205     -45.619988      718.08206    
    428000   294.75255      0.01485129     8.9487591      731.28921     -43.328365      687.96085    
    429000   293.48188      0.01485129     4.8019212      728.13663     -43.698495      684.43814    
    430000   317.74334      0.01485129     8.2258695      788.32999     -44.234761      744.09523    
    431000   302.9628       0.01485129     9.3321539      751.65907     -40.352405      711.30666    
    432000   278.59321      0.01485129     8.6417513      691.19744     -36.783398      654.41404    
    433000   301.99848      0.01485129     7.3135634      749.26656     -46.924663      702.34189    
    434000   307.93409      0.01485129     7.9979466      763.99298     -48.374684      715.61829    
    435000   298.77977      0.01485129     11.273889      741.28085     -53.385168      687.89568    
    436000   292.06094      0.01485129     8.300356       724.61125     -42.093505      682.51775    
    437000   301.2854       0.01485129     2.8685671      747.49739     -46.565207      700.93219    
    438000   311.51465      0.01485129     8.1409649      772.87642     -45.892749      726.98367    
    439000   293.14939      0.01485129     11.594622      727.31171     -43.28996       684.02174    
    440000   295.2463       0.01485129     5.4067453      732.5142      -42.054175      690.46003    
    441000   313.2714       0.01485129     8.4289244      777.23497     -44.913796      732.32117    
    442000   291.4398       0.01485129     12.836801      723.07017     -40.811915      682.25826    
    443000   288.08999      0.01485129     6.1407532      714.7592      -38.96086       675.79834    
    444000   314.24925      0.01485129     5.1242867      779.66106     -39.988914      739.67214    
    445000   304.34507      0.01485129     8.5496473      755.08852     -41.154153      713.93437    
    446000   300.7879       0.01485129     11.76125       746.26307     -45.642338      700.62073    
    447000   302.78905      0.01485129     9.9611262      751.22799     -40.402193      710.82579    
    448000   304.6958       0.01485129     7.3857084      755.95867     -42.021345      713.93732    
    449000   313.35373      0.01485129     8.2416721      777.43925     -40.254332      737.18491    
    450000   293.69961      0.01485129     10.54076       728.67684     -42.442102      686.23473    
    451000   294.65387      0.01485129     8.6215283      731.04438     -39.820061      691.22432    
    452000   290.36995      0.01485129     6.3569813      720.41584     -45.519734      674.8961     
    453000   294.04218      0.01485129     4.8936519      729.52675     -35.276373      694.25037    
    454000   307.72874      0.01485129     8.4494475      763.48348     -37.018956      726.46452    
    455000   304.91365      0.01485129     14.341324      756.49918     -41.36424       715.13493    
    456000   295.15153      0.01485129     9.7283684      732.27908     -41.446816      690.83226    
    457000   289.04555      0.01485129     1.686657       717.12997     -41.773736      675.35624    
    458000   310.2908       0.01485129     7.1287677      769.84004     -42.857468      726.98257    
    459000   291.32694      0.01485129     14.475685      722.79016     -41.632906      681.15725    
    460000   299.58418      0.01485129     6.5991096      743.27661     -37.942809      705.3338     
    461000   305.97856      0.01485129     6.3273644      759.14124     -39.268404      719.87283    
    462000   297.05191      0.01485129     9.580384       736.99397     -37.542034      699.45194    
    463000   297.56406      0.01485129     7.4511729      738.26463     -31.019368      707.24526    
    464000   298.18264      0.01485129     7.5976676      739.79934     -35.008309      704.79103    
    465000   302.90542      0.01485129     7.2459573      751.51671     -35.532641      715.98407    
    466000   304.05917      0.01485129     8.8147422      754.37917     -34.838065      719.54111    
    467000   287.35948      0.01485129     11.74077       712.9468      -37.448664      675.49813    
    468000   297.55446      0.01485129     5.9450462      738.24082     -37.274846      700.96598    
    469000   324.25727      0.01485129     9.8102225      804.49123     -30.847713      773.64351    
    470000   288.93657      0.01485129     10.100534      716.8596      -29.952901      686.90669    
    471000   290.56185      0.01485129     7.5145069      720.89195     -31.537408      689.35454    
    472000   310.72812      0.01485129     9.1220536      770.92504     -28.623829      742.30121    
    473000   293.46004      0.01485129     7.4948668      728.08245     -29.897871      698.18458    
    474000   306.6879       0.01485129     7.1250911      760.90113     -27.442514      733.45861    
    475000   306.44405      0.01485129     9.1872507      760.29613     -27.589086      732.70704    
    476000   298.49212      0.01485129     7.7848389      740.56717     -30.116349      710.45082    
    477000   290.34324      0.01485129     6.4045616      720.34959     -29.05006       691.29953    
    478000   304.33335      0.01485129     8.5554031      755.05943     -23.835826      731.2236     
    479000   299.20904      0.01485129     8.8040552      742.34588     -29.969243      712.37663    
    480000   295.22313      0.01485129     7.2221295      732.45672     -29.234422      703.22229    
    481000   303.72019      0.01485129     9.8315696      753.53817     -26.711368      726.8268     
    482000   295.10883      0.01485129     8.4341681      732.17314     -23.419276      708.75386    
    483000   307.0467       0.01485129     6.2133499      761.79132     -23.13785       738.65347    
    484000   295.1127       0.01485129     6.6164727      732.18273     -27.914575      704.26816    
    485000   300.0526       0.01485129     9.472699       744.43878     -25.530849      718.90793    
    486000   306.15405      0.01485129     10.092964      759.57663     -30.32017       729.25646    
    487000   303.48338      0.01485129     7.1687127      752.95063     -33.344319      719.60631    
    488000   294.63158      0.01485129     2.9827046      730.98906     -33.28187       697.70719    
    489000   290.57325      0.01485129     4.0126796      720.92025     -32.243771      688.67648    
    490000   290.33535      0.01485129     10.114502      720.33        -32.313936      688.01606    
    491000   313.0557       0.01485129     7.6083603      776.69983     -32.748666      743.95117    
    492000   308.31631      0.01485129     1.5771277      764.94128     -30.518259      734.42302    
    493000   296.52336      0.01485129     5.1740061      735.68263     -30.68617       704.99646    
    494000   296.2188       0.01485129     10.856789      734.92701     -25.381471      709.54554    
    495000   310.5018       0.01485129     7.5496019      770.36352     -27.992947      742.37058    
    496000   292.54854      0.01485129     2.8831865      725.821       -32.703212      693.11778    
    497000   296.35705      0.01485129     18.66056       735.27        -27.780133      707.48987    
    498000   300.37448      0.01485129     17.910106      745.23736     -31.249965      713.98739    
    499000   300.2145       0.01485129     7.0329322      744.84045     -30.967954      713.8725     
    500000   308.32749      0.01485129     6.8784527      764.96901     -25.086652      739.88236    
    501000   296.20071      0.01485129     7.984085       734.88213     -20.472084      714.41004    
    502000   298.45837      0.01485129     9.1574907      740.48345     -21.985927      718.49753    
    503000   293.42551      0.01485129    -0.50587029     727.99678     -21.351908      706.64488    
    504000   300.38664      0.01485129     12.223719      745.26753     -27.36881       717.89872    
    505000   317.42233      0.01485129     0.73500035     787.53355     -26.465551      761.068      
    506000   290.96059      0.01485129     7.2566623      721.88123     -18.196404      703.68483    
    507000   295.23578      0.01485129     13.042841      732.48811     -23.227749      709.26036    
    508000   312.58003      0.01485129     12.67031       775.51967     -26.293107      749.22656    
    509000   297.50048      0.01485129     6.557288       738.10688     -31.758442      706.34844    
    510000   291.24003      0.01485129     7.1540734      722.57454     -29.904996      692.66954    
    511000   316.93837      0.01485129     19.144141      786.33283     -28.663797      757.66903    
    512000   304.69248      0.01485129     1.2512408      755.95043     -30.158694      725.79174    
    513000   297.23544      0.01485129     1.3480078      737.44931     -27.850434      709.59888    
    514000   294.7025       0.01485129     14.039398      731.16504     -26.897891      704.26715    
    515000   302.98464      0.01485129     16.21453       751.71325     -28.203787      723.50946    
    516000   307.66935      0.01485129     18.899399      763.33614     -27.826792      735.50935    
    517000   292.4602       0.01485129     6.9947524      725.60183     -25.429778      700.17205    
    518000   303.43505      0.01485129     5.6748092      752.83073     -24.761713      728.06901    
    519000   299.78412      0.01485129     7.4715994      743.77267     -23.682342      720.09033    
    520000   301.84772      0.01485129     9.4234581      748.8925      -23.640794      725.25171    
    521000   305.41644      0.01485129     14.31519       757.7466      -25.272151      732.47445    
    522000   296.08289      0.01485129     7.6311061      734.58981     -24.925851      709.66396    
    523000   297.10298      0.01485129     4.8561034      737.12069     -26.918019      710.20267    
    524000   296.65069      0.01485129     16.484556      735.99855     -25.32022       710.67833    
    525000   313.8321       0.01485129     13.365121      778.62609     -28.524352      750.10174    
    526000   297.10993      0.01485129     6.2314282      737.13792     -28.93291       708.20501    
    527000   295.14258      0.01485129     7.4364726      732.25688     -29.013044      703.24383    
    528000   298.04322      0.01485129     8.0815251      739.45344     -26.853675      712.59977    
    529000   305.26878      0.01485129     8.6772658      757.38025     -30.175187      727.20506    
    530000   298.61033      0.01485129     8.5485577      740.86045     -29.296172      711.56428    
    531000   306.56319      0.01485129     6.4387385      760.59171     -28.298795      732.29292    
    532000   300.47456      0.01485129     8.0875455      745.48567     -32.735462      712.75021    
    533000   291.59314      0.01485129     5.7120485      723.45062     -32.7213        690.72932    
    534000   301.00319      0.01485129     10.244515      746.79721     -29.636737      717.16047    
    535000   303.75801      0.01485129     11.57727       753.63199     -30.150256      723.48174    
    536000   311.4551       0.01485129     9.4408308      772.72868     -31.225137      741.50354    
    537000   297.92027      0.01485129     6.124907       739.1484      -33.464268      705.68413    
    538000   293.5456       0.01485129     7.8842741      728.29473     -31.757348      696.53738    
    539000   296.35295      0.01485129     7.320225       735.25983     -33.207453      702.05238    
    540000   306.79882      0.01485129     8.1664167      761.17633     -31.331284      729.84504    
    541000   291.84378      0.01485129     8.8636719      724.07247     -32.611161      691.4613     
    542000   302.54021      0.01485129     11.514568      750.61059     -31.071458      719.53913    
    543000   303.50576      0.01485129     5.1934974      753.00616     -27.475578      725.53058    
    544000   299.04107      0.01485129     5.9939116      741.92915     -30.990884      710.93826    
    545000   302.3205       0.01485129     4.3933682      750.0655      -32.805142      717.26035    
    546000   302.58571      0.01485129     13.153141      750.72348     -31.633943      719.08954    
    547000   321.10958      0.01485129     3.2383073      796.68172     -27.95791       768.72381    
    548000   290.56719      0.01485129    -4.5165016      720.90521     -28.083613      692.8216     
    549000   298.6196       0.01485129     14.161846      740.88346     -27.888995      712.99447    
    550000   297.40197      0.01485129     20.964119      737.86249     -27.109184      710.7533     
    551000   297.0219       0.01485129     20.061098      736.91953     -26.414433      710.50509    
    552000   313.11475      0.01485129     8.7631069      776.84633     -29.127661      747.71867    
    553000   306.94923      0.01485129     3.7340897      761.5495      -21.823229      739.72627    
    554000   287.62863      0.01485129     7.631909       713.61456     -27.769878      685.84468    
    555000   297.58631      0.01485129     15.857086      738.31983     -28.515026      709.8048     
    556000   315.21886      0.01485129     10.853334      782.06669     -24.968747      757.09794    
    557000   299.01274      0.01485129    -10.150258      741.85884     -23.471095      718.38774    
    558000   291.54221      0.01485129     3.1075132      723.32425     -25.848946      697.4753     
    559000   304.58713      0.01485129     11.058822      755.68906     -28.786794      726.90227    
    560000   300.1401       0.01485129     9.5141328      744.65587     -27.287803      717.36807    
    561000   304.30708      0.01485129    -3.567202       754.99424     -28.006501      726.98774    
    562000   295.58514      0.01485129     2.0860086      733.35489     -35.009461      698.34543    
    563000   309.02498      0.01485129     14.880464      766.69948     -31.120129      735.57935    
    564000   304.84663      0.01485129     0.66016318     756.3329      -28.012291      728.3206     
    565000   286.51299      0.01485129     3.7456155      710.84663     -30.648803      680.19783    
    566000   303.70661      0.01485129     12.896792      753.50446     -28.369369      725.13509    
    567000   307.76198      0.01485129     3.3130449      763.56595     -28.800836      734.76511    
    568000   293.6399       0.01485129     12.503111      728.52869     -28.058602      700.47009    
    569000   304.38576      0.01485129     8.8799873      755.18947     -27.25601       727.93346    
    570000   301.96328      0.01485129     5.8307556      749.17923     -30.496062      718.68316    
    571000   304.3903       0.01485129     10.274042      755.20073     -24.506893      730.69384    
    572000   300.70852      0.01485129     10.326303      746.06612     -24.769176      721.29695    
    573000   307.18793      0.01485129     7.780451       762.14173     -22.275408      739.86633    
    574000   316.89504      0.01485129     7.2936486      786.22533     -24.238728      761.9866     
    575000   316.25417      0.01485129     1.5784415      784.63532     -26.538822      758.0965     
    576000   296.37569      0.01485129     7.5797588      735.31626     -23.914755      711.40151    
    577000   302.37779      0.01485129     6.3467191      750.20763     -28.883078      721.32456    
    578000   312.94797      0.01485129     9.0473851      776.43255     -22.430283      754.00227    
    579000   303.57599      0.01485129     9.6204222      753.18039     -24.31081       728.86958    
    580000   297.5948       0.01485129     7.6289179      738.3409      -25.019545      713.32135    
    581000   288.65228      0.01485129     7.5745333      716.15426     -26.374338      689.77992    
    582000   298.62975      0.01485129     7.9748484      740.90864     -26.323086      714.58556    
    583000   309.10231      0.01485129     7.4183706      766.89136     -24.47559       742.41577    
    584000   309.41925      0.01485129     8.7450902      767.6777      -21.87475       745.80295    
    585000   301.42655      0.01485129     6.8826162      747.84757     -23.742873      724.1047     
    586000   285.29284      0.01485129     7.3366998      707.81939     -21.720582      686.09881    
    587000   303.79421      0.01485129     9.2299829      753.72181     -20.509258      733.21256    
    588000   312.03874      0.01485129     8.3863249      774.17672     -22.23402       751.9427     
    589000   296.89524      0.01485129     6.1222549      736.60526     -24.517624      712.08764    
    590000   293.94772      0.01485129     7.5154549      729.29239     -27.709394      701.583      
    591000   289.45889      0.01485129     7.9120046      718.15547     -27.158447      690.99703    
    592000   292.09536      0.01485129     6.8197754      724.69664     -23.872754      700.82389    
    593000   296.71678      0.01485129     8.3856254      736.16251     -24.239285      711.92323    
    594000   289.54802      0.01485129     7.3003507      718.37661     -26.32962       692.04699    
    595000   282.32323      0.01485129     7.6673845      700.45173     -23.117392      677.33434    
    596000   298.0711       0.01485129     5.4557715      739.52261     -25.266843      714.25577    
    597000   310.59968      0.01485129     8.9711453      770.60638     -24.901372      745.70501    
    598000   301.56883      0.01485129     8.7196249      748.20059     -24.649359      723.55123    
    599000   290.43866      0.01485129     8.218019       720.58632     -27.021948      693.56437    
    600000   301.10876      0.01485129     7.7351792      747.05913     -28.868518      718.19061    
    601000   320.11068      0.01485129     8.3028086      794.20341     -27.073308      767.1301     
    602000   302.37705      0.01485129     8.6082539      750.20579     -27.692145      722.51364    
    603000   310.0051       0.01485129     8.2721549      769.13121     -33.366369      735.76484    
    604000   287.24726      0.01485129     6.9197937      712.66836     -31.201627      681.46674    
    605000   297.02335      0.01485129     7.4100167      736.92313     -29.747314      707.17581    
    606000   329.65452      0.01485129     9.6567872      817.88195     -31.237949      786.644      
    607000   288.93991      0.01485129     7.1120106      716.86788     -27.753006      689.11487    
    608000   293.43206      0.01485129     7.6489948      728.01302     -28.571291      699.44173    
    609000   304.91432      0.01485129     6.9680626      756.50083     -31.603784      724.89705    
    610000   301.66377      0.01485129     8.3699757      748.43613     -29.063998      719.37213    
    611000   303.13618      0.01485129     8.9669576      752.08921     -31.437533      720.65168    
    612000   304.19027      0.01485129     7.7415176      754.70443     -34.582765      720.12167    
    613000   296.13272      0.01485129     8.7438656      734.71345     -30.814577      703.89887    
    614000   298.95805      0.01485129     5.6256769      741.72316     -32.363338      709.35982    
    615000   298.73575      0.01485129     8.31955        741.17162     -28.016599      713.15502    
    616000   301.87217      0.01485129     9.3950388      748.95318     -31.287374      717.66581    
    617000   302.10821      0.01485129     7.0149709      749.53879     -29.762054      719.77674    
    618000   313.00736      0.01485129     7.456732       776.57988     -27.808554      748.77133    
    619000   307.9326       0.01485129     9.8720887      763.98927     -27.345634      736.64364    
    620000   288.21737      0.01485129     10.151856      715.07524     -30.300934      684.77431    
    621000   304.8379       0.01485129     4.8743393      756.31123     -29.702844      726.60838    
    622000   301.83173      0.01485129     9.0914351      748.85285     -30.951558      717.90129    
    623000   296.5094       0.01485129     16.776341      735.648       -26.713935      708.93407    
    624000   293.41142      0.01485129     9.8974459      727.96182     -27.417151      700.54467    
    625000   303.23606      0.01485129     5.1633459      752.33702     -26.668759      725.66826    
    626000   301.53881      0.01485129     8.1792597      748.12609     -28.266803      719.85929    
    627000   291.90102      0.01485129     15.040715      724.21447     -25.308488      698.90598    
    628000   306.3048       0.01485129     3.7535204      759.95064     -30.14721       729.80343    
    629000   311.94277      0.01485129     11.166622      773.93862     -25.961025      747.97759    
    630000   290.58545      0.01485129     12.032341      720.95051     -28.016062      692.93445    
    631000   294.42947      0.01485129     4.2560698      730.48762     -27.125221      703.3624     
    632000   297.44481      0.01485129    -1.3251409      737.96879     -26.767588      711.2012     
    633000   297.92882      0.01485129     3.954391       739.16963     -30.475967      708.69366    
    634000   309.52782      0.01485129     6.2404559      767.94705     -32.101118      735.84593    
    635000   306.96414      0.01485129    -2.8430348      761.58651     -30.643048      730.94346    
    636000   312.0011       0.01485129     0.51806967     774.08333     -30.220102      743.86322    
    637000   292.26957      0.01485129     13.947888      725.12886     -23.763764      701.36509    
    638000   282.01486      0.01485129     9.679847       699.68665     -25.878837      673.80782    
    639000   305.90888      0.01485129     3.2641478      758.96837     -29.990205      728.97816    
    640000   324.69982      0.01485129     15.511327      805.58919     -29.358314      776.23088    
    641000   282.83235      0.01485129     20.68906       701.71485     -29.946762      671.76808    
    642000   296.87424      0.01485129     1.1969906      736.55317     -30.368993      706.18418    
    643000   299.4609       0.01485129     5.2453877      742.97075     -32.5818        710.38895    
    644000   312.85524      0.01485129     8.4398095      776.20247     -29.375167      746.82731    
    645000   294.68661      0.01485129     10.198175      731.12561     -29.690785      701.43483    
    646000   303.90498      0.01485129     17.354502      753.99663     -29.739206      724.25742    
    647000   302.32363      0.01485129     5.7700068      750.07326     -30.15635       719.91691    
    648000   290.66582      0.01485129    -5.9235686      721.14991     -26.220236      694.92967    
    649000   299.3569       0.01485129     6.9832038      742.71273     -23.513211      719.19952    
    650000   298.36508      0.01485129     7.3685592      740.252       -23.420035      716.83196    
    651000   317.61385      0.01485129     10.224847      788.0087      -21.604045      766.40466    
    652000   304.54834      0.01485129     7.9446767      755.59284     -22.633732      732.95911    
    653000   300.61302      0.01485129     5.791765       745.82918     -20.173342      725.65584    
    654000   297.37347      0.01485129     8.3023083      737.79177     -22.331431      715.46034    
    655000   293.15107      0.01485129     7.5725709      727.31589     -23.145305      704.17058    
    656000   297.55354      0.01485129     8.3698409      738.23853     -22.747933      715.4906     
    657000   300.96569      0.01485129     8.4775989      746.70417     -26.922262      719.78191    
    658000   290.56683      0.01485129     7.5382445      720.90432     -26.085344      694.81898    
    659000   297.63258      0.01485129     7.6208562      738.43463     -29.333221      709.10141    
    660000   290.68247      0.01485129     8.7581537      721.19121     -27.004458      694.18675    
    661000   306.60539      0.01485129     8.9273925      760.69642     -25.610426      735.08599    
    662000   288.88036      0.01485129     8.1134015      716.72014     -23.039986      693.68015    
    663000   304.11896      0.01485129     7.7952617      754.52753     -22.404965      732.12256    
    664000   300.82678      0.01485129     8.1513541      746.35953     -20.640097      725.71943    
    665000   297.35433      0.01485129     8.0217515      737.74429     -26.52195       711.22234    
    666000   306.63683      0.01485129     7.5804962      760.77443     -25.128423      735.646      
    667000   308.02107      0.01485129     8.0219809      764.20877     -24.821203      739.38756    
    668000   307.96623      0.01485129     10.279371      764.07269     -25.871897      738.2008     
    669000   302.05862      0.01485129     7.0961842      749.41577     -28.27045       721.14532    
    670000   288.96686      0.01485129     5.7039068      716.93474     -22.067884      694.86686    
    671000   301.27313      0.01485129     9.9761586      747.46694     -25.40934       722.0576     
    672000   320.70605      0.01485129     7.2865526      795.68056     -23.134045      772.54651    
    673000   303.17205      0.01485129     5.4436125      752.17821     -21.727539      730.45067    
    674000   277.67862      0.01485129     6.9389315      688.92831     -20.952662      667.97565    
    675000   297.69243      0.01485129     7.9561135      738.58314     -23.547545      715.03559    
    676000   312.59633      0.01485129     9.6610593      775.56011     -28.361188      747.19893    
    677000   300.54332      0.01485129     7.658891       745.65625     -27.195083      718.46117    
    678000   297.98757      0.01485129     7.7498929      739.31537     -27.647398      711.66797    
    679000   296.99358      0.01485129     8.7392753      736.84926     -29.271228      707.57803    
    680000   302.51503      0.01485129     9.231146       750.54813     -22.633067      727.91507    
    681000   311.49165      0.01485129     8.5388088      772.81938     -28.201319      744.61806    
    682000   302.71932      0.01485129     5.3612271      751.05498     -26.474891      724.58009    
    683000   290.84988      0.01485129     10.801046      721.60657     -28.640846      692.96572    
    684000   308.00533      0.01485129     14.55631       764.16971     -26.377807      737.79191    
    685000   309.89743      0.01485129     2.2089534      768.86406     -27.103356      741.76071    
    686000   298.60682      0.01485129     4.8935816      740.85175     -25.901385      714.95036    
    687000   296.61631      0.01485129     9.8630975      735.91323     -26.799065      709.11417    
    688000   301.89062      0.01485129     13.549302      748.99896     -29.806009      719.19295    
    689000   313.26288      0.01485129     3.3433093      777.21383     -28.95152       748.26231    
    690000   289.3842       0.01485129    -2.9575702      717.97018     -20.815171      697.15501    
    691000   285.95172      0.01485129     8.0713407      709.4541      -20.342858      689.11124    
    692000   303.44237      0.01485129     10.374779      752.84889     -21.495566      731.35332    
    693000   310.40262      0.01485129     10.944198      770.11745     -25.195525      744.92192    
    694000   299.94955      0.01485129    -14.57972       744.1831      -30.966622      713.21648    
    695000   293.28956      0.01485129     9.2889842      727.65948     -30.313509      697.34597    
    696000   307.35845      0.01485129     30.71648       762.56478     -28.899816      733.66496    
    697000   301.12785      0.01485129     4.4098882      747.1065      -27.641751      719.46475    
    698000   287.03538      0.01485129    -3.5276391      712.14268     -24.331117      687.81156    
    699000   296.82411      0.01485129     12.877202      736.4288      -23.903777      712.52502    
    700000   324.76269      0.01485129     13.050602      805.74517     -24.73901       781.00616    
    701000   300.07514      0.01485129     5.2446874      744.49468     -31.630271      712.86441    
    702000   293.31141      0.01485129     5.8367055      727.71368     -31.958201      695.75548    
    703000   302.54637      0.01485129     13.136916      750.62588     -26.376195      724.24968    
    704000   315.28843      0.01485129     13.168254      782.23928     -25.22754       757.01174    
    705000   298.40323      0.01485129     6.8814087      740.34663     -26.780048      713.56658    
    706000   291.25517      0.01485129     5.6134652      722.6121      -25.601463      697.01064    
    707000   318.72678      0.01485129     21.673615      790.76993     -23.634343      767.13559    
    708000   312.28863      0.01485129     5.1144872      774.79669     -25.842081      748.95461    
    709000   291.03136      0.01485129     5.4081561      722.05683     -25.006993      697.04983    
    710000   283.45425      0.01485129     10.470633      703.2578      -26.356695      676.9011     
    711000   308.1102       0.01485129     8.1559939      764.4299      -23.997597      740.43231    
    712000   293.69758      0.01485129     6.9730438      728.67179     -26.832199      701.83959    
    713000   287.87422      0.01485129     8.2261295      714.22387     -29.130108      685.09376    
    714000   315.56483      0.01485129     9.0954425      782.92505     -28.884217      754.04083    
    715000   313.12828      0.01485129     8.8035515      776.87988     -23.441678      753.4382     
    716000   291.88642      0.01485129     7.1316234      724.17824     -24.844774      699.33347    
    717000   293.55884      0.01485129     8.0194648      728.32758     -22.929697      705.39788    
    718000   313.79488      0.01485129     8.4120634      778.53375     -22.461054      756.0727     
    719000   303.2871       0.01485129     8.4620377      752.46366     -23.209099      729.25456    
    720000   292.20262      0.01485129     7.4822337      724.96276     -28.245712      696.71705    
    721000   288.97293      0.01485129     8.2914926      716.9498      -25.95655       690.99325    
    722000   309.71713      0.01485129     9.0056204      768.41674     -25.765638      742.6511     
    723000   304.4017       0.01485129     6.5354545      755.22901     -26.857625      728.37138    
    724000   287.19225      0.01485129     8.799941       712.53188     -28.267459      684.26442    
    725000   290.31221      0.01485129     1.2824961      720.27258     -28.409764      691.86282    
    726000   309.5198       0.01485129     8.1989168      767.92714     -22.54535       745.38179    
    727000   303.60556      0.01485129     8.4733771      753.25375     -24.686392      728.56736    
    728000   285.728        0.01485129     7.6989703      708.89904     -26.301121      682.59792    
    729000   295.82576      0.01485129     7.828319       733.95185     -26.077511      707.87434    
    730000   314.35045      0.01485129     8.339254       779.91214     -26.635872      753.27627    
    731000   309.31708      0.01485129     8.6646122      767.42421     -20.994017      746.43019    
    732000   291.39112      0.01485129     9.2335398      722.94941     -24.649825      698.29959    
    733000   291.30372      0.01485129     7.608804       722.73257     -24.630853      698.10171    
    734000   304.20324      0.01485129     7.5894497      754.73662     -24.607153      730.12947    
    735000   304.57016      0.01485129     8.4311739      755.64696     -21.304409      734.34256    
    736000   299.06388      0.01485129     7.6406732      741.98574     -25.943591      716.04214    
    737000   299.75423      0.01485129     6.8776121      743.69851     -24.276925      719.42159    
    738000   303.1344       0.01485129     8.8207572      752.08481     -25.983617      726.10119    
    739000   316.71827      0.01485129     4.4641981      785.78676     -26.160918      759.62585    
    740000   298.23317      0.01485129     7.2532121      739.92472     -24.307473      715.61725    
    741000   288.69513      0.01485129     11.027984      716.26058     -26.105294      690.15528    
    742000   307.8164       0.01485129     9.6114195      763.70098     -28.521467      735.17951    
    743000   311.6216       0.01485129     5.9748329      773.14177     -28.607098      744.53467    
    744000   301.27492      0.01485129     5.243543       747.47139     -31.651129      715.82026    
    745000   291.99209      0.01485129     8.3127806      724.44043     -28.792987      695.64744    
    746000   295.03367      0.01485129     8.8554683      731.98666     -23.385897      708.60076    
    747000   291.43337      0.01485129     8.3698904      723.05422     -29.196128      693.85809    
    748000   304.48004      0.01485129     10.250448      755.42337     -24.516392      730.90698    
    749000   304.02397      0.01485129     7.9770408      754.29184     -28.9237        725.36814    
    750000   306.74463      0.01485129     9.0283413      761.04189     -27.377328      733.66456    
    751000   292.11386      0.01485129     8.5494103      724.74255     -28.887373      695.85518    
    752000   295.03429      0.01485129     6.5100524      731.98821     -31.121538      700.86668    
    753000   317.805        0.01485129     8.3122197      788.48296     -35.435326      753.04764    
    754000   293.96244      0.01485129     7.7383483      729.32891     -37.439021      691.88989    
    755000   283.9621       0.01485129     6.5542758      704.5178      -31.41244       673.10536    
    756000   303.82001      0.01485129     6.9416282      753.78583     -34.288386      719.49744    
    757000   308.12277      0.01485129     9.6182814      764.46109     -36.219733      728.24136    
    758000   294.68748      0.01485129     10.492951      731.12777     -35.190019      695.93775    
    759000   297.74919      0.01485129     6.8362096      738.72395     -38.835406      699.88855    
    760000   308.16845      0.01485129     8.1755489      764.57442     -36.057254      728.51716    
    761000   301.9314       0.01485129     8.2927849      749.10012     -33.209162      715.89096    
    762000   294.98439      0.01485129     7.6587258      731.86441     -36.144946      695.71947    
    763000   295.7289       0.01485129     9.0306568      733.71155     -35.405757      698.30579    
    764000   310.73943      0.01485129     7.2575912      770.95308     -36.423012      734.53007    
    765000   285.83004      0.01485129     6.582789       709.15221     -37.919094      671.23312    
    766000   288.15106      0.01485129     8.0635891      714.91072     -36.035045      678.87568    
    767000   312.99443      0.01485129     7.6724783      776.5478      -36.509128      740.03867    
    768000   306.63984      0.01485129     7.377017       760.7819      -35.685105      725.0968     
    769000   300.67129      0.01485129     8.0900422      745.97377     -34.505187      711.46858    
    770000   304.70483      0.01485129     7.4423403      755.98109     -31.797947      724.18314    
    771000   295.33015      0.01485129     6.1726981      732.72225     -32.120452      700.6018     
    772000   296.96461      0.01485129     10.495811      736.77737     -31.653828      705.12355    
    773000   305.13115      0.01485129     8.2726806      757.03879     -30.156982      726.88181    
    774000   300.1518       0.01485129     7.5004723      744.68488     -27.362539      717.32234    
    775000   308.22073      0.01485129     7.8495955      764.70412     -28.749439      735.95469    
    776000   295.66554      0.01485129     8.5987771      733.55436     -29.815625      703.73874    
    777000   307.03923      0.01485129     7.3444441      761.77279     -26.653976      735.11882    
    778000   293.40361      0.01485129     6.6065168      727.94244     -24.55598       703.38646    
    779000   287.34939      0.01485129     8.4037129      712.92175     -24.848695      688.07305    
    780000   308.03929      0.01485129     8.0659627      764.25397     -23.263081      740.99089    
    781000   316.96175      0.01485129     12.056735      786.39083     -22.650254      763.74057    
    782000   292.953        0.01485129     8.3172883      726.82446     -25.588567      701.23589    
    783000   306.45482      0.01485129     4.6014655      760.32287     -26.047764      734.2751     
    784000   320.96153      0.01485129     8.8625751      796.31441     -28.949514      767.3649     
    785000   301.89716      0.01485129     8.929356       749.01517     -28.784496      720.23068    
    786000   289.62985      0.01485129     5.5584734      718.57963     -30.315166      688.26447    
    787000   306.16708      0.01485129     1.1333502      759.60896     -33.449283      726.15968    
    788000   309.30762      0.01485129     10.1275        767.40073     -30.974423      736.4263     
    789000   289.65411      0.01485129     17.266949      718.63984     -28.532525      690.10732    
    790000   296.09808      0.01485129    -2.4436114      734.6275      -28.195383      706.43212    
    791000   315.80143      0.01485129     5.681396       783.51205     -28.031092      755.48096    
    792000   297.17583      0.01485129     18.098364      737.30142     -26.3652        710.93622    
    793000   288.31667      0.01485129     12.670965      715.32161     -25.506368      689.81524    
    794000   292.97038      0.01485129     1.1862194      726.86758     -21.946592      704.92099    
    795000   319.69432      0.01485129     3.6911354      793.17041     -22.749715      770.4207     
    796000   300.79511      0.01485129     13.024998      746.28096     -25.859242      720.42172    
    797000   289.50805      0.01485129     11.352617      718.27746     -27.0457        691.23176    
    798000   288.86142      0.01485129     11.774805      716.67314     -27.92576       688.74738    
    799000   305.92557      0.01485129    -0.42264309     759.00977     -31.249371      727.7604     
    800000   306.57319      0.01485129     17.120441      760.61654     -26.859567      733.75698    
    801000   278.68342      0.01485129     17.56961       691.42124     -27.302518      664.11872    
    802000   296.71071      0.01485129     5.9239092      736.14745     -29.90126       706.24619    
    803000   318.20769      0.01485129     7.7095249      789.48206     -27.545365      761.93669    
    804000   306.32985      0.01485129     14.98804       760.01281     -30.089936      729.92287    
    805000   286.45992      0.01485129     3.5063889      710.71497     -30.062581      680.65239    
    806000   297.87103      0.01485129    -5.8293809      739.02625     -27.214113      711.81213    
    807000   319.24053      0.01485129     10.097876      792.04455     -24.165702      767.87885    
    808000   308.08575      0.01485129     10.005779      764.36923     -26.23657       738.13266    
    809000   286.94821      0.01485129     12.725136      711.92641     -29.161706      682.76471    
    810000   306.44815      0.01485129     6.4097355      760.30631     -26.631376      733.67493    
    811000   307.2215       0.01485129    -2.2053921      762.22501     -23.82627       738.39874    
    812000   304.76253      0.01485129     12.978916      756.12425     -23.522866      732.60138    
    813000   289.4833       0.01485129     5.2025752      718.21604     -26.076802      692.13924    
    814000   303.81998      0.01485129    -1.9500481      753.78576     -26.960071      726.82569    
    815000   307.52392      0.01485129     10.17179       762.97532     -26.29466       736.68066    
    816000   298.26838      0.01485129     14.760854      740.01208     -23.315508      716.69658    
    817000   282.95127      0.01485129     10.388526      702.00989     -26.569565      675.44033    
    818000   281.35575      0.01485129     6.3317239      698.05136     -26.888537      671.16282    
    819000   302.51055      0.01485129     6.9546357      750.537       -28.63832       721.89868    
    820000   307.32599      0.01485129     10.838517      762.48424     -31.19833       731.28591    
    821000   287.87105      0.01485129     14.676638      714.21601     -26.584023      687.63199    
    822000   288.55138      0.01485129     4.8907106      715.90394     -31.83954       684.0644     
    823000   303.21323      0.01485129     5.3863659      752.28039     -25.265951      727.01444    
    824000   299.84515      0.01485129     6.2431174      743.92408     -21.667369      722.25672    
    825000   309.92775      0.01485129     13.332572      768.93928     -28.097655      740.84162    
    826000   298.95682      0.01485129     9.5875097      741.7201      -29.676174      712.04393    
    827000   291.23567      0.01485129     8.5297758      722.56371     -28.642849      693.92086    
    828000   297.26291      0.01485129     7.8430572      737.51748     -26.30737       711.21011    
    829000   290.33995      0.01485129     6.8484421      720.34143     -24.568483      695.77295    
    830000   305.90402      0.01485129     8.8135427      758.95631     -28.356767      730.59954    
    831000   304.42904      0.01485129     7.3750694      755.29683     -28.672126      726.6247     
    832000   294.72103      0.01485129     6.2001835      731.21101     -28.139081      703.07193    
    833000   291.6886       0.01485129     8.525352       723.68746     -28.456085      695.23137    
    834000   303.2303       0.01485129     14.074585      752.32273     -28.317456      724.00527    
    835000   304.29305      0.01485129     8.1665209      754.95946     -22.765547      732.19391    
    836000   299.75182      0.01485129     6.4872628      743.69252     -24.336745      719.35578    
    837000   292.0134       0.01485129     7.3775195      724.49329     -28.09533       696.39796    
    838000   307.71901      0.01485129     8.2186833      763.45934     -22.836654      740.62269    
    839000   300.25844      0.01485129     8.5116517      744.94947     -27.429339      717.52013    
    840000   300.94237      0.01485129     8.0935717      746.64631     -33.001965      713.64435    
    841000   299.57072      0.01485129     9.031357       743.24322     -26.97636       716.26686    
    842000   302.81114      0.01485129     8.3417301      751.28278     -24.797582      726.4852     
    843000   306.29316      0.01485129     9.2941966      759.92178     -25.308927      734.61285    
    844000   287.45428      0.01485129     8.108009       713.18199     -27.014349      686.16764    
    845000   297.22309      0.01485129     4.6368351      737.41869     -26.520288      710.8984     
    846000   310.33913      0.01485129     5.7904984      769.95993     -31.548587      738.41134    
    847000   293.16886      0.01485129     12.608972      727.36003     -32.730647      694.62938    
    848000   289.97636      0.01485129     10.626095      719.43933     -32.416457      687.02288    
    849000   297.61197      0.01485129     5.7972184      738.3835      -32.314474      706.06903    
    850000   307.64882      0.01485129     6.6265929      763.2852      -28.706391      734.57881    
    851000   306.92832      0.01485129     16.671624      761.49763     -28.002769      733.49487    
    852000   271.23419      0.01485129     11.78226       672.93951     -22.142312      650.7972     
    853000   301.15919      0.01485129     5.6041929      747.18426     -27.379799      719.80446    
    854000   311.0047       0.01485129     16.326051      771.61124     -26.517345      745.0939     
    855000   290.45763      0.01485129     7.0971813      720.63338     -25.434854      695.19852    
    856000   305.10067      0.01485129     4.5946402      756.96316     -28.537502      728.42566    
    857000   297.31408      0.01485129     19.697304      737.64444     -28.057667      709.58677    
    858000   298.28623      0.01485129     5.5145739      740.05636     -29.32737       710.72899    
    859000   301.56415      0.01485129     2.3973118      748.18897     -31.578507      716.61046    
    860000   298.18738      0.01485129     16.754879      739.81111     -30.374058      709.43705    
    861000   286.8655       0.01485129     7.920071       711.72122     -28.824569      682.89665    
    862000   301.69768      0.01485129     7.5057631      748.52027     -32.654813      715.86545    
    863000   300.89547      0.01485129     5.050316       746.52996     -27.203974      719.32598    
    864000   309.82575      0.01485129     9.2065651      768.68623     -25.123371      743.56286    
    865000   299.92436      0.01485129     12.849323      744.12059     -29.651059      714.46953    
    866000   296.30755      0.01485129     7.3387014      735.1472      -33.244141      701.90306    
    867000   287.51141      0.01485129     5.4469557      713.32374     -32.453464      680.87027    
    868000   308.52603      0.01485129     8.8158688      765.46157     -28.224291      737.23728    
    869000   292.91553      0.01485129     6.143591       726.7315      -28.519641      698.21186    
    870000   300.34411      0.01485129     7.0156264      745.16202     -30.105612      715.05641    
    871000   304.05012      0.01485129     8.7418712      754.35673     -29.599862      724.75687    
    872000   314.55866      0.01485129     10.348212      780.4287      -25.732454      754.69625    
    873000   299.29765      0.01485129     9.0397854      742.56573     -29.017561      713.54817    
    874000   290.35146      0.01485129     9.5359262      720.36997     -29.535501      690.83447    
    875000   297.66933      0.01485129     6.4920757      738.52581     -30.377017      708.14879    
    876000   304.81198      0.01485129     6.7662824      756.24693     -29.619717      726.62721    
    877000   310.25362      0.01485129     15.478273      769.74779     -32.774102      736.97369    
    878000   292.83669      0.01485129     7.3868468      726.5359      -34.432267      692.10363    
    879000   287.04817      0.01485129     7.0904342      712.17443     -35.691377      676.48305    
    880000   307.32263      0.01485129     8.4488839      762.47592     -30.866981      731.60894    
    881000   315.33573      0.01485129     7.9862422      782.35665     -30.534926      751.82172    
    882000   305.30951      0.01485129     6.6088574      757.48132     -26.615064      730.86626    
    883000   292.20413      0.01485129     8.1017453      724.96651     -28.346481      696.62003    
    884000   282.84405      0.01485129     11.168621      701.74388     -24.402473      677.34141    
    885000   308.07109      0.01485129     3.3427776      764.33287     -28.535464      735.7974     
    886000   290.20802      0.01485129     2.9548452      720.0141      -29.454021      690.56008    
    887000   300.12165      0.01485129     12.13418       744.61009     -28.245216      716.36488    
    888000   307.11673      0.01485129     3.1566936      761.96507     -24.816219      737.14885    
    889000   288.82009      0.01485129     1.7583461      716.57061     -25.407369      691.16324    
    890000   298.80003      0.01485129     9.8056521      741.33112     -27.570299      713.76082    
    891000   291.42139      0.01485129     11.387061      723.02451     -24.359408      698.6651     
    892000   293.90507      0.01485129     9.8504927      729.18658     -26.308447      702.87814    
    893000   296.52225      0.01485129     10.952273      735.67988     -22.901775      712.7781     
    894000   324.76723      0.01485129     4.9863502      805.75645     -29.138678      776.61777    
    895000   305.33409      0.01485129     3.9011983      757.54228     -28.109123      729.43316    
    896000   306.7148       0.01485129     11.381955      760.96786     -29.08757       731.88029    
    897000   302.28554      0.01485129     8.4057759      749.97876     -29.08887       720.88989    
    898000   311.90305      0.01485129     2.3786316      773.84006     -26.165851      747.6742     
    899000   288.15808      0.01485129     1.4024614      714.92814     -23.969465      690.95867    
    900000   296.19236      0.01485129     12.281018      734.8614      -25.391316      709.47009    
    901000   308.55862      0.01485129     18.724863      765.54245     -27.699348      737.8431     
    902000   308.79632      0.01485129     8.7073386      766.13218     -25.955892      740.17629    
    903000   300.22705      0.01485129     2.6888914      744.8716      -30.36808       714.50352    
    904000   298.42568      0.01485129     10.996289      740.40233     -26.714107      713.68823    
    905000   302.35704      0.01485129     7.4441525      750.15614     -26.701214      723.45493    
    906000   302.5765       0.01485129     7.1782582      750.70064     -24.347786      726.35286    
    907000   300.09554      0.01485129     8.5262944      744.54532     -24.820613      719.7247     
    908000   302.30147      0.01485129     10.657423      750.01829     -26.959358      723.05893    
    909000   294.40862      0.01485129    -1.8438851      730.4359      -25.853708      704.58219    
    910000   295.8176       0.01485129     9.5906392      733.93163     -30.53045       703.40118    
    911000   313.91649      0.01485129     8.7209103      778.83547     -29.367505      749.46797    
    912000   306.74908      0.01485129     8.9944214      761.05291     -31.914776      729.13814    
    913000   296.01607      0.01485129     4.7634789      734.42404     -26.637623      707.78642    
    914000   294.23214      0.01485129     5.9589785      729.99804     -29.409202      700.58884    
    915000   302.85745      0.01485129     8.893747       751.39768     -27.068405      724.32927    
    916000   299.18434      0.01485129     7.6153638      742.2846      -32.700559      709.58404    
    917000   302.86938      0.01485129     7.5450186      751.42728     -35.089465      716.33781    
    918000   292.31518      0.01485129     8.6007209      725.24202     -32.044247      693.19778    
    919000   299.54078      0.01485129     8.4177479      743.16893     -34.61668       708.55225    
    920000   290.19503      0.01485129     7.0662571      719.98186     -27.527606      692.45426    
    921000   300.97267      0.01485129     9.9288972      746.7215      -28.345239      718.37626    
    922000   305.65263      0.01485129     8.8468129      758.33261     -28.03249       730.30012    
    923000   297.85211      0.01485129     6.9356955      738.97929     -28.41666       710.56263    
    924000   308.65189      0.01485129     7.2302686      765.77384     -26.389461      739.38438    
    925000   298.82714      0.01485129     7.6793432      741.39838     -25.525187      715.87319    
    926000   296.43322      0.01485129     8.2500269      735.45899     -25.527324      709.93167    
    927000   301.1464       0.01485129     4.7693368      747.15253     -25.817941      721.33459    
    928000   287.09814      0.01485129     7.3398108      712.2984      -23.358208      688.9402     
    929000   307.0658       0.01485129     7.8262496      761.83872     -24.995506      736.84321    
    930000   324.76966      0.01485129     8.4681917      805.76249     -24.684519      781.07797    
    931000   306.15243      0.01485129     8.4134111      759.57261     -22.641549      736.93106    
    932000   283.42676      0.01485129     6.9056358      703.18959     -21.696361      681.49323    
    933000   298.57753      0.01485129     5.7618357      740.77908     -21.701445      719.07763    
    934000   307.60519      0.01485129     10.424004      763.17695     -21.751411      741.42554    
    935000   295.37015      0.01485129     11.135841      732.82149     -21.429139      711.39235    
    936000   288.34494      0.01485129     5.394239       715.39174     -25.277889      690.11385    
    937000   310.75127      0.01485129     4.9215472      770.98246     -23.888387      747.09407    
    938000   311.65044      0.01485129     9.85317        773.21333     -23.037538      750.17579    
    939000   284.99208      0.01485129     7.4844264      707.07319     -25.190181      681.88301    
    940000   298.53862      0.01485129     7.2644489      740.68256     -25.534383      715.14817    
    941000   306.06342      0.01485129     8.3284464      759.35179     -21.682491      737.6693     
    942000   296.49103      0.01485129     8.510874       735.60241     -27.208075      708.39433    
    943000   295.41531      0.01485129     8.0730173      732.93352     -28.885957      704.04756    
    944000   311.04911      0.01485129     8.7159235      771.72142     -31.135041      740.58638    
    945000   307.59559      0.01485129     6.7419532      763.15313     -30.330585      732.82255    
    946000   296.59131      0.01485129     5.2050744      735.85123     -32.756007      703.09522    
    947000   296.86526      0.01485129     13.502342      736.53089     -24.96719       711.5637     
    948000   300.03375      0.01485129     6.77289        744.39201     -26.58671       717.8053     
    949000   291.84907      0.01485129     4.5437551      724.08558     -26.960088      697.12549    
    950000   300.88602      0.01485129     6.9186608      746.50652     -26.442933      720.06358    
    951000   301.07447      0.01485129     14.202743      746.97405     -31.194273      715.77977    
    952000   304.91793      0.01485129     7.7623004      756.50979     -28.951339      727.55845    
    953000   315.83154      0.01485129     3.6803279      783.58675     -26.481535      757.10522    
    954000   289.47337      0.01485129     5.2057884      718.19141     -25.842363      692.34905    
    955000   286.73246      0.01485129     14.679972      711.39114     -24.92027       686.47087    
    956000   298.76569      0.01485129     8.4607782      741.24592     -24.943674      716.30225    
    957000   292.08143      0.01485129     3.7765344      724.66208     -26.642036      698.02004    
    958000   307.95534      0.01485129     10.742181      764.04568     -27.422452      736.62323    
    959000   314.36719      0.01485129     6.6251113      779.95366     -26.267679      753.68598    
    960000   288.10605      0.01485129     1.7312338      714.79905     -25.406763      689.39229    
    961000   288.30102      0.01485129     18.372699      715.28278     -26.990699      688.29208    
    962000   305.70978      0.01485129     9.8114424      758.4744      -30.34081       728.13359    
    963000   315.23635      0.01485129     0.23844833     782.11008     -29.11465       752.99543    
    964000   282.58971      0.01485129     1.9986217      701.11285     -28.655703      672.45715    
    965000   300.86339      0.01485129     17.229118      746.45037     -28.358097      718.09227    
    966000   317.66704      0.01485129     2.7884588      788.14069     -30.365995      757.7747     
    967000   280.43424      0.01485129     11.221427      695.76507     -29.972905      665.79216    
    968000   299.20646      0.01485129     14.847957      742.33947     -31.25387       711.0856     
    969000   312.61603      0.01485129     13.093551      775.60898     -30.574742      745.03424    
    970000   314.43463      0.01485129     16.649835      780.12099     -30.050075      750.07092    
    971000   297.95582      0.01485129     6.6062992      739.2366      -29.713718      709.52288    
    972000   299.13915      0.01485129     0.55956827     742.17248     -29.621385      712.5511     
    973000   306.48602      0.01485129     16.312042      760.40027     -27.152008      733.24827    
    974000   300.82406      0.01485129     13.162533      746.3528      -27.879635      718.47316    
    975000   299.56513      0.01485129    -10.817159      743.22934     -31.42018       711.80916    
    976000   296.71241      0.01485129     7.1249418      736.15167     -26.735833      709.41584    
    977000   308.02289      0.01485129     16.757492      764.21327     -28.806531      735.40674    
    978000   299.48944      0.01485129     18.045675      743.04155     -28.508085      714.53346    
    979000   298.02084      0.01485129    -5.2075798      739.39791     -29.502988      709.89492    
    980000   294.61315      0.01485129     4.1307845      730.94335     -29.061545      701.88181    
    981000   287.32748      0.01485129     7.0835366      712.86739     -31.865512      681.00188    
    982000   298.8313       0.01485129     13.32351       741.40868     -34.553863      706.85482    
    983000   304.53746      0.01485129    -2.0711088      755.56584     -34.790914      720.77493    
    984000   296.0788       0.01485129     6.6232179      734.57965     -30.079014      704.50064    
    985000   313.92237      0.01485129     7.8084006      778.85006     -29.407582      749.44248    
    986000   289.60031      0.01485129     11.693374      718.50636     -24.204204      694.30216    
    987000   305.26962      0.01485129     18.086325      757.38234     -24.510041      732.8723     
    988000   316.71458      0.01485129     3.0385374      785.77761     -22.340141      763.43747    
    989000   304.59988      0.01485129     3.9607682      755.72071     -24.129017      731.59169    
    990000   282.26465      0.01485129     3.1643626      700.30638     -27.084783      673.2216     
    991000   295.35595      0.01485129     10.967519      732.78625     -28.133579      704.65267    
    992000   313.72043      0.01485129     8.572802       778.34904     -26.533458      751.81559    
    993000   317.90698      0.01485129     9.483212       788.73598     -24.418024      764.31796    
    994000   300.95874      0.01485129     5.2674702      746.68694     -25.386741      721.3002     
    995000   295.25912      0.01485129     7.2505353      732.54602     -25.479978      707.06604    
    996000   307.50221      0.01485129     7.4047666      762.92147     -24.133166      738.7883     
    997000   301.90454      0.01485129     7.6950055      749.03348     -22.875054      726.15843    
    998000   302.47261      0.01485129     8.5105578      750.44289     -25.333317      725.10958    
    999000   295.37658      0.01485129     5.7085202      732.83745     -30.293047      702.5444     
   1000000   297.50259      0.01485129     7.8868394      738.11212     -30.258888      707.85323    
   1001000   294.75367      0.01485129     11.00984       731.29197     -27.674866      703.61711    
   1002000   298.52359      0.01485129     8.2264782      740.64526     -33.219758      707.4255     
   1003000   307.47158      0.01485129     7.0524896      762.84547     -32.038277      730.80719    
   1004000   300.20617      0.01485129     9.7282218      744.81978     -29.400284      715.41949    
   1005000   289.11668      0.01485129     5.1705568      717.30645     -29.726022      687.58043    
   1006000   308.50202      0.01485129     6.7030058      765.40202     -30.876756      734.52527    
   1007000   297.82251      0.01485129     9.7067559      738.90585     -35.340358      703.56549    
   1008000   306.66077      0.01485129     6.4380557      760.83382     -32.11568       728.71814    
   1009000   295.24667      0.01485129     7.3843618      732.51513     -31.560573      700.95456    
   1010000   303.81878      0.01485129     7.680052       753.78276     -32.656609      721.12615    
   1011000   299.11402      0.01485129     5.7634325      742.11012     -30.016973      712.09315    
   1012000   289.33061      0.01485129     9.4361533      717.83722     -26.564246      691.27298    
   1013000   307.9452       0.01485129     10.436791      764.02053     -27.765397      736.25514    
   1014000   312.61727      0.01485129     7.4497784      775.61207     -28.399699      747.21237    
   1015000   284.08025      0.01485129     6.5974051      704.81092     -32.307535      672.50338    
   1016000   295.41215      0.01485129     8.867464       732.92569     -31.194693      701.73099    
   1017000   310.59184      0.01485129     11.753595      770.58692     -28.824142      741.76277    
   1018000   308.08562      0.01485129     6.8401915      764.36892     -32.585747      731.78318    
   1019000   295.92509      0.01485129     5.968365       734.19831     -32.819775      701.37853    
   1020000   295.98936      0.01485129     10.178987      734.35776     -27.387311      706.97045    
   1021000   319.38781      0.01485129     7.507401       792.40996     -33.114392      759.29556    
   1022000   295.57936      0.01485129     7.4989938      733.34054     -25.252134      708.0884     
   1023000   282.85001      0.01485129     9.8050298      701.75868     -25.875581      675.8831     
   1024000   310.09299      0.01485129     11.066931      769.34925     -23.670668      745.67858    
   1025000   316.57396      0.01485129     6.1698627      785.42873     -24.614643      760.81408    
   1026000   297.48265      0.01485129    -1.0291734      738.06266     -30.099658      707.96301    
   1027000   293.42372      0.01485129     8.6371836      727.99233     -23.724665      704.26767    
   1028000   297.65662      0.01485129     10.168386      738.49428     -24.248754      714.24552    
   1029000   308.70289      0.01485129     6.8455648      765.90039     -27.45624       738.44415    
   1030000   285.92969      0.01485129     3.7111068      709.39944     -28.682374      680.71707    
   1031000   305.0398       0.01485129     5.3298968      756.81215     -32.19927       724.61288    
   1032000   291.6357       0.01485129     13.946572      723.55621     -29.158175      694.39804    
   1033000   298.08024      0.01485129     17.404875      739.54528     -27.164973      712.38031    
   1034000   314.95693      0.01485129     5.8298869      781.41682     -25.419098      755.99772    
   1035000   296.22148      0.01485129     5.4261949      734.93367     -24.24175       710.69192    
   1036000   285.07175      0.01485129     8.4677305      707.27086     -21.022239      686.24862    
   1037000   303.40302      0.01485129     11.290027      752.75124     -21.016246      731.735      
   1038000   314.19702      0.01485129     8.5522885      779.53146     -24.620584      754.91087    
   1039000   302.33748      0.01485129     7.7804542      750.10762     -26.775631      723.33199    
   1040000   314.70493      0.01485129     8.5171162      780.79162     -25.952368      754.83925    
   1041000   295.05034      0.01485129     7.0239697      732.02802     -25.913418      706.1146     
   1042000   296.389        0.01485129     6.4570682      735.34928     -24.298443      711.05084    
   1043000   302.45761      0.01485129     9.075922       750.40567     -23.988109      726.41757    
   1044000   289.87196      0.01485129     9.4295848      719.18032     -23.348865      695.83145    
   1045000   298.00838      0.01485129     3.5040103      739.367       -20.933364      718.43364    
   1046000   309.86719      0.01485129     8.5677341      768.78903     -19.917435      748.8716     
   1047000   289.51644      0.01485129     12.096913      718.29827     -21.158932      697.13934    
   1048000   293.08334      0.01485129     6.7830672      727.14785     -23.469744      703.67811    
   1049000   314.94138      0.01485129     8.7440678      781.37825     -25.953372      755.42488    
   1050000   296.78009      0.01485129     7.206313       736.31958     -24.484271      711.83531    
   1051000   291.45477      0.01485129     9.1379971      723.10732     -21.291477      701.81585    
   1052000   314.38277      0.01485129     9.2358194      779.99231     -22.874121      757.11819    
   1053000   293.82112      0.01485129     9.4839889      728.9783      -23.559341      705.41896    
   1054000   304.15626      0.01485129     3.9345771      754.62007     -21.25088       733.36919    
   1055000   303.71174      0.01485129     8.1441644      753.51719     -23.053824      730.46336    
   1056000   309.07257      0.01485129     9.3816151      766.81758     -21.301236      745.51634    
   1057000   293.38189      0.01485129     10.781469      727.88857     -26.447229      701.44134    
   1058000   297.62422      0.01485129     3.7561029      738.41389     -24.913607      713.50028    
   1059000   312.04936      0.01485129     3.2110554      774.20307     -24.904957      749.29811    
   1060000   295.32806      0.01485129     13.70797       732.71707     -25.190699      707.52637    
   1061000   294.323        0.01485129     1.6920231      730.22347     -20.507241      709.71623    
   1062000   309.90852      0.01485129     4.9685368      768.89159     -23.474981      745.41661    
   1063000   321.15829      0.01485129     14.506482      796.80256     -24.310107      772.49245    
   1064000   293.21383      0.01485129     11.084645      727.47159     -24.500274      702.97131    
   1065000   291.49809      0.01485129     1.7275047      723.2148      -20.924713      702.29009    
   1066000   309.79505      0.01485129     4.5508432      768.61005     -24.854539      743.75551    
   1067000   305.61193      0.01485129     8.4738943      758.23163     -25.714483      732.51715    
   1068000   288.35327      0.01485129     8.1825606      715.4124      -25.101824      690.31058    
   1069000   298.10291      0.01485129     7.4307284      739.60154     -26.509099      713.09244    
   1070000   312.76492      0.01485129     9.2358932      775.97839     -23.242186      752.73621    
   1071000   305.82806      0.01485129     6.9084254      758.76786     -25.375048      733.39281    
   1072000   289.98775      0.01485129     8.207701       719.46761     -25.785689      693.68192    
   1073000   282.01363      0.01485129     12.423816      699.68358     -23.184053      676.49953    
   1074000   307.07837      0.01485129     9.0770165      761.8699      -20.919045      740.95086    
   1075000   304.15409      0.01485129     7.8169523      754.61469     -20.851556      733.76313    
   1076000   280.94337      0.01485129     7.7455228      697.02824     -22.169529      674.85871    
   1077000   300.18205      0.01485129     10.48595       744.75994     -22.443061      722.31688    
   1078000   319.95484      0.01485129     4.7124118      793.81678     -21.861999      771.95478    
   1079000   295.45872      0.01485129     6.825035       733.04124     -26.815173      706.22607    
   1080000   289.0428       0.01485129     7.5716822      717.12315     -27.482711      689.64044    
   1081000   304.14221      0.01485129     9.2835741      754.58521     -25.295873      729.28933    
   1082000   312.45755      0.01485129     8.0932152      775.2158      -29.292863      745.92294    
   1083000   296.2258       0.01485129     7.5143165      734.94438     -31.414523      703.52986    
   1084000   287.48978      0.01485129     7.6408223      713.27007     -29.868933      683.40114    
   1085000   307.74959      0.01485129     5.1150742      763.53522     -26.396781      737.13844    
   1086000   308.14784      0.01485129     6.9407613      764.52329     -29.106803      735.41649    
   1087000   297.63308      0.01485129     8.219915       738.43589     -28.323577      710.11231    
   1088000   289.54565      0.01485129     10.016506      718.37073     -29.538274      688.83246    
   1089000   314.76749      0.01485129     6.9717956      780.94683     -26.383033      754.56379    
   1090000   299.52922      0.01485129     4.6604404      743.14024     -27.288218      715.85203    
   1091000   298.70657      0.01485129     10.48331       741.09923     -24.466463      716.63276    
   1092000   298.63827      0.01485129     6.9259135      740.92978     -24.019409      716.91037    
   1093000   299.87081      0.01485129     6.5687156      743.98774     -20.136437      723.8513     
   1094000   310.72605      0.01485129     9.7595395      770.91989     -20.812723      750.10717    
   1095000   301.81803      0.01485129     8.6944041      748.81886     -22.538336      726.28052    
   1096000   301.16968      0.01485129     4.0913224      747.21027     -23.484906      723.72537    
   1097000   303.4121       0.01485129     8.7054415      752.77379     -20.73525       732.03854    
   1098000   294.95246      0.01485129     9.6144151      731.78518     -22.828999      708.95618    
   1099000   288.60488      0.01485129     8.0820306      716.03665     -20.967352      695.0693     
   1100000   312.63624      0.01485129     9.0074858      775.65913     -23.184722      752.47441    
   1101000   296.62105      0.01485129     7.6073541      735.92499     -22.504096      713.4209     
   1102000   282.89639      0.01485129     8.1690383      701.87374     -22.192795      679.68094    
   1103000   296.58281      0.01485129     7.9399739      735.83014     -24.266567      711.56357    
   1104000   307.76915      0.01485129     8.3959487      763.58374     -22.514875      741.06887    
   1105000   298.99033      0.01485129     8.8064578      741.80325     -21.34342       720.45983    
   1106000   286.03472      0.01485129     10.744064      709.66003     -23.475935      686.1841     
   1107000   297.72831      0.01485129     8.8304463      738.67213     -21.31171       717.36042    
   1108000   290.91518      0.01485129     0.079598555    721.76858     -22.211461      699.55712    
   1109000   297.98599      0.01485129    -1.8875178      739.31145     -20.808805      718.50265    
   1110000   309.79606      0.01485129     11.318701      768.61257     -26.765218      741.84735    
   1111000   306.59271      0.01485129     17.099328      760.66498     -28.647913      732.01706    
   1112000   293.79133      0.01485129     10.320713      728.90438     -25.671483      703.23289    
   1113000   291.66629      0.01485129     4.249676       723.6321      -25.52683       698.10527    
   1114000   315.42528      0.01485129     12.878471      782.57881     -28.058603      754.52021    
   1115000   298.29669      0.01485129     8.3421741      740.0823      -24.345587      715.73671    
   1116000   289.95469      0.01485129     3.550565       719.38559     -24.195983      695.18961    
   1117000   302.15226      0.01485129    -2.1287139      749.64809     -20.838262      728.80983    
   1118000   303.5399       0.01485129     8.7042852      753.09086     -22.196724      730.89414    
   1119000   297.49428      0.01485129     10.983844      738.0915      -23.000076      715.09142    
   1120000   289.79128      0.01485129     12.727536      718.98014     -26.952903      692.02724    
   1121000   288.55384      0.01485129     8.5418865      715.91004     -20.972509      694.93753    
   1122000   303.87113      0.01485129     6.7804326      753.91264     -20.438938      733.47371    
   1123000   315.01692      0.01485129     6.6294636      781.56567     -21.299888      760.26578    
   1124000   307.78408      0.01485129     13.023621      763.62079     -22.847685      740.77311    
   1125000   288.04695      0.01485129     8.9416095      714.65241     -18.229247      696.42317    
   1126000   297.42024      0.01485129     5.6653387      737.90781     -21.304566      716.60324    
   1127000   308.21522      0.01485129     4.1741851      764.69046     -20.230069      744.46039    
   1128000   309.39132      0.01485129     8.0150935      767.6084      -21.638715      745.96969    
   1129000   299.42324      0.01485129     9.0684876      742.8773      -17.666692      725.21061    
   1130000   277.83362      0.01485129     5.3895002      689.31288     -19.887249      669.42563    
   1131000   282.56044      0.01485129     9.2076764      701.04024     -20.338507      680.70173    
   1132000   319.48891      0.01485129     5.3366576      792.66078     -26.446403      766.21438    
   1133000   301.16272      0.01485129     17.840718      747.19302     -22.064033      725.12898    
   1134000   286.25374      0.01485129     7.5497634      710.20341     -19.061608      691.1418     
   1135000   307.62543      0.01485129     4.5399401      763.22718     -19.943277      743.2839     
   1136000   312.61351      0.01485129     13.260007      775.60275     -24.055563      751.54718    
   1137000   297.04588      0.01485129     9.2089546      736.97902     -19.489769      717.48926    
   1138000   298.8748       0.01485129     6.4979755      741.51662     -22.674077      718.84255    
   1139000   301.00774      0.01485129     10.74955       746.80849     -22.011302      724.79719    
   1140000   298.82941      0.01485129     7.9531217      741.40401     -22.975505      718.42851    
   1141000   298.71248      0.01485129     4.3259313      741.11391     -24.422503      716.6914     
   1142000   302.45965      0.01485129     8.6539857      750.41073     -25.112018      725.29871    
   1143000   293.02432      0.01485129     9.2541646      727.00142     -23.290678      703.71074    
   1144000   304.60176      0.01485129     7.7573918      755.72536     -20.149516      735.57584    
   1145000   302.61096      0.01485129     8.32578        750.78612     -24.207503      726.57862    
   1146000   303.56752      0.01485129     8.0034405      753.15938     -21.807084      731.3523     
   1147000   293.97658      0.01485129     8.7605177      729.36401     -22.942812      706.4212     
   1148000   296.09221      0.01485129     9.4652118      734.61292     -15.168765      719.44416    
   1149000   283.70912      0.01485129     6.3113943      703.89016     -20.060427      683.82973    
   1150000   301.62575      0.01485129     7.9853536      748.3418      -22.280134      726.06167    
   1151000   309.09426      0.01485129     7.8480882      766.87138     -23.298995      743.57239    
   1152000   304.7918       0.01485129     8.1491087      756.19687     -22.332827      733.86404    
   1153000   288.66252      0.01485129     6.1926825      716.17968     -25.190086      690.98959    
   1154000   304.38949      0.01485129     7.1013838      755.19871     -28.357662      726.84105    
   1155000   279.98748      0.01485129     10.11555       694.65666     -20.097487      674.55917    
   1156000   297.57         0.01485129     13.642491      738.27936     -23.340406      714.93895    
   1157000   307.72354      0.01485129     8.1413168      763.47058     -23.694786      739.77579    
   1158000   297.78527      0.01485129     8.6919721      738.81346     -22.630315      716.18315    
   1159000   300.82548      0.01485129     9.2931842      746.3563      -28.659589      717.69672    
   1160000   313.5985       0.01485129     7.1536852      778.04653     -26.070172      751.97636    
   1161000   298.74434      0.01485129     4.8135352      741.19295     -29.228929      711.96402    
   1162000   290.1836       0.01485129     15.056015      719.95352     -27.731208      692.22231    
   1163000   306.86421      0.01485129     8.127733       761.33857     -33.436347      727.90222    
   1164000   298.8529       0.01485129     3.6109153      741.46229     -29.400899      712.06139    
   1165000   293.63872      0.01485129     12.209382      728.52576     -25.194953      703.3308     
   1166000   296.85106      0.01485129     10.042411      736.49567     -20.109464      716.38621    
   1167000   298.83247      0.01485129     12.704893      741.4116      -21.125898      720.28571    
   1168000   301.17408      0.01485129     7.507448       747.22118     -23.992998      723.22818    
   1169000   305.39902      0.01485129     4.8339117      757.70338     -22.851718      734.85167    
   1170000   303.79559      0.01485129     5.7796415      753.72524     -24.117498      729.60774    
   1171000   288.55565      0.01485129     9.7043652      715.91453     -27.437952      688.47658    
   1172000   298.89134      0.01485129     11.134431      741.55766     -23.331076      718.22658    
   1173000   309.73226      0.01485129     8.3187981      768.45428     -23.223426      745.23085    
   1174000   302.40152      0.01485129    -2.0396732      750.2665      -21.540436      728.72606    
   1175000   281.92379      0.01485129     1.1389333      699.46069     -21.262781      678.19791    
   1176000   285.69826      0.01485129     12.032077      708.82526     -20.172722      688.65254    
   1177000   304.44277      0.01485129     8.5328993      755.33091     -22.093349      733.23756    
   1178000   309.2192       0.01485129     5.9943477      767.18137     -26.146982      741.03439    
   1179000   297.90892      0.01485129     8.3275402      739.12025     -28.383608      710.73664    
   1180000   294.98372      0.01485129     9.3845635      731.86273     -27.301377      704.56135    
   1181000   316.35708      0.01485129     4.6042207      784.89063     -24.922129      759.9685     
   1182000   295.66086      0.01485129     6.7600194      733.54274     -21.804372      711.73837    
   1183000   292.20342      0.01485129     3.7931404      724.96475     -21.188788      703.77596    
   1184000   303.587        0.01485129     11.884859      753.20772     -22.28492       730.9228     
   1185000   304.17821      0.01485129     5.4258561      754.67453     -21.906164      732.76837    
   1186000   298.51944      0.01485129     5.557763       740.63496     -23.122441      717.51252    
   1187000   293.73227      0.01485129     6.9104744      728.75786     -20.111272      708.64659    
   1188000   291.39806      0.01485129     9.2210388      722.96662     -22.353927      700.61269    
   1189000   302.83606      0.01485129     12.147609      751.34461     -23.497148      727.84747    
   1190000   317.33627      0.01485129     10.196219      787.32003     -22.805036      764.51499    
   1191000   288.60186      0.01485129     4.7782348      716.02917     -23.197178      692.83199    
   1192000   286.05889      0.01485129     8.8691923      709.72        -23.502671      686.21733    
   1193000   301.05998      0.01485129     13.622851      746.93811     -24.408161      722.52995    
   1194000   309.66604      0.01485129     12.687181      768.28999     -25.990116      742.29988    
   1195000   297.28893      0.01485129     0.63879657     737.58203     -28.962725      708.61931    
   1196000   291.21397      0.01485129     8.0464927      722.50989     -26.125869      696.38403    
   1197000   302.715        0.01485129     22.968383      751.04426     -27.610995      723.43326    
   1198000   309.07657      0.01485129     9.3301634      766.82748     -24.560227      742.26725    
   1199000   286.86731      0.01485129    -5.4089848      711.72571     -23.91334       687.81237    
   1200000   287.59855      0.01485129     3.4887255      713.53993     -23.392714      690.14721    
   1201000   303.76633      0.01485129     13.461275      753.65264     -22.522921      731.12972    
   1202000   291.82631      0.01485129     7.878771       724.02912     -22.977383      701.05174    
   1203000   292.5403       0.01485129     6.3079143      725.80056     -19.904595      705.89596    
   1204000   311.13032      0.01485129     12.369168      771.9229      -21.925016      749.99788    
   1205000   302.94712      0.01485129     9.9404413      751.62015     -26.76988       724.85027    
   1206000   296.74279      0.01485129     0.58458352     736.22703     -23.488169      712.73886    
   1207000   293.67339      0.01485129     4.7396046      728.61177     -27.671391      700.94038    
   1208000   309.52366      0.01485129     18.120441      767.93672     -26.206853      741.72987    
   1209000   305.60856      0.01485129     12.571945      758.22325     -24.768626      733.45462    
   1210000   292.05036      0.01485129     6.7094409      724.58499     -26.65313       697.93186    
   1211000   286.84133      0.01485129     7.4258367      711.66125     -25.82552       685.83573    
   1212000   304.60126      0.01485129     15.151412      755.72412     -23.305988      732.41813    
   1213000   311.35395      0.01485129     7.3118452      772.47773     -24.569731      747.908      
   1214000   293.60753      0.01485129     5.8150848      728.44838     -26.476317      701.97207    
   1215000   283.2653       0.01485129     7.2100901      702.78901     -25.157628      677.63138    
   1216000   294.3373       0.01485129     9.9391599      730.25896     -23.129309      707.12965    
   1217000   302.6445       0.01485129     8.1308708      750.86935     -22.695185      728.17416    
   1218000   305.31059      0.01485129     8.2894163      757.48398     -19.323219      738.16077    
   1219000   295.80632      0.01485129     8.0074197      733.90364     -18.506745      715.3969     
   1220000   287.87046      0.01485129     8.8303689      714.21456     -21.561204      692.65335    
   1221000   322.07572      0.01485129     8.4264116      799.07874     -22.092909      776.98583    
   1222000   303.71607      0.01485129     11.521745      753.52795     -23.791718      729.73623    
   1223000   304.64999      0.01485129     12.28724       755.84502     -23.801385      732.04364    
   1224000   301.60246      0.01485129     3.8259552      748.28401     -23.960144      724.32386    
   1225000   292.80271      0.01485129     7.1421741      726.4516      -21.820694      704.63091    
   1226000   304.97907      0.01485129     13.578562      756.66147     -26.09871       730.56276    
   1227000   291.01901      0.01485129     9.0928641      722.02619     -28.206292      693.8199     
   1228000   307.02897      0.01485129     3.1896089      761.74734     -29.656736      732.09061    
   1229000   300.44839      0.01485129     7.149329       745.42073     -27.049763      718.37097    
   1230000   297.60146      0.01485129     13.194543      738.35743     -24.525088      713.83234    
   1231000   294.11659      0.01485129     11.485924      729.71138     -26.167669      703.54371    
   1232000   301.78413      0.01485129     5.0124607      748.73475     -24.591535      724.14322    
   1233000   303.16743      0.01485129     5.5442726      752.16676     -22.616995      729.54977    
   1234000   295.79059      0.01485129     10.30653       733.86462     -22.739923      711.12469    
   1235000   278.97636      0.01485129     10.500807      692.14803     -27.152414      664.99562    
   1236000   300.75667      0.01485129     5.1796179      746.18558     -24.770411      721.41517    
   1237000   305.86348      0.01485129     10.709232      758.85574     -24.81354       734.04219    
   1238000   288.78809      0.01485129     7.5738964      716.49122     -25.201657      691.28957    
   1239000   302.20355      0.01485129     2.9828675      749.77535     -21.63539       728.13996    
   1240000   292.78602      0.01485129     11.954417      726.41017     -23.295913      703.11426    
   1241000   295.28095      0.01485129     3.6206552      732.60016     -22.639852      709.96031    
   1242000   298.71929      0.01485129     1.7873344      741.13079     -23.314135      717.81665    
   1243000   302.69565      0.01485129     8.1929605      750.99626     -22.913578      728.08268    
   1244000   311.22202      0.01485129     11.553399      772.15041     -24.275189      747.87522    
   1245000   301.9519       0.01485129     14.704847      749.151       -27.721709      721.42929    
   1246000   300.72899      0.01485129     3.4357733      746.11692     -27.439649      718.67727    
   1247000   300.19888      0.01485129     6.5110812      744.8017      -32.263319      712.53838    
   1248000   314.12635      0.01485129     13.227303      779.35614     -33.184701      746.17144    
   1249000   305.27297      0.01485129     17.152413      757.39064     -29.673967      727.71668    
   1250000   297.45727      0.01485129     4.5081703      737.99968     -31.973429      706.02625    
   1251000   298.71341      0.01485129     4.4521167      741.1162      -28.389348      712.72685    
   1252000   297.96273      0.01485129     17.308824      739.25374     -33.111267      706.14247    
   1253000   285.01995      0.01485129     7.4380551      707.14234     -30.006066      677.13628    
   1254000   300.17988      0.01485129     7.1804421      744.75457     -26.24422       718.51035    
   1255000   307.86665      0.01485129     9.1692397      763.82564     -27.513538      736.3121     
   1256000   289.70179      0.01485129     8.5319275      718.75813     -23.916789      694.84135    
   1257000   295.22552      0.01485129     5.0749101      732.46266     -20.368242      712.09441    
   1258000   303.89075      0.01485129     8.1885054      753.96133     -20.457459      733.50387    
   1259000   305.50103      0.01485129     9.1052384      757.95647     -21.863578      736.09289    
   1260000   294.27864      0.01485129     7.7696629      730.11341     -25.402322      704.71109    
   1261000   282.81165      0.01485129     8.9954113      701.66349     -24.062839      677.60066    
   1262000   298.6665       0.01485129     9.8581248      740.99982     -24.370716      716.6291     
   1263000   309.95757      0.01485129     8.2764957      769.01326     -26.437409      742.57586    
   1264000   303.2303       0.01485129     7.8546411      752.32274     -25.881012      726.44173    
   1265000   295.32593      0.01485129     8.598064       732.71178     -24.582667      708.12912    
   1266000   298.02992      0.01485129     7.930171       739.42044     -23.561222      715.85922    
   1267000   311.96783      0.01485129     8.7327378      774.00078     -23.152362      750.84842    
   1268000   290.47372      0.01485129     7.7996105      720.6733      -29.945505      690.7278     
   1269000   294.46619      0.01485129     9.3374912      730.57874     -29.867956      700.71079    
   1270000   315.60523      0.01485129     7.3489853      783.02528     -26.042702      756.98258    
   1271000   310.75142      0.01485129     7.8955554      770.98283     -30.293612      740.68921    
   1272000   304.56516      0.01485129     5.9619565      755.63456     -29.838616      725.79594    
   1273000   280.96532      0.01485129     11.835981      697.08272     -27.258932      669.82378    
   1274000   302.69778      0.01485129     9.8864605      751.00155     -29.800321      721.20122    
   1275000   305.59445      0.01485129     2.0663311      758.18825     -26.653845      731.5344     
   1276000   295.69976      0.01485129     7.6883751      733.63926     -24.03183       709.60743    
   1277000   293.98728      0.01485129     11.259283      729.39054     -24.898449      704.49209    
   1278000   308.63442      0.01485129     7.2267542      765.7305      -25.69751       740.03299    
   1279000   302.29715      0.01485129     5.6128828      750.00756     -29.10589       720.90167    
   1280000   300.22948      0.01485129     8.5050532      744.87761     -27.515049      717.36256    
   1281000   306.47404      0.01485129     8.0546271      760.37055     -27.551517      732.81903    
   1282000   301.48766      0.01485129     8.4352709      747.9992      -23.406108      724.59309    
   1283000   295.35906      0.01485129     7.8358344      732.79398     -22.418689      710.37529    
   1284000   311.65775      0.01485129     7.6918634      773.23147     -27.441874      745.7896     
   1285000   310.94172      0.01485129     8.638666       771.45499     -20.149121      751.30587    
   1286000   304.17371      0.01485129     8.3808523      754.66337     -17.544489      737.11888    
   1287000   292.33557      0.01485129     7.2190006      725.2926      -21.802855      703.48974    
   1288000   298.32602      0.01485129     7.3618972      740.15509     -24.824975      715.33011    
   1289000   298.96255      0.01485129     9.4222755      741.73433     -24.784857      716.94947    
   1290000   298.4091       0.01485129     7.4192695      740.3612      -26.975812      713.38539    
   1291000   295.86256      0.01485129     7.8276396      734.04316     -28.445222      705.59794    
   1292000   295.57305      0.01485129     7.7708091      733.32488     -27.277031      706.04785    
   1293000   298.07822      0.01485129     7.3995903      739.54028     -27.146035      712.39425    
   1294000   309.82163      0.01485129     9.3000874      768.67599     -27.018247      741.65775    
   1295000   292.25437      0.01485129     6.9897692      725.09114     -26.827781      698.26336    
   1296000   306.67366      0.01485129     5.1935268      760.8658      -26.771955      734.09385    
   1297000   299.3485       0.01485129     9.274344       742.69188     -31.431734      711.26015    
   1298000   274.24613      0.01485129     7.2084488      680.41221     -27.416135      652.99607    
   1299000   316.64063      0.01485129     8.3494451      785.59414     -25.281579      760.31256    
   1300000   307.58867      0.01485129     8.158291       763.13596     -26.23402       736.90194    
   1301000   289.51897      0.01485129     8.4419643      718.30454     -28.26888       690.03566    
   1302000   296.66345      0.01485129     7.4568981      736.0302      -28.188979      707.84122    
   1303000   311.24155      0.01485129     3.875416       772.19886     -25.34443       746.85443    
   1304000   312.48903      0.01485129     7.3578739      775.29389     -29.090247      746.20364    
   1305000   292.88985      0.01485129     9.218968       726.66779     -29.204109      697.46368    
   1306000   299.61343      0.01485129     1.3916513      743.34918     -27.141123      716.20806    
   1307000   315.74489      0.01485129     10.008679      783.37178     -26.587071      756.78471    
   1308000   286.99706      0.01485129     6.1353718      712.04762     -29.289294      682.75832    
   1309000   292.39506      0.01485129     7.4349874      725.44021     -26.856842      698.58337    
   1310000   319.78405      0.01485129     8.1406427      793.39305     -21.407573      771.98548    
   1311000   305.57333      0.01485129     9.860959       758.13586     -23.020861      735.115      
   1312000   294.06129      0.01485129     7.770468       729.57416     -29.061382      700.51278    
   1313000   282.6154       0.01485129     6.0275848      701.17659     -26.675831      674.50076    
   1314000   304.45242      0.01485129     8.7171704      755.35484     -25.684194      729.67064    
   1315000   297.04332      0.01485129     8.0080965      736.97267     -19.22452       717.74815    
   1316000   301.01953      0.01485129     10.002305      746.83775     -17.705225      729.13252    
   1317000   305.87071      0.01485129     8.3871494      758.87368     -18.4113        740.46238    
   1318000   318.56885      0.01485129     10.825437      790.37811     -19.744594      770.63351    
   1319000   299.85693      0.01485129     11.999259      743.95331     -24.18466       719.76865    
   1320000   297.61404      0.01485129     7.5197755      738.38863     -21.795942      716.59269    
   1321000   299.45463      0.01485129     8.0981186      742.95519     -22.723038      720.23215    
   1322000   298.13128      0.01485129     7.8744044      739.67193     -19.217382      720.45455    
   1323000   297.05686      0.01485129     8.5339234      737.00626     -16.849437      720.15682    
   1324000   279.42035      0.01485129     6.7677409      693.24958     -23.296603      669.95298    
   1325000   305.2602       0.01485129     8.2091031      757.35897     -25.933137      731.42583    
   1326000   309.58884      0.01485129     8.5235491      768.09844     -22.875582      745.22286    
   1327000   291.54896      0.01485129     9.6210857      723.34101     -23.718884      699.62213    
   1328000   304.59187      0.01485129     8.5834282      755.70084     -24.290613      731.41022    
   1329000   314.48187      0.01485129     11.085737      780.2382      -26.690176      753.54802    
   1330000   286.34204      0.01485129     7.7049781      710.4225      -25.13884       685.28366    
   1331000   286.87032      0.01485129     7.8114806      711.73317     -23.161125      688.57205    
   1332000   302.98075      0.01485129     8.7892007      751.70358     -23.074445      728.62914    
   1333000   310.82972      0.01485129     8.5653612      771.1771      -23.206858      747.97024    
   1334000   303.66364      0.01485129     7.9695423      753.39786     -17.680156      735.7177     
   1335000   288.00868      0.01485129     6.5521953      714.55747     -19.129863      695.42761    
   1336000   298.22015      0.01485129     10.135374      739.89242     -21.667144      718.22528    
   1337000   317.24246      0.01485129     6.7432475      787.08729     -23.756571      763.33072    
   1338000   304.58573      0.01485129     7.5756333      755.68559     -22.757347      732.92824    
   1339000   296.36288      0.01485129     8.301472       735.28449     -20.649165      714.63532    
   1340000   300.26023      0.01485129     8.904122       744.95391     -21.71944       723.23447    
   1341000   320.04144      0.01485129     8.798945       794.03164     -23.2794        770.75224    
   1342000   289.04837      0.01485129     7.2543292      717.13699     -24.150175      692.98681    
   1343000   297.59998      0.01485129     8.2883051      738.35376     -25.548676      712.80509    
   1344000   322.5996       0.01485129     7.1800466      800.37849     -23.62493       776.75356    
   1345000   300.71498      0.01485129     6.6523355      746.08215     -23.204209      722.87794    
   1346000   278.53766      0.01485129     10.105907      691.05962     -25.972059      665.08756    
   1347000   302.1462       0.01485129     9.9634521      749.63305     -23.685801      725.94724    
   1348000   318.52429      0.01485129     8.7802213      790.26754     -21.473258      768.79428    
   1349000   302.18541      0.01485129     5.2529999      749.73034     -30.595116      719.13523    
   1350000   284.70212      0.01485129     8.4641886      706.35381     -26.061388      680.29242    
   1351000   299.58691      0.01485129     10.384917      743.28338     -22.106124      721.17725    
   1352000   311.12217      0.01485129     7.4036096      771.90267     -21.841288      750.06138    
   1353000   290.53472      0.01485129     1.8658874      720.82464     -25.969665      694.85498    
   1354000   294.51753      0.01485129     10.530959      730.70611     -24.771652      705.93445    
   1355000   309.83441      0.01485129     5.7551767      768.7077      -23.834042      744.87366    
   1356000   296.36754      0.01485129     6.0103644      735.29603     -27.622508      707.67352    
   1357000   303.26699      0.01485129     10.416542      752.41376     -27.379093      725.03466    
   1358000   308.85435      0.01485129     11.125131      766.27615     -23.039543      743.23661    
   1359000   301.02094      0.01485129     9.8229579      746.84124     -21.71891       725.12233    
   1360000   301.90051      0.01485129     6.7029712      749.02349     -23.748403      725.27509    
   1361000   299.14106      0.01485129     6.0190347      742.17722     -20.327652      721.84957    
   1362000   295.16485      0.01485129     9.412218       732.31214     -17.184435      715.1277     
   1363000   300.60601      0.01485129     8.5428751      745.8118      -24.367968      721.44383    
   1364000   303.13178      0.01485129     7.5838341      752.07829     -23.657501      728.42079    
   1365000   301.33205      0.01485129     8.0358375      747.61311     -23.328033      724.28508    
   1366000   299.29927      0.01485129     7.6893956      742.56974     -21.646078      720.92366    
   1367000   307.33374      0.01485129     9.7054707      762.50349     -23.629746      738.87374    
   1368000   299.67095      0.01485129     7.7852989      743.49189     -29.067889      714.424      
   1369000   290.70236      0.01485129     8.399088       721.24057     -27.34895       693.89162    
   1370000   294.70253      0.01485129     8.7921086      731.1651      -28.52086       702.64424    
   1371000   305.48877      0.01485129     8.7749724      757.92605     -29.92932       727.99673    
   1372000   298.88989      0.01485129     7.7000516      741.55405     -24.928948      716.6251     
   1373000   302.27614      0.01485129     8.1297245      749.95545     -28.398066      721.55738    
   1374000   298.94032      0.01485129     7.9923044      741.67919     -25.553383      716.1258     
   1375000   297.00158      0.01485129     6.9961129      736.86911     -24.107366      712.76175    
   1376000   306.61698      0.01485129     8.5637441      760.72518     -21.367422      739.35776    
   1377000   298.0768       0.01485129     11.577993      739.53677     -21.660199      717.87657    
   1378000   293.61207      0.01485129     14.465065      728.45965     -23.579052      704.8806     
   1379000   303.73558      0.01485129     7.7426611      753.57634     -24.929774      728.64657    
   1380000   301.12127      0.01485129     11.456003      747.09016     -24.036828      723.05333    
   1381000   293.62191      0.01485129     9.0065939      728.48406     -26.270318      702.21375    
   1382000   315.73991      0.01485129     0.11663268     783.35941     -28.214127      755.14529    
   1383000   310.62114      0.01485129     7.1213871      770.65961     -22.218473      748.44113    
   1384000   292.40183      0.01485129     11.815319      725.45699     -24.540446      700.91655    
   1385000   293.07062      0.01485129     8.673826       727.11628     -25.238735      701.87755    
   1386000   301.92518      0.01485129     1.0689607      749.0847      -23.485934      725.59877    
   1387000   298.43131      0.01485129     5.8547812      740.41631     -31.941361      708.47495    
   1388000   307.12582      0.01485129     10.471101      761.98762     -29.223072      732.76455    
   1389000   294.12329      0.01485129     9.5002898      729.72798     -26.885833      702.84215    
   1390000   292.94536      0.01485129     3.0032154      726.80552     -24.092672      702.71285    
   1391000   306.94056      0.01485129    -2.6484298      761.528       -25.306948      736.22105    
   1392000   285.36711      0.01485129     24.63438       708.00367     -27.122555      680.88112    
   1393000   291.66369      0.01485129     3.6359958      723.62565     -27.023504      696.60214    
   1394000   305.61827      0.01485129     3.1900454      758.24735     -25.350644      732.8967     
   1395000   305.4506       0.01485129     6.3224166      757.83136     -25.631007      732.20035    
   1396000   301.42951      0.01485129     15.971999      747.85491     -28.414447      719.44047    
   1397000   294.13542      0.01485129     10.478042      729.75809     -25.173156      704.58493    
   1398000   289.81545      0.01485129     0.72031823     719.04011     -29.371981      689.66813    
   1399000   311.75764      0.01485129     9.871015       773.4793      -24.288042      749.19125    
   1400000   293.36576      0.01485129     15.048104      727.84853     -25.253528      702.595      
   1401000   288.81814      0.01485129     5.6590759      716.56575     -21.918943      694.64681    
   1402000   308.77434      0.01485129     0.59492921     766.07764     -20.218929      745.85871    
   1403000   307.80158      0.01485129     8.4599159      763.6642      -21.58117       742.08303    
   1404000   286.06045      0.01485129     9.1636418      709.72385     -23.146194      686.57766    
   1405000   298.95306      0.01485129     4.7563858      741.71078     -24.310504      717.40027    
   1406000   325.4888       0.01485129     8.6944247      807.54668     -23.695729      783.85095    
   1407000   301.65706      0.01485129     13.902021      748.41947     -24.714147      723.70533    
   1408000   291.5273       0.01485129     7.4384282      723.28727     -25.300779      697.9865     
   1409000   292.35075      0.01485129     4.9873033      725.33028     -25.946506      699.38377    
   1410000   297.59206      0.01485129     8.5590245      738.33409     -25.547369      712.78672    
   1411000   309.02448      0.01485129     8.5206458      766.69825     -26.731531      739.96672    
   1412000   311.45952      0.01485129     10.233167      772.73966     -25.348265      747.39139    
   1413000   290.02972      0.01485129     7.1425386      719.57173     -28.244411      691.32732    
   1414000   294.37173      0.01485129     6.6877488      730.34438     -28.883902      701.46048    
   1415000   309.82746      0.01485129     9.2192096      768.69046     -22.272633      746.41783    
   1416000   304.1534       0.01485129     9.9219263      754.61296     -20.305576      734.30739    
   1417000   285.60469      0.01485129     6.3612995      708.59312     -17.574742      691.01838    
   1418000   295.46473      0.01485129     5.6354239      733.05615     -23.208779      709.84737    
   1419000   311.56283      0.01485129     9.5127896      772.99596     -22.500137      750.49582    
   1420000   294.19966      0.01485129     10.571756      729.91747     -21.722891      708.19458    
   1421000   292.07665      0.01485129     9.4194924      724.65022     -23.464444      701.18577    
   1422000   306.493        0.01485129     2.5481095      760.41757     -20.427558      739.99001    
   1423000   309.17292      0.01485129     10.686998      767.06654     -20.71631       746.35023    
   1424000   288.72221      0.01485129     11.184899      716.32777     -21.365521      694.96225    
   1425000   290.69832      0.01485129     5.8852997      721.23055     -26.181809      695.04874    
   1426000   298.11451      0.01485129     4.5914805      739.63031     -26.463649      713.16666    
   1427000   294.4665       0.01485129     10.705079      730.5795      -29.132085      701.44741    
   1428000   298.149        0.01485129     8.3031551      739.7159      -29.853136      709.86276    
   1429000   302.16485      0.01485129     7.8454007      749.67931     -27.565679      722.11363    
   1430000   282.10272      0.01485129     6.8641631      699.90462     -25.854971      674.04965    
   1431000   297.32075      0.01485129     7.1054873      737.66097     -23.157507      714.50346    
   1432000   308.05568      0.01485129     10.699711      764.29462     -25.021277      739.27335    
   1433000   325.56936      0.01485129     8.6387642      807.74657     -28.605732      779.14083    
   1434000   293.39081      0.01485129     7.6962612      727.91068     -22.225306      705.68538    
   1435000   289.4239       0.01485129     7.8183753      718.06866     -20.569121      697.49954    
   1436000   291.40231      0.01485129     8.7135164      722.97716     -22.138127      700.83903    
   1437000   311.68705      0.01485129     7.3871021      773.30415     -20.925013      752.37914    
   1438000   309.22205      0.01485129     4.3723444      767.18843     -24.307868      742.88056    
   1439000   303.56929      0.01485129     8.851538       753.16379     -24.538116      728.62567    
   1440000   307.5763       0.01485129     13.483758      763.10527     -20.578085      742.52718    
   1441000   331.58621      0.01485129     10.365851      822.67453     -25.468084      797.20645    
   1442000   303.3149       0.01485129     7.4390047      752.53262     -23.073631      729.45899    
   1443000   289.96772      0.01485129     3.9004089      719.4179      -25.809209      693.60869    
   1444000   283.37549      0.01485129     8.499207       703.06241     -22.585483      680.47692    
   1445000   317.13123      0.01485129     10.402221      786.81133     -22.721164      764.09017    
   1446000   303.69774      0.01485129    -0.22773493     753.48247     -23.44794       730.03453    
   1447000   286.29311      0.01485129     9.4203959      710.3011      -21.434123      688.86698    
   1448000   303.36194      0.01485129     10.142969      752.64933     -23.161917      729.48741    
   1449000   307.25857      0.01485129     7.7336796      762.31698     -28.449027      733.86795    
   1450000   299.25851      0.01485129     8.6149579      742.4686      -22.796473      719.67213    
   1451000   298.32248      0.01485129     8.5930755      740.14629     -24.069003      716.07729    
   1452000   311.11103      0.01485129     7.5880824      771.87503     -21.938951      749.93608    
   1453000   295.85143      0.01485129     5.1125314      734.01556     -21.27858       712.73698    
   1454000   292.57105      0.01485129     7.6979081      725.87684     -19.375861      706.50098    
   1455000   296.85617      0.01485129     6.865538       736.50834     -15.986335      720.522      
   1456000   321.99657      0.01485129     7.2304278      798.88237     -21.576631      777.30574    
   1457000   301.28031      0.01485129     8.4285612      747.48475     -18.9155        728.56925    
   1458000   294.43389      0.01485129     8.2007341      730.4986      -23.873506      706.6251     
   1459000   298.35425      0.01485129     8.4221871      740.22511     -23.179048      717.04606    
   1460000   309.65214      0.01485129     8.3136619      768.25549     -25.182817      743.07268    
   1461000   303.21985      0.01485129     7.8181775      752.29681     -23.761067      728.53574    
   1462000   301.36827      0.01485129     7.81777        747.70298     -22.666336      725.03665    
   1463000   285.9467       0.01485129     6.4193018      709.44165     -19.475296      689.96635    
   1464000   290.25449      0.01485129     8.7652866      720.12938     -20.459041      699.67034    
   1465000   292.95963      0.01485129     9.7144932      726.84092     -20.916104      705.92482    
   1466000   303.41008      0.01485129     7.8828614      752.76878     -19.645594      733.12318    
   1467000   302.51047      0.01485129     3.8232784      750.53682     -20.960528      729.5763     
   1468000   291.69323      0.01485129     6.6923778      723.69895     -22.256327      701.44262    
   1469000   299.74371      0.01485129     10.764371      743.67242     -27.172203      716.50022    
   1470000   299.30482      0.01485129     7.1247885      742.5835      -29.044301      713.5392     
   1471000   288.46448      0.01485129     1.9410607      715.68833     -21.961654      693.72668    
   1472000   298.87756      0.01485129     4.5929847      741.52347     -22.641407      718.88207    
   1473000   280.82139      0.01485129     15.753889      696.7256      -19.051256      677.67435    
   1474000   307.71116      0.01485129     13.142625      763.43987     -21.416106      742.02376    
   1475000   324.04411      0.01485129     10.049135      803.96236     -20.856111      783.10625    
   1476000   306.01053      0.01485129    -1.5702789      759.22055     -23.723926      735.49662    
   1477000   292.96329      0.01485129     6.8261247      726.85        -21.549277      705.30072    
   1478000   296.37415      0.01485129     14.136413      735.31242     -21.95851       713.35391    
   1479000   311.34574      0.01485129     19.378448      772.45736     -19.452751      753.00461    
   1480000   307.93233      0.01485129     6.6902977      763.98859     -23.155063      740.83353    
   1481000   295.68057      0.01485129     7.6365356      733.59164     -22.993484      710.59816    
   1482000   293.89021      0.01485129     13.843741      729.14972     -19.786929      709.3628     
   1483000   306.00499      0.01485129     7.3982687      759.20681     -20.328926      738.87788    
   1484000   303.16707      0.01485129     7.1363         752.16585     -17.989259      734.17659    
   1485000   301.60674      0.01485129     11.889018      748.29463     -17.816129      730.4785     
   1486000   293.895        0.01485129     11.554722      729.16159     -18.785499      710.37609    
   1487000   301.6283       0.01485129     1.7116617      748.34813     -19.094864      729.25327    
   1488000   301.86102      0.01485129     0.65994999     748.92552     -20.293757      728.63176    
   1489000   293.6159       0.01485129     15.783364      728.46914     -19.486388      708.98275    
   1490000   298.03111      0.01485129     19.434289      739.42339     -19.531882      719.89151    
   1491000   295.67121      0.01485129     7.589004       733.56842     -20.830197      712.73822    
   1492000   295.67908      0.01485129    -0.77713164     733.58795     -20.800648      712.7873     
   1493000   306.00623      0.01485129     15.877034      759.2099      -22.532074      736.67782    
   1494000   301.02402      0.01485129     19.094239      746.8489      -23.080817      723.76808    
   1495000   305.68501      0.01485129     4.1810622      758.41294     -16.898702      741.51424    
   1496000   295.10928      0.01485129     4.7046218      732.17425     -21.820415      710.35383    
   1497000   299.95816      0.01485129     10.677368      744.20447     -19.771807      724.43266    
   1498000   315.28932      0.01485129     19.442178      782.24149     -19.533391      762.7081     
   1499000   302.88569      0.01485129     1.1805547      751.46774     -18.444099      733.02364    
   1500000   277.40113      0.01485129     15.382756      688.23986     -17.747801      670.49206    
   1501000   284.93441      0.01485129     12.861221      706.93012     -18.517129      688.41299    
   1502000   305.31058      0.01485129     23.040937      757.48397     -21.402579      736.08139    
   1503000   307.94915      0.01485129     2.7263206      764.03033     -23.339316      740.69101    
   1504000   299.02875      0.01485129     3.5661331      741.89857     -24.017048      717.88152    
   1505000   298.33886      0.01485129     20.59144       740.18693     -19.264521      720.92241    
   1506000   304.3238       0.01485129     6.8660849      755.03573     -18.839781      736.19594    
   1507000   292.79805      0.01485129     7.4340351      726.44004     -20.526086      705.91396    
   1508000   284.39173      0.01485129     2.3808549      705.58373     -18.343993      687.23973    
   1509000   307.74841      0.01485129     6.5676653      763.53228     -20.937086      742.59519    
   1510000   300.86006      0.01485129     11.612563      746.4421      -19.687801      726.7543     
   1511000   309.29915      0.01485129     3.0792534      767.37971     -24.340097      743.03961    
   1512000   301.23524      0.01485129     7.3947305      747.37294     -23.251921      724.12101    
   1513000   307.11778      0.01485129     11.469145      761.96768     -20.858505      741.10918    
   1514000   311.2328       0.01485129     8.1298645      772.17715     -27.223454      744.95369    
   1515000   305.06507      0.01485129     8.563025       756.87484     -23.573611      733.30123    
   1516000   293.95821      0.01485129     8.5233289      729.31842     -19.917113      709.4013     
   1517000   305.4598       0.01485129     9.0266551      757.8542      -17.517014      740.33718    
   1518000   312.31358      0.01485129     8.6749164      774.85861     -18.787385      756.07122    
   1519000   299.65483      0.01485129     6.2307507      743.45188     -22.733455      720.71843    
   1520000   288.10036      0.01485129     10.060207      714.78492     -22.125298      692.65963    
   1521000   298.19494      0.01485129     9.6953288      739.82987     -31.331053      708.49882    
   1522000   305.23154      0.01485129     7.7567993      757.28786     -27.790522      729.49734    
   1523000   302.30787      0.01485129     6.6296886      750.03416     -29.613779      720.42038    
   1524000   304.79665      0.01485129     8.249932       756.2089      -29.311864      726.89704    
   1525000   304.17149      0.01485129     11.160951      754.65784     -24.668111      729.98973    
   1526000   286.52742      0.01485129     8.0750164      710.88242     -21.844262      689.03816    
   1527000   294.9329       0.01485129     6.7968408      731.73666     -22.803597      708.93306    
   1528000   302.96495      0.01485129     7.8337949      751.66439     -24.855025      726.80936    
   1529000   311.59646      0.01485129     9.9206805      773.0794      -22.742197      750.3372     
   1530000   289.20009      0.01485129     8.6277026      717.5134      -28.42016       689.09324    
   1531000   291.61985      0.01485129     4.4133883      723.51688     -26.810926      696.70595    
   1532000   312.4961       0.01485129     8.5795022      775.31143     -23.952706      751.35872    
   1533000   299.33962      0.01485129     11.418302      742.66985     -21.170628      721.49922    
   1534000   292.33967      0.01485129     8.2641361      725.30278     -20.857111      704.44567    
   1535000   300.71831      0.01485129     8.2627708      746.09041     -17.117576      728.97283    
   1536000   296.44882      0.01485129     8.4630238      735.49771     -23.497395      712.00031    
   1537000   302.46551      0.01485129     7.1296098      750.42527     -18.63926       731.78601    
   1538000   293.37375      0.01485129     7.1742629      727.86837     -22.707047      705.16132    
   1539000   300.8782       0.01485129     4.8103445      746.48711     -23.260638      723.22647    
   1540000   296.96606      0.01485129     9.2770725      736.78099     -20.23379       716.5472     
   1541000   304.04364      0.01485129     9.493834       754.34064     -19.348129      734.99251    
   1542000   305.09883      0.01485129     7.4612579      756.95861     -17.910678      739.04793    
   1543000   294.32658      0.01485129     6.9851692      730.23236     -23.209701      707.02265    
   1544000   300.17327      0.01485129     7.5306835      744.73817     -21.873128      722.86504    
   1545000   295.86149      0.01485129     8.3887491      734.04052     -20.82849       713.21203    
   1546000   308.77359      0.01485129     10.142388      766.0758      -23.017437      743.05836    
   1547000   293.1017       0.01485129     8.4075421      727.19341     -18.323634      708.86977    
   1548000   298.51229      0.01485129     5.956281       740.61721     -21.071108      719.54611    
   1549000   299.57748      0.01485129     8.1985012      743.25999     -17.400573      725.85942    
   1550000   298.53388      0.01485129     11.246637      740.6708      -16.75136       723.91944    
   1551000   299.86773      0.01485129     8.4534382      743.9801      -18.625529      725.35457    
   1552000   307.97409      0.01485129     0.48404425     764.0922      -16.003485      748.08871    
   1553000   303.08073      0.01485129     8.5833005      751.95165     -14.91208       737.03957    
   1554000   293.07676      0.01485129     10.039406      727.13151     -18.612829      708.51868    
   1555000   307.68648      0.01485129     0.42528864     763.37865     -27.609345      735.7693     
   1556000   309.71898      0.01485129     6.2060542      768.42132     -27.859305      740.56201    
   1557000   298.60228      0.01485129     8.6006375      740.84048     -20.782471      720.05801    
   1558000   306.14338      0.01485129     9.7692409      759.55017     -24.334424      735.21575    
   1559000   292.54959      0.01485129     7.0326528      725.82359     -19.964182      705.85941    
   1560000   286.47636      0.01485129     7.3104592      710.75575     -18.047466      692.70829    
   1561000   300.69489      0.01485129     7.4832054      746.03232     -19.130935      726.90138    
   1562000   295.50908      0.01485129     7.8241582      733.16618     -19.301662      713.86452    
   1563000   298.05824      0.01485129     9.0044388      739.4907      -24.731453      714.75924    
   1564000   305.72728      0.01485129     9.1399389      758.51781     -26.936438      731.58137    
   1565000   307.1995       0.01485129     8.4732406      762.17043     -18.571432      743.59899    
   1566000   306.67612      0.01485129     8.192382       760.87191     -23.819986      737.05193    
   1567000   307.7223       0.01485129     11.401031      763.46751     -17.781094      745.68641    
   1568000   297.1652       0.01485129     7.7764223      737.27506     -22.639215      714.63584    
   1569000   293.77695      0.01485129     7.4044084      728.86872     -22.198736      706.66998    
   1570000   298.49913      0.01485129     7.6120127      740.58456     -20.557873      720.02669    
   1571000   306.60721      0.01485129     9.5871742      760.70093     -25.493063      735.20787    
   1572000   292.97321      0.01485129     7.2943528      726.87461     -25.426368      701.44825    
   1573000   293.24443      0.01485129     5.9951348      727.54751     -22.200748      705.34676    
   1574000   302.74546      0.01485129     6.7567843      751.11983     -23.34979       727.77004    
   1575000   307.10267      0.01485129     11.049417      761.93018     -21.821233      740.10895    
   1576000   298.16841      0.01485129     9.2413688      739.76405     -22.237199      717.52685    
   1577000   292.77921      0.01485129     5.5424124      726.39329     -22.227926      704.16537    
   1578000   303.81688      0.01485129     8.9429291      753.77804     -19.223476      734.55457    
   1579000   296.71967      0.01485129     9.9914841      736.16969     -22.62436       713.54533    
   1580000   304.64775      0.01485129     7.543412       755.83947     -19.072873      736.7666     
   1581000   309.26583      0.01485129     8.9415347      767.29705     -19.246877      748.05017    
   1582000   302.34038      0.01485129     10.326507      750.11482     -24.695881      725.41893    
   1583000   297.35566      0.01485129     2.4802596      737.74758     -22.188654      715.55892    
   1584000   306.63775      0.01485129     9.7236578      760.77671     -18.566124      742.21058    
   1585000   301.48684      0.01485129     14.891443      747.99716     -22.366743      725.63042    
   1586000   298.6133       0.01485129     10.508559      740.86782     -20.918525      719.9493     
   1587000   299.13178      0.01485129     0.75066093     742.1542      -22.90686       719.24734    
   1588000   300.21478      0.01485129     11.621272      744.84114     -23.846063      720.99508    
   1589000   300.73938      0.01485129     8.1303294      746.14268     -21.571124      724.57156    
   1590000   303.87871      0.01485129     2.2158218      753.93147     -18.005348      735.92612    
   1591000   300.0567       0.01485129     11.841599      744.44896     -23.516046      720.93291    
   1592000   291.1986       0.01485129     9.5741922      722.47176     -19.91469       702.55707    
   1593000   306.39485      0.01485129     6.0213232      760.17407     -22.688701      737.48536    
   1594000   314.0652       0.01485129     11.659143      779.20442     -26.597106      752.60732    
   1595000   289.10606      0.01485129     13.544843      717.28011     -26.170078      691.11003    
   1596000   294.24804      0.01485129     5.0926375      730.03749     -26.31784       703.71965    
   1597000   314.45054      0.01485129     5.393229       780.16045     -24.375137      755.78532    
   1598000   302.50577      0.01485129     9.1580402      750.52514     -23.137371      727.38777    
   1599000   300.91343      0.01485129     7.5731         746.57452     -27.351174      719.22334    
   1600000   297.68709      0.01485129     6.7998966      738.56987     -24.169962      714.39991    
   1601000   299.11467      0.01485129     9.6130269      742.11175     -24.190203      717.92154    
   1602000   294.82373      0.01485129     7.0075438      731.46581     -25.25036       706.21545    
   1603000   300.19723      0.01485129     6.5955813      744.79759     -27.435603      717.36199    
   1604000   309.42708      0.01485129     9.3973829      767.69712     -22.974539      744.72258    
   1605000   289.66742      0.01485129     8.0061837      718.67285     -22.894673      695.77817    
   1606000   290.27522      0.01485129     8.1270538      720.18082     -23.649589      696.53123    
   1607000   300.41734      0.01485129     8.5873215      745.34369     -21.833864      723.50983    
   1608000   313.27323      0.01485129     8.4660312      777.23953     -19.333472      757.90605    
   1609000   302.00465      0.01485129     7.3546426      749.28185     -19.714898      729.56695    
   1610000   299.49911      0.01485129     8.0566068      743.06555     -19.79959       723.26596    
   1611000   312.88836      0.01485129     9.4262348      776.28465     -20.537501      755.74715    
   1612000   301.28754      0.01485129     7.6804342      747.50268     -21.979574      725.52311    
   1613000   296.05517      0.01485129     10.796796      734.52103     -21.866321      712.6547     
   1614000   306.4852       0.01485129     8.9200451      760.39823     -26.99689       733.40134    
   1615000   290.34146      0.01485129     8.1702691      720.34517     -26.174889      694.17028    
   1616000   302.02863      0.01485129     8.0170078      749.34136     -28.538734      720.80263    
   1617000   287.50361      0.01485129     7.1726748      713.30439     -18.734718      694.56967    
   1618000   309.91856      0.01485129     9.1186231      768.91649     -23.797521      745.11897    
   1619000   301.57153      0.01485129     8.5797278      748.20728     -26.056681      722.1506     
   1620000   297.02426      0.01485129     7.800422       736.92537     -26.444962      710.48041    
   1621000   307.82115      0.01485129     10.5019        763.71275     -29.98003       733.73272    
   1622000   307.23305      0.01485129     7.5312532      762.25367     -26.708326      735.54535    
   1623000   298.91661      0.01485129     4.2670318      741.62035     -26.687817      714.93253    
   1624000   296.40498      0.01485129     6.4220575      735.38892     -24.857694      710.53123    
   1625000   295.36389      0.01485129     8.4584495      732.80596     -27.593416      705.21255    
   1626000   306.42548      0.01485129     13.208244      760.25005     -30.012517      730.23753    
   1627000   304.31217      0.01485129     3.2110097      755.00687     -26.291862      728.71501    
   1628000   284.4967       0.01485129     3.9212463      705.84417     -30.167399      675.67677    
   1629000   302.75867      0.01485129     9.5562852      751.1526      -29.972556      721.18004    
   1630000   302.51395      0.01485129     8.4567325      750.54545     -27.322804      723.22265    
   1631000   300.77917      0.01485129     5.4251543      746.24142     -28.820563      717.42086    
   1632000   281.21778      0.01485129     6.3388811      697.70905     -25.609998      672.09906    
   1633000   299.71103      0.01485129     11.134883      743.59134     -27.737405      715.85393    
   1634000   307.27952      0.01485129     6.425002       762.36895     -27.50322       734.86573    
   1635000   294.24569      0.01485129    -11.151936      730.03167     -24.446177      705.58549    
   1636000   281.21983      0.01485129     19.19156       697.71415     -23.966949      673.7472     
   1637000   291.88402      0.01485129     18.130561      724.1723      -25.02453       699.14777    
   1638000   309.47253      0.01485129     6.9802107      767.80988     -27.037072      740.77281    
   1639000   300.21717      0.01485129     3.0012823      744.84708     -25.24315       719.60393    
   1640000   279.5996       0.01485129     14.852046      693.69433     -24.433385      669.26094    
   1641000   298.46444      0.01485129     14.301192      740.4985      -21.479725      719.01878    
   1642000   312.90091      0.01485129     9.2963888      776.31579     -21.658926      754.65686    
   1643000   309.80836      0.01485129     3.8831524      768.64308     -20.498369      748.14471    
   1644000   288.00208      0.01485129    -12.782936      714.54111     -22.422476      692.11863    
   1645000   282.18975      0.01485129     13.083559      700.12054     -16.800344      683.32019    
   1646000   306.74664      0.01485129     13.544265      761.04687     -20.34513       740.70174    
   1647000   304.72574      0.01485129    -10.319292      756.03297     -18.859794      737.17317    
   1648000   297.26127      0.01485129     10.989838      737.51342     -20.337414      717.176      
   1649000   302.92662      0.01485129     13.613914      751.5693      -20.409525      731.15978    
   1650000   295.37583      0.01485129    -1.1424566      732.83557     -17.809467      715.0261     
   1651000   295.522        0.01485129     7.1363626      733.19823     -18.862703      714.33553    
   1652000   302.2177       0.01485129     17.554189      749.81045     -19.870048      729.9404     
   1653000   294.73967      0.01485129     10.103265      731.25723     -20.981483      710.27575    
   1654000   307.6889       0.01485129    -3.6403191      763.38465     -23.329387      740.05527    
   1655000   288.62236      0.01485129     7.9269199      716.08003     -21.985182      694.09485    
   1656000   292.73854      0.01485129     16.2142        726.2924      -19.787947      706.50445    
   1657000   306.38615      0.01485129     11.528956      760.15249     -24.815047      735.33745    
   1658000   316.67597      0.01485129     6.6981208      785.6818      -26.267873      759.41393    
   1659000   285.64892      0.01485129    -5.0050379      708.70284     -24.684612      684.01823    
   1660000   297.00421      0.01485129     13.401125      736.87562     -23.037632      713.83799    
   1661000   321.19112      0.01485129     5.1607867      796.88402     -19.417961      777.46606    
   1662000   294.83597      0.01485129     2.3286408      731.49617     -20.879091      710.61708    
   1663000   293.56159      0.01485129    -2.5124047      728.33439     -20.615389      707.719      
   1664000   303.18763      0.01485129     12.454906      752.21687     -22.973369      729.2435     
   1665000   309.90527      0.01485129     10.509804      768.88353     -23.438631      745.44489    
   1666000   291.59079      0.01485129     6.6988786      723.4448      -23.27407       700.17073    
   1667000   293.38644      0.01485129     16.135884      727.89985     -21.4847        706.41515    
   1668000   310.78726      0.01485129     14.53627       771.07176     -23.565458      747.50631    
   1669000   295.25511      0.01485129     8.297033       732.53607     -20.632704      711.90336    
   1670000   299.41946      0.01485129     6.0422536      742.86794     -23.55611       719.31183    
   1671000   293.07628      0.01485129     6.9500476      727.13033     -24.630625      702.49971    
   1672000   299.23719      0.01485129     8.9715827      742.41571     -25.510603      716.90511    
   1673000   305.08767      0.01485129     9.0236858      756.93091     -22.35882       734.57209    
   1674000   304.07576      0.01485129     6.2460348      754.42034     -22.269088      732.15125    
   1675000   301.88321      0.01485129     8.5115371      748.98056     -18.323762      730.6568     
   1676000   294.27476      0.01485129     8.3992951      730.10379     -19.667606      710.43619    
   1677000   299.84688      0.01485129     8.7836026      743.92838     -20.799585      723.1288     
   1678000   305.2288       0.01485129     3.5463601      757.28107     -21.482516      735.79855    
   1679000   295.37051      0.01485129     12.099098      732.82237     -18.863735      713.95864    
   1680000   305.21372      0.01485129     4.2755553      757.24365     -18.591183      738.65247    
   1681000   300.90327      0.01485129     6.3499718      746.54931     -15.122969      731.42634    
   1682000   292.67806      0.01485129     8.6675059      726.14233     -15.226437      710.91589    
   1683000   304.44439      0.01485129     10.143883      755.33494     -17.757631      737.57731    
   1684000   309.76357      0.01485129     8.6524402      768.53196     -15.538137      752.99383    
   1685000   304.86781      0.01485129     6.7132143      756.38545     -15.046076      741.33937    
   1686000   294.15261      0.01485129     7.5845712      729.80073     -19.026569      710.77416    
   1687000   286.69499      0.01485129     7.5142168      711.29816     -17.774497      693.52366    
   1688000   309.8241       0.01485129     11.742203      768.68213     -20.57182       748.11031    
   1689000   303.30686      0.01485129     1.9980556      752.51267     -15.99102       736.52165    
   1690000   295.99728      0.01485129     8.0908257      734.37741     -19.13207       715.24534    
   1691000   291.68816      0.01485129     13.345663      723.68637     -16.581914      707.10446    
   1692000   300.33688      0.01485129     8.7514534      745.14409     -16.311704      728.83238    
   1693000   292.56991      0.01485129     1.4809132      725.87401     -13.567652      712.30636    
   1694000   300.5603       0.01485129     5.0679685      745.6984      -14.785864      730.91253    
   1695000   292.62066      0.01485129     7.3024001      725.99991     -15.964387      710.03553    
   1696000   291.39292      0.01485129     12.287216      722.95388     -17.948773      705.0051     
   1697000   302.58555      0.01485129     15.868032      750.72309     -17.56149       733.1616     
   1698000   310.75711      0.01485129     10.841705      770.99695     -17.621743      753.3752     
   1699000   306.8731       0.01485129     3.6231425      761.36063     -20.778358      740.58227    
   1700000   293.68773      0.01485129     6.8477408      728.64736     -21.617551      707.02981    
   1701000   296.99491      0.01485129     7.8387955      736.85256     -22.969738      713.88282    
   1702000   303.08962      0.01485129     7.8410052      751.97369     -22.423393      729.5503     
   1703000   289.46823      0.01485129     5.6714809      718.17866     -21.905185      696.27347    
   1704000   298.43705      0.01485129     6.0567335      740.43056     -24.839126      715.59143    
   1705000   303.59797      0.01485129     9.0789395      753.23494     -27.049573      726.18537    
   1706000   295.27243      0.01485129     7.8593933      732.57903     -27.577948      705.00108    
   1707000   313.10166      0.01485129     7.6206225      776.81384     -20.594444      756.2194     
   1708000   305.65316      0.01485129     10.034431      758.33391     -23.179234      735.15468    
   1709000   285.74899      0.01485129     7.4724279      708.95111     -23.354446      685.59666    
   1710000   305.24509      0.01485129     7.612362       757.32149     -23.473363      733.84813    
   1711000   308.95297      0.01485129     8.8784302      766.52083     -21.549125      744.97171    
   1712000   297.3409       0.01485129     7.1668245      737.71096     -27.615334      710.09563    
   1713000   296.37287      0.01485129     8.2552445      735.30927     -22.517602      712.79167    
   1714000   307.49545      0.01485129     6.2644728      762.90469     -24.869266      738.03542    
   1715000   315.04943      0.01485129     9.1317127      781.64633     -29.059061      752.58727    
   1716000   293.69336      0.01485129     7.5077607      728.66132     -23.655921      705.0054     
   1717000   291.73522      0.01485129     6.8695744      723.80311     -23.260391      700.54272    
   1718000   299.05727      0.01485129     7.8253144      741.96934     -21.6414        720.32794    
   1719000   307.27062      0.01485129     6.7458962      762.34688     -24.67801       737.66887    
   1720000   284.24906      0.01485129     7.3390644      705.22974     -24.076939      681.1528     
   1721000   293.58026      0.01485129     7.5612501      728.38072     -25.503831      702.87689    
   1722000   317.82713      0.01485129     8.9520004      788.53787     -23.924175      764.61369    
   1723000   301.82851      0.01485129     8.3539981      748.84486     -29.873862      718.971      
   1724000   282.7329       0.01485129     8.2799954      701.46813     -24.451984      677.01614    
   1725000   297.53289      0.01485129     8.4269458      738.18729     -27.330549      710.85674    
   1726000   317.24944      0.01485129     8.7614947      787.10459     -20.034144      767.07045    
   1727000   295.28503      0.01485129     7.9121127      732.61031     -18.058157      714.55215    
   1728000   296.7369       0.01485129     7.4340842      736.21243     -19.357129      716.8553     
   1729000   305.69569      0.01485129     8.7947794      758.43944     -24.438615      734.00082    
   1730000   310.25895      0.01485129     8.5181625      769.761       -25.20743       744.55357    
   1731000   294.48495      0.01485129     7.4755934      730.62529     -23.086896      707.53839    
   1732000   292.78727      0.01485129     8.4555653      726.41328     -21.360131      705.05315    
   1733000   299.90572      0.01485129     8.2673732      744.07436     -21.947861      722.1265     
   1734000   312.61142      0.01485129     7.0864029      775.59754     -26.571217      749.02632    
   1735000   293.39214      0.01485129     7.0545486      727.91399     -25.160977      702.75301    
   1736000   288.11075      0.01485129     8.5711979      714.81071     -24.861339      689.94937    
   1737000   301.98094      0.01485129     4.4369339      749.22305     -26.369972      722.85307    
   1738000   305.30649      0.01485129     8.6013138      757.47382     -20.246408      737.22741    
   1739000   299.06717      0.01485129     13.847673      741.9939      -21.337131      720.65677    
   1740000   291.16531      0.01485129     7.8140653      722.38917     -23.099343      699.28983    
   1741000   303.44876      0.01485129     8.9791744      752.86473     -21.861747      731.00298    
   1742000   308.36497      0.01485129     9.5161806      765.06198     -19.932522      745.12946    
   1743000   302.60965      0.01485129     8.7670167      750.78288     -23.961774      726.8211     
   1744000   297.68194      0.01485129     8.1909692      738.5571      -19.577173      718.97992    
   1745000   303.9134       0.01485129     6.3719518      754.01752     -22.516629      731.50089    
   1746000   328.16151      0.01485129     12.377734      814.17776     -21.603557      792.5742     
   1747000   307.3093       0.01485129     9.306584       762.44283     -22.11138       740.33145    
   1748000   297.19459      0.01485129     12.249344      737.34796     -24.711932      712.63603    
   1749000   294.55751      0.01485129     6.5002908      730.8053      -23.272205      707.53309    
   1750000   317.31727      0.01485129     1.0445753      787.27289     -22.418004      764.85489    
   1751000   309.60609      0.01485129     7.4611167      768.14124     -25.658691      742.48255    
   1752000   288.95929      0.01485129     11.563483      716.91597     -22.144226      694.77175    
   1753000   301.14777      0.01485129     2.9873119      747.15592     -22.847696      724.30822    
   1754000   313.18507      0.01485129     7.1699091      777.0208      -23.38485       753.63595    
   1755000   301.35293      0.01485129     9.9323439      747.66493     -21.50203       726.1629     
   1756000   293.04587      0.01485129     10.072184      727.05489     -27.314576      699.74031    
   1757000   301.69758      0.01485129     6.1858692      748.52002     -27.545538      720.97449    
   1758000   315.32544      0.01485129     9.2109377      782.33111     -26.515342      755.81577    
   1759000   292.88479      0.01485129     11.394155      726.65525     -24.855658      701.79959    
   1760000   289.05931      0.01485129     10.099603      717.1641      -27.596599      689.56751    
   1761000   308.3636       0.01485129    -5.7500635      765.05858     -23.437185      741.6214     
   1762000   310.72809      0.01485129     3.4793171      770.92496     -28.077895      742.84707    
   1763000   294.06701      0.01485129     19.820075      729.58835     -26.56918       703.01917    
   1764000   293.57914      0.01485129     6.5366148      728.37794     -26.385012      701.99292    
   1765000   304.6306       0.01485129     2.7196427      755.79691     -27.547997      728.24892    
   1766000   298.59398      0.01485129     16.57026       740.8199      -29.163992      711.65591    
   1767000   293.86404      0.01485129     7.579333       729.08479     -29.469361      699.61543    
   1768000   303.73397      0.01485129     5.1659828      753.57236     -27.294432      726.27793    
   1769000   298.57071      0.01485129     19.951705      740.76215     -23.170776      717.59137    
   1770000   308.41935      0.01485129     4.5985286      765.1969      -24.158135      741.03877    
   1771000   303.81399      0.01485129    -1.5078281      753.77087     -22.796172      730.9747     
   1772000   301.44059      0.01485129     13.97677       747.88241     -20.713892      727.16852    
   1773000   294.00056      0.01485129     5.2178561      729.4235      -27.863869      701.55963    
   1774000   296.54294      0.01485129    -2.0210194      735.73122     -28.221282      707.50993    
   1775000   299.94602      0.01485129     2.5861741      744.17434     -27.668692      716.50565    
   1776000   305.59665      0.01485129     16.468689      758.19371     -26.415614      731.7781     
   1777000   295.67469      0.01485129     7.5886434      733.57705     -27.210221      706.36683    
   1778000   302.50291      0.01485129     6.468574       750.51807     -30.982552      719.53551    
   1779000   314.57617      0.01485129     12.5142        780.47216     -29.520664      750.9515     
   1780000   305.94053      0.01485129     9.7427829      759.04689     -30.297452      728.74943    
   1781000   292.88959      0.01485129     1.4986357      726.66714     -29.982401      696.68474    
   1782000   302.33212      0.01485129     8.0667063      750.09432     -24.231074      725.86324    
   1783000   316.38793      0.01485129     21.593819      784.96716     -19.887802      765.07936    
   1784000   298.82967      0.01485129     8.3531258      741.40466     -22.810293      718.59437    
   1785000   283.68638      0.01485129     8.2182553      703.83372     -23.39831       680.43541    
   1786000   304.79521      0.01485129     5.3450566      756.20531     -23.401521      732.80379    
   1787000   314.8872       0.01485129     8.6965803      781.24381     -25.554801      755.68901    
   1788000   306.21569      0.01485129     8.7574154      759.72957     -23.20361       736.52596    
   1789000   291.33333      0.01485129     7.2679468      722.80603     -22.652425      700.15361    
   1790000   298.99498      0.01485129     8.5849558      741.81478     -23.790621      718.02416    
   1791000   308.37584      0.01485129     4.9506928      765.08896     -21.357649      743.73131    
   1792000   302.86246      0.01485129     7.1190193      751.4101      -27.120838      724.28926    
   1793000   302.22772      0.01485129     10.99878       749.8353      -28.758402      721.0769     
   1794000   291.34614      0.01485129     19.080406      722.8378      -29.791024      693.04677    
   1795000   314.57179      0.01485129     6.5037113      780.46127     -29.598474      750.8628     
   1796000   300.82973      0.01485129     4.321611       746.36685     -28.218861      718.14798    
   1797000   292.47698      0.01485129     12.45146       725.64344     -29.235625      696.40782    
   1798000   324.42844      0.01485129     8.8393458      804.9159      -27.801292      777.11461    
   1799000   300.58478      0.01485129     3.4561154      745.75911     -33.662486      712.09663    
   1800000   288.74085      0.01485129     15.254307      716.37401     -27.313032      689.06098    
   1801000   305.23473      0.01485129     13.334836      757.29578     -23.722329      733.57345    
   1802000   304.46536      0.01485129     5.3736694      755.38695     -25.235637      730.15132    
   1803000   287.0222       0.01485129    -2.9969953      712.11        -21.581936      690.52806    
   1804000   296.04008      0.01485129     11.558151      734.48359     -22.642316      711.84128    
   1805000   300.76477      0.01485129     15.061508      746.20569     -21.190418      725.01528    
   1806000   304.70399      0.01485129     16.817206      755.97899     -17.074056      738.90493    
   1807000   304.50879      0.01485129     3.6045536      755.49469     -18.963838      736.53085    
   1808000   304.5762       0.01485129     4.6962097      755.66195     -20.810729      734.85122    
   1809000   291.84068      0.01485129     11.719794      724.06476     -21.523838      702.54092    
   1810000   302.53267      0.01485129     10.148295      750.59189     -21.304411      729.28748    
   1811000   290.74282      0.01485129     3.1043545      721.34096     -18.647749      702.69321    
   1812000   298.06035      0.01485129     7.0263622      739.49594     -21.18791       718.30803    
   1813000   311.95853      0.01485129     12.026461      773.97771     -23.046604      750.93111    
   1814000   302.49594      0.01485129     8.7487065      750.50077     -20.21084       730.28993    
   1815000   305.95312      0.01485129    -2.0276231      759.07812     -23.113237      735.96488    
   1816000   301.06302      0.01485129     7.8201639      746.94564     -18.190383      728.75526    
   1817000   297.98828      0.01485129     9.7971645      739.31714     -21.541809      717.77533    
   1818000   308.02488      0.01485129     4.0552754      764.21821     -29.088968      735.12924    
   1819000   289.64343      0.01485129     7.433861       718.61333     -24.759025      693.8543     
   1820000   297.84289      0.01485129     6.3855416      738.95641     -22.637604      716.31881    
   1821000   305.82632      0.01485129     8.5071393      758.76353     -22.701788      736.06174    
   1822000   305.06148      0.01485129     6.9510485      756.86595     -28.4996        728.36635    
   1823000   302.08381      0.01485129     9.1953057      749.47825     -28.937291      720.54096    
   1824000   300.59048      0.01485129     6.4831012      745.77327     -31.591169      714.1821     
   1825000   302.90745      0.01485129     8.9762086      751.52173     -31.638083      719.88364    
   1826000   302.98552      0.01485129     10.370016      751.71543     -29.861522      721.85391    
   1827000   286.81388      0.01485129     6.9811698      711.59313     -27.294982      684.29815    
   1828000   291.49918      0.01485129     8.9437446      723.21751     -26.830045      696.38747    
   1829000   315.22467      0.01485129     9.7232556      782.0811      -25.209444      756.87165    
   1830000   298.65646      0.01485129     7.4360022      740.97492     -26.883225      714.09169    
   1831000   293.68794      0.01485129     9.0771465      728.64788     -19.803941      708.84394    
   1832000   306.87219      0.01485129     2.905781       761.35837     -20.525707      740.83266    
   1833000   314.5146       0.01485129     7.870258       780.31939     -24.388367      755.93102    
   1834000   297.14397      0.01485129     10.986077      737.22238     -23.724902      713.49748    
   1835000   284.82927      0.01485129     7.9931264      706.66927     -23.391164      683.27811    
   1836000   298.50018      0.01485129     6.4787511      740.58718     -22.629951      717.95723    
   1837000   317.1076       0.01485129     8.3899646      786.75271     -25.985435      760.76727    
   1838000   296.12094      0.01485129     8.0554221      734.68421     -23.005735      711.67847    
   1839000   297.42296      0.01485129     7.4972458      737.91455     -22.964522      714.95003    
   1840000   299.10085      0.01485129     7.7924061      742.07746     -19.422211      722.65524    
   1841000   302.31417      0.01485129     7.7049482      750.04978     -23.281034      726.76875    
   1842000   300.63051      0.01485129     8.0039056      745.87257     -25.711369      720.1612     
   1843000   295.74867      0.01485129     9.6562559      733.76059     -26.529437      707.23116    
   1844000   305.85019      0.01485129     7.7743684      758.82275     -27.694623      731.12813    
   1845000   294.45704      0.01485129     7.9681063      730.55603     -24.791453      705.76457    
   1846000   299.77091      0.01485129     7.6214875      743.73988     -27.626084      716.1138     
   1847000   306.70542      0.01485129     9.4680938      760.94461     -27.639995      733.30461    
   1848000   299.69455      0.01485129     9.4857313      743.55044     -25.931721      717.61872    
   1849000   306.37831      0.01485129     9.4625955      760.13302     -26.105695      734.02733    
   1850000   308.32671      0.01485129     6.8911492      764.96707     -26.383115      738.58396    
   1851000   305.50374      0.01485129     5.5632048      757.96319     -26.710358      731.25283    
   1852000   307.35987      0.01485129     10.221725      762.5683      -28.124962      734.44334    
   1853000   293.97544      0.01485129     7.8214976      729.36117     -26.930625      702.43054    
   1854000   294.29159      0.01485129     6.5435537      730.14554     -28.477068      701.66847    
   1855000   302.07887      0.01485129     8.2065644      749.466       -26.773116      722.69288    
   1856000   302.3465       0.01485129     7.3563325      750.13        -26.389026      723.74098    
   1857000   306.50253      0.01485129     8.8694136      760.44123     -30.749887      729.69134    
   1858000   294.45662      0.01485129     8.9650444      730.55499     -25.279138      705.27585    
   1859000   303.87446      0.01485129     7.4427488      753.92092     -23.398126      730.52279    
   1860000   299.26761      0.01485129     7.7260051      742.49118     -26.854442      715.63674    
   1861000   297.82855      0.01485129     8.1438187      738.92085     -22.790613      716.13024    
   1862000   295.9712       0.01485129     7.2141275      734.31272     -31.457289      702.85543    
   1863000   308.2044       0.01485129     9.8838817      764.66361     -26.704271      737.95934    
   1864000   301.23336      0.01485129     8.3943977      747.36826     -24.981681      722.38658    
   1865000   288.13762      0.01485129     1.740424       714.87739     -25.181716      689.69567    
   1866000   296.43709      0.01485129     5.2050447      735.4686      -23.035703      712.4329     
   1867000   296.45686      0.01485129     6.4551237      735.51764     -25.682715      709.83493    
   1868000   302.4439       0.01485129     16.382178      750.37166     -20.006024      730.36563    
   1869000   301.11463      0.01485129     3.1365979      747.0737      -22.739599      724.33411    
   1870000   287.03929      0.01485129     7.4846719      712.1524      -25.6854        686.467      
   1871000   301.48356      0.01485129     19.816432      747.98903     -22.072379      725.91665    
   1872000   305.91598      0.01485129     5.5930915      758.98597     -23.499574      735.4864     
   1873000   297.05107      0.01485129     7.3513225      736.9919      -22.737878      714.25402    
   1874000   287.54447      0.01485129     9.8512514      713.40574     -25.234169      688.17158    
   1875000   305.34002      0.01485129     12.999169      757.557       -25.737617      731.81938    
   1876000   318.29398      0.01485129     15.726153      789.69613     -24.834279      764.86185    
   1877000   298.08693      0.01485129     2.8584648      739.56188     -21.77037       717.79151    
   1878000   281.71796      0.01485129     7.6004505      698.95003     -18.651539      680.29849    
   1879000   301.60638      0.01485129     15.751854      748.29373     -17.808541      730.48519    
   1880000   309.87215      0.01485129     5.4034121      768.80135     -21.176712      747.62463    
   1881000   288.68186      0.01485129     2.7408194      716.22764     -22.777094      693.45055    
   1882000   306.67457      0.01485129     3.4532961      760.86806     -23.545827      737.32223    
   1883000   295.85106      0.01485129     6.5994916      734.01464     -24.293386      709.72125    
   1884000   301.13333      0.01485129     17.428025      747.12009     -25.320044      721.80004    
   1885000   295.13925      0.01485129     6.6600546      732.24862     -21.591795      710.65683    
   1886000   310.74512      0.01485129     6.9434508      770.9672      -23.45734       747.50986    
   1887000   296.20685      0.01485129     8.8692098      734.89736     -23.751247      711.14611    
   1888000   305.76642      0.01485129     11.057759      758.61491     -21.389232      737.22568    
   1889000   301.56976      0.01485129     6.1887117      748.20288     -25.123714      723.07917    
   1890000   299.78604      0.01485129     13.394125      743.77742     -21.320732      722.45669    
   1891000   307.19286      0.01485129     9.7864117      762.15394     -20.248056      741.90589    
   1892000   301.55139      0.01485129     8.2982053      748.1573      -21.903598      726.2537     
   1893000   292.56934      0.01485129     8.5262355      725.8726      -19.066996      706.8056     
   1894000   314.07261      0.01485129     10.95269       779.22279     -22.634832      756.58796    
   1895000   302.06939      0.01485129     7.691718       749.44248     -23.830222      725.61225    
   1896000   291.66355      0.01485129     8.2684692      723.62532     -24.098224      699.52709    
   1897000   279.37543      0.01485129     6.7932172      693.13815     -23.716739      669.42141    
   1898000   318.53599      0.01485129     8.2393707      790.29656     -26.854846      763.44171    
   1899000   299.88381      0.01485129     9.4725385      744.02        -29.687456      714.33254    
   1900000   294.42833      0.01485129     7.6372777      730.48481     -25.858877      704.62593    
   1901000   290.46302      0.01485129     7.0149323      720.64676     -23.277477      697.36929    
   1902000   299.68411      0.01485129     8.6363437      743.52453     -24.08823       719.4363     
   1903000   308.16083      0.01485129     7.3840172      764.55552     -27.264489      737.29103    
   1904000   301.65465      0.01485129     10.365932      748.41349     -28.441         719.97249    
   1905000   292.27622      0.01485129     9.8817931      725.14535     -27.693719      697.45163    
   1906000   288.49149      0.01485129     2.6540485      715.75535     -35.235838      680.51951    
   1907000   308.353        0.01485129     3.1566124      765.0323      -28.024353      737.00794    
   1908000   312.98095      0.01485129     9.3149321      776.51436     -32.920524      743.59383    
   1909000   298.57008      0.01485129     9.2736895      740.7606      -26.941846      713.81875    
   1910000   292.1585       0.01485129     3.4444573      724.85329     -23.66288       701.19041    
   1911000   311.58682      0.01485129     7.3592264      773.0555      -29.237236      743.81826    
   1912000   312.38964      0.01485129     8.7213038      775.04731     -28.196917      746.85039    
   1913000   300.24914      0.01485129     12.45234       744.92639     -26.087819      718.83858    
   1914000   298.23733      0.01485129     9.4649532      739.93503     -29.030889      710.90414    
   1915000   305.29953      0.01485129    -2.0149861      757.45656     -28.733224      728.72333    
   1916000   312.37985      0.01485129     11.259064      775.02303     -25.337815      749.68521    
   1917000   294.95864      0.01485129     8.5418149      731.80052     -27.572914      704.22761    
   1918000   286.656        0.01485129     7.5255822      711.20145     -24.784822      686.41662    
   1919000   305.7803       0.01485129     8.3286608      758.64935     -25.413454      733.2359     
   1920000   298.806        0.01485129     8.3150695      741.34593     -22.831917      718.51401    
   1921000   299.54891      0.01485129     9.6195959      743.18909     -21.443096      721.746      
   1922000   297.43682      0.01485129     7.5997706      737.94895     -23.121963      714.82699    
   1923000   313.36068      0.01485129     7.7973349      777.45648     -24.049656      753.40682    
   1924000   310.58618      0.01485129     9.9535627      770.57288     -20.575508      749.99738    
   1925000   307.37965      0.01485129     10.650553      762.61738     -26.540786      736.07659    
   1926000   311.93734      0.01485129     11.482226      773.92514     -20.164418      753.76072    
   1927000   288.77513      0.01485129     5.6975517      716.45905     -19.806243      696.65281    
   1928000   307.47313      0.01485129     2.0482743      762.8493      -22.746875      740.10243    
   1929000   307.36939      0.01485129     8.4825684      762.59193     -22.700231      739.8917     
   1930000   300.21574      0.01485129     13.057693      744.84354     -19.627555      725.21598    
   1931000   301.1004       0.01485129     7.0029221      747.0384      -23.712367      723.32603    
   1932000   297.86391      0.01485129     7.6459343      739.00857     -24.494858      714.51371    
   1933000   297.2494       0.01485129     10.653918      737.48396     -22.759886      714.72407    
   1934000   293.976        0.01485129     8.1161385      729.36257     -23.771526      705.59104    
   1935000   303.23102      0.01485129    -2.2949978      752.32452     -23.845349      728.47917    
   1936000   311.76508      0.01485129     8.8980037      773.49775     -24.97004       748.52771    
   1937000   294.79481      0.01485129     13.094651      731.39405     -26.867651      704.52639    
   1938000   281.85211      0.01485129     6.3434613      699.28286     -26.544844      672.73802    
   1939000   301.77246      0.01485129     4.1189817      748.7058      -24.988408      723.71739    
   1940000   302.29603      0.01485129     6.8361415      750.00477     -26.642565      723.36221    
   1941000   305.27345      0.01485129     14.95719       757.39184     -21.120529      736.27131    
   1942000   299.592        0.01485129     5.8477941      743.29602     -22.409293      720.88673    
   1943000   305.85147      0.01485129    -5.277136       758.82593     -22.795598      736.03034    
   1944000   299.73422      0.01485129     10.081647      743.64886     -27.560219      716.08864    
   1945000   295.52808      0.01485129     14.72701       733.2133      -28.214989      704.99831    
   1946000   304.77756      0.01485129     4.9253879      756.16152     -24.558432      731.60308    
   1947000   300.82958      0.01485129     6.2094399      746.36648     -26.267087      720.09939    
   1948000   312.85295      0.01485129     10.472091      776.19678     -24.718213      751.47857    
   1949000   304.4448       0.01485129     9.231421       755.33593     -23.233435      732.1025     
   1950000   298.33628      0.01485129     8.2960836      740.18054     -19.475695      720.70484    
   1951000   301.72364      0.01485129     5.4892254      748.58468     -20.228922      728.35576    
   1952000   294.82339      0.01485129     13.812305      731.46496     -22.394984      709.06998    
   1953000   303.38342      0.01485129     6.0191583      752.70262     -20.611767      732.09085    
   1954000   303.3722       0.01485129     5.7866759      752.6748      -24.427908      728.24689    
   1955000   297.27962      0.01485129     13.899144      737.55893     -23.291213      714.26771    
   1956000   295.629        0.01485129     7.6364922      733.4637      -20.632345      712.83136    
   1957000   304.04009      0.01485129     6.2973263      754.33185     -19.024789      735.30706    
   1958000   297.88287      0.01485129     8.0074396      739.05561     -17.6347        721.42091    
   1959000   293.33729      0.01485129     6.7387615      727.77791     -19.895874      707.88203    
   1960000   308.20843      0.01485129     7.6997165      764.6736      -25.092211      739.58139    
   1961000   307.6411       0.01485129     7.2184612      763.26605     -23.954462      739.31158    
   1962000   307.80687      0.01485129     11.947785      763.67732     -21.623781      742.05354    
   1963000   290.36398      0.01485129     8.9525776      720.40103     -21.489645      698.91139    
   1964000   298.26961      0.01485129     7.2108259      740.01512     -23.48508       716.53004    
   1965000   303.02923      0.01485129     6.7708373      751.82388     -25.07777       726.74611    
   1966000   312.12486      0.01485129     9.2245115      774.39038     -23.190175      751.20021    
   1967000   294.06166      0.01485129     8.7475271      729.57509     -26.290794      703.2843     
   1968000   286.7082       0.01485129     7.7934778      711.33096     -20.300166      691.03079    
   1969000   305.85907      0.01485129     7.9983362      758.84477     -18.578914      740.26586    
   1970000   301.37275      0.01485129     7.9724324      747.7141      -25.665333      722.04877    
   1971000   298.02606      0.01485129     9.1239166      739.41088     -22.13176       717.27912    
   1972000   285.1517       0.01485129     8.3858409      707.46922     -24.274075      683.19515    
   1973000   285.08641      0.01485129     6.5592587      707.30725     -23.52492       683.78233    
   1974000   302.50711      0.01485129     7.4496184      750.52848     -24.586666      725.94181    
   1975000   305.7626       0.01485129     8.5506757      758.60543     -24.206981      734.39845    
   1976000   289.6925       0.01485129     7.7204321      718.73509     -24.989518      693.74557    
   1977000   297.75718      0.01485129     4.8948628      738.74378     -19.988686      718.75509    
   1978000   303.7869       0.01485129     10.518345      753.70367     -18.531942      735.17173    
   1979000   320.32407      0.01485129     16.127042      794.73286     -22.005141      772.72772    
   1980000   299.36956      0.01485129     11.193632      742.74412     -22.613854      720.13027    
   1981000   280.19478      0.01485129     2.911234       695.17098     -19.155311      676.01567    
   1982000   305.03038      0.01485129     5.9044026      756.78879     -22.712339      734.07645    
   1983000   310.57293      0.01485129     3.3768538      770.54        -22.291433      748.24857    
   1984000   304.48447      0.01485129     8.1451845      755.43437     -24.173337      731.26103    
   1985000   288.77146      0.01485129     12.994286      716.44995     -22.877524      693.57243    
   1986000   301.83348      0.01485129     8.3717897      748.85719     -22.007759      726.84943    
   1987000   306.29655      0.01485129     5.7628737      759.93018     -24.549673      735.38051    
   1988000   292.73748      0.01485129     9.7378896      726.28976     -26.135237      700.15453    
   1989000   297.38441      0.01485129     7.1884353      737.81892     -27.983669      709.83526    
   1990000   314.17228      0.01485129     7.2341198      779.47008     -30.478669      748.99141    
   1991000   310.08057      0.01485129     8.9880418      769.31843     -27.22198       742.09645    
   1992000   296.31875      0.01485129     9.1210046      735.17499     -22.508403      712.66659    
   1993000   299.5668       0.01485129     6.7884465      743.23348     -22.798254      720.43522    
   1994000   318.23633      0.01485129     4.4818313      789.55312     -24.298165      765.25495    
   1995000   304.79702      0.01485129     9.6756018      756.20981     -26.160786      730.04903    
   1996000   302.53015      0.01485129     8.7980559      750.58564     -23.753934      726.8317     
   1997000   314.61121      0.01485129     7.9200138      780.55908     -23.168514      757.39056    
   1998000   289.83219      0.01485129     8.1248733      719.08166     -27.947941      691.13372    
   1999000   295.60767      0.01485129     8.4309553      733.41079     -24.112469      709.29832    
   2000000   297.2857       0.01485129     7.6225002      737.57401     -23.125885      714.44812    
   2001000   300.49244      0.01485129     6.1408092      745.53004     -23.288155      722.24188    
   2002000   300.74698      0.01485129     8.0834486      746.16155     -26.068232      720.09332    
   2003000   297.27081      0.01485129     5.9328883      737.53708     -19.095232      718.44185    
   2004000   303.37504      0.01485129     9.9676226      752.68185     -20.549634      732.13221    
   2005000   309.59815      0.01485129     10.002868      768.12155     -24.24435       743.8772     
   2006000   292.15068      0.01485129     7.5093595      724.83388     -21.279129      703.55476    
   2007000   295.56564      0.01485129     7.7269455      733.3065      -26.304768      707.00173    
   2008000   320.86506      0.01485129     8.9970414      796.07505     -21.4923        774.58275    
   2009000   292.85035      0.01485129     8.1357143      726.56979     -19.236582      707.33321    
   2010000   296.73327      0.01485129     7.7388139      736.20343     -18.126417      718.07701    
   2011000   313.5006       0.01485129     7.5499868      777.80362     -18.191321      759.6123     
   2012000   303.34         0.01485129     4.9892485      752.59491     -19.191198      733.40371    
   2013000   289.13085      0.01485129     8.2302124      717.34161     -19.485164      697.85645    
   2014000   295.4935       0.01485129     10.416222      733.12752     -21.258329      711.86919    
   2015000   309.09109      0.01485129     3.6897222      766.86352     -17.796658      749.06686    
   2016000   293.64379      0.01485129     6.8083823      728.53833     -14.777109      713.76122    
   2017000   312.53087      0.01485129     13.804356      775.39771     -18.442691      756.95502    
   2018000   304.65301      0.01485129     7.446602       755.85252     -18.681466      737.17106    
   2019000   285.66558      0.01485129     8.0529571      708.74419     -20.231345      688.51285    
   2020000   292.99301      0.01485129     10.565655      726.92373     -18.610436      708.31329    
   2021000   308.55249      0.01485129     6.0557777      765.52723     -17.966372      747.56085    
   2022000   296.80089      0.01485129     6.0750871      736.3712      -13.66074       722.71046    
   2023000   288.85408      0.01485129     5.7455824      716.65493     -19.770948      696.88398    
   2024000   299.79821      0.01485129     10.668543      743.80762     -17.670039      726.13759    
   2025000   315.99988      0.01485129     6.939659       784.00442     -19.232069      764.77236    
   2026000   289.97074      0.01485129    -0.21064052     719.4254      -22.176286      697.24912    
   2027000   296.50525      0.01485129     11.536818      735.63771     -24.940887      710.69682    
   2028000   297.81992      0.01485129     9.197725       738.89943     -24.594952      714.30448    
   2029000   298.96894      0.01485129     10.221269      741.75019     -26.010319      715.73987    
   2030000   312.08295      0.01485129     19.348372      774.2864      -18.44096       755.84544    
   2031000   300.38243      0.01485129     6.5501202      745.25709     -16.244633      729.01246    
   2032000   306.51025      0.01485129     3.5550959      760.46037     -19.947345      740.51303    
   2033000   289.66881      0.01485129     11.647426      718.6763      -20.605768      698.07053    
   2034000   303.92488      0.01485129     11.913274      754.046       -21.455003      732.59099    
   2035000   295.79723      0.01485129     4.7211936      733.88108     -22.629828      711.25125    
   2036000   285.51277      0.01485129     3.5383982      708.36505     -20.82127       687.54377    
   2037000   312.06709      0.01485129     10.380003      774.24706     -22.913729      751.33333    
   2038000   311.28845      0.01485129     10.693533      772.31523     -27.650506      744.66473    
   2039000   300.30814      0.01485129     10.443588      745.07276     -27.725011      717.34775    
   2040000   303.07065      0.01485129     8.0363003      751.92663     -25.940677      725.98595    
   2041000   310.80716      0.01485129     7.4725996      771.12112     -28.242414      742.87871    
   2042000   291.79663      0.01485129     6.9389944      723.95548     -25.940354      698.01512    
   2043000   279.61087      0.01485129     7.9679614      693.72228     -25.341199      668.38108    
   2044000   291.45623      0.01485129     8.1469074      723.11095     -27.751893      695.35906    
   2045000   315.78771      0.01485129     8.2575508      783.478       -31.396566      752.08144    
   2046000   299.98125      0.01485129     7.6769217      744.26174     -27.734319      716.52742    
   2047000   294.52729      0.01485129     8.4737681      730.73032     -23.30749       707.42283    
   2048000   289.5183       0.01485129     5.7672657      718.30288     -29.474462      688.82842    
   2049000   306.88797      0.01485129     7.9163947      761.39751     -30.266864      731.13065    
   2050000   307.69369      0.01485129     10.113695      763.39652     -29.08062       734.3159     
   2051000   297.03605      0.01485129     6.9336965      736.95462     -28.578829      708.3758     
   2052000   301.3551       0.01485129     5.1653874      747.67031     -32.885155      714.78515    
   2053000   310.47207      0.01485129     9.4665649      770.28977     -27.00765       743.28212    
   2054000   304.97728      0.01485129     5.7025608      756.65704     -27.668573      728.98846    
   2055000   311.12463      0.01485129     8.6280051      771.90878     -30.070717      741.83807    
   2056000   291.17778      0.01485129     9.3939015      722.4201      -24.753246      697.66686    
   2057000   291.69371      0.01485129     7.6375701      723.70014     -23.300101      700.40004    
   2058000   310.95058      0.01485129     1.9790784      771.47695     -23.321733      748.15522    
   2059000   299.36088      0.01485129     9.1350687      742.72259     -25.088985      717.6336     
   2060000   293.10284      0.01485129     8.4089661      727.19623     -22.250779      704.94546    
   2061000   291.15307      0.01485129     5.332733       722.35878     -23.802376      698.55641    
   2062000   306.8952       0.01485129     2.4869079      761.41545     -23.232676      738.18278    
   2063000   312.68633      0.01485129     8.4444522      775.7834      -24.33246       751.45094    
   2064000   303.31349      0.01485129     9.0174808      752.52914     -25.119659      727.40948    
   2065000   290.77582      0.01485129     7.3904939      721.42284     -27.71164       693.7112     
   2066000   306.59803      0.01485129     6.3236681      760.67817     -26.840076      733.83809    
   2067000   326.25078      0.01485129     8.1712277      809.43719     -24.250181      785.18701    
   2068000   296.14995      0.01485129     8.765385       734.75619     -24.187407      710.56879    
   2069000   290.20016      0.01485129     7.3921318      719.9946      -26.316118      693.67848    
   2070000   304.05589      0.01485129     9.0194068      754.37104     -24.834548      729.53649    
   2071000   298.72268      0.01485129     7.3662883      741.1392      -22.344315      718.79489    
   2072000   297.48455      0.01485129     7.032084       738.06736     -21.962297      716.10506    
   2073000   300.22715      0.01485129     9.2816858      744.87184     -21.46535       723.40649    
   2074000   310.52353      0.01485129     11.290045      770.41744     -19.93325       750.48419    
   2075000   312.04433      0.01485129     7.7873248      774.19059     -24.348175      749.84242    
   2076000   305.86509      0.01485129     8.4328114      758.85971     -25.434849      733.42486    
   2077000   296.68355      0.01485129     5.2386801      736.08005     -24.016244      712.06381    
   2078000   290.7077       0.01485129     9.9059245      721.25382     -23.965047      697.28877    
   2079000   304.27365      0.01485129     9.2890495      754.91131     -24.764394      730.14692    
   2080000   308.05798      0.01485129     5.898308       764.30033     -20.843721      743.45661    
   2081000   292.82974      0.01485129     8.9443839      726.51865     -20.746376      705.77228    
   2082000   290.60922      0.01485129     11.523854      721.00949     -23.480472      697.52902    
   2083000   314.74962      0.01485129     13.291023      780.90247     -19.956463      760.94601    
   2084000   304.07557      0.01485129     6.1272334      754.41987     -19.319518      735.10035    
   2085000   292.97582      0.01485129     3.8765934      726.88109     -19.856854      707.02423    
   2086000   291.1259       0.01485129     7.7852094      722.29137     -18.426672      703.8647     
   2087000   295.63901      0.01485129     11.987597      733.48852     -16.800165      716.68836    
   2088000   303.21209      0.01485129     8.1930598      752.27757     -21.667771      730.6098     
   2089000   302.77593      0.01485129     7.0693446      751.19543     -21.458671      729.73676    
   2090000   288.60614      0.01485129     6.614483       716.03979     -22.497674      693.54212    
   2091000   295.26408      0.01485129     10.212687      732.55832     -22.654414      709.90391    
   2092000   317.61743      0.01485129     4.9982177      788.01759     -19.494815      768.52278    
   2093000   296.63183      0.01485129     5.8001556      735.95176     -23.977219      711.97454    
   2094000   289.41265      0.01485129     9.1527658      718.04077     -21.926564      696.1142     
   2095000   302.48224      0.01485129     9.6136964      750.46677     -17.526239      732.94053    
   2096000   313.57813      0.01485129     8.8175122      777.99599     -19.263695      758.7323     
   2097000   304.80043      0.01485129     7.3929918      756.21826     -21.343906      734.87435    
   2098000   290.50441      0.01485129     8.5371567      720.74946     -22.509337      698.24012    
   2099000   314.72515      0.01485129     9.784579       780.84177     -21.522967      759.3188     
   2100000   297.33148      0.01485129     5.4655974      737.6876      -20.630938      717.05666    
   2101000   293.67256      0.01485129     9.0002443      728.60972     -20.92739       707.68233    
   2102000   305.19509      0.01485129     7.870576       757.19743     -25.348239      731.8492     
   2103000   296.34009      0.01485129     7.4496772      735.22794     -23.29003       711.93791    
   2104000   301.95446      0.01485129     7.9601835      749.15733     -23.902363      725.25497    
   2105000   303.27641      0.01485129     5.5487854      752.43713     -28.842945      723.59418    
   2106000   301.10346      0.01485129     9.7544073      747.04598     -23.445932      723.60005    
   2107000   307.45922      0.01485129     8.6539281      762.8148      -26.291854      736.52295    
   2108000   305.23426      0.01485129     7.8697376      757.29461     -23.253735      734.04087    
   2109000   295.94015      0.01485129     7.8492047      734.23566     -28.291112      705.94455    
   2110000   298.59923      0.01485129     7.7467439      740.83292     -26.365678      714.46725    
   2111000   300.2954       0.01485129     7.8004436      745.04117     -26.935936      718.10524    
   2112000   298.78024      0.01485129     7.6110552      741.28201     -28.256882      713.02513    
   2113000   303.23018      0.01485129     9.5198367      752.32243     -26.092769      726.22966    
   2114000   300.75106      0.01485129     8.1359163      746.17168     -30.351958      715.81972    
   2115000   307.51584      0.01485129     9.4031468      762.95527     -26.167249      736.78802    
   2116000   301.77477      0.01485129     8.1278372      748.71153     -25.27436       723.43717    
   2117000   292.37451      0.01485129     7.7151145      725.38921     -25.727805      699.66141    
   2118000   302.16771      0.01485129     8.1841018      749.68641     -25.823303      723.86311    
   2119000   301.84917      0.01485129     9.4653286      748.89611     -28.395303      720.50081    
   2120000   286.37563      0.01485129     7.9970603      710.50583     -27.733898      682.77193    
   2121000   282.33226      0.01485129     7.0610907      700.47411     -26.505441      673.96867    
   2122000   311.19727      0.01485129     7.9874542      772.08901     -23.150935      748.93808    
   2123000   312.16089      0.01485129     8.5334035      774.47977     -25.720295      748.75948    
   2124000   296.95397      0.01485129     8.3323689      736.75098     -24.744832      712.00615    
   2125000   301.20856      0.01485129     7.7465149      747.30673     -19.210467      728.09626    
   2126000   300.34751      0.01485129     8.8662367      745.17044     -20.014426      725.15602    
   2127000   306.61988      0.01485129     7.0731903      760.73239     -21.965152      738.76723    
   2128000   273.60377      0.01485129     5.8885576      678.8185      -22.115312      656.70319    
   2129000   293.47439      0.01485129     7.4854689      728.11804     -17.484242      710.6338     
   2130000   305.10766      0.01485129     10.999802      756.98051     -19.290118      737.69039    
   2131000   306.72527      0.01485129     5.4689853      760.99384     -21.492532      739.50131    
   2132000   302.74581      0.01485129     6.3453911      751.1207      -28.266215      722.85449    
   2133000   297.78769      0.01485129     5.8671         738.81946     -26.769343      712.05012    
   2134000   297.50477      0.01485129     8.1061513      738.11753     -26.904994      711.21253    
   2135000   296.88299      0.01485129     9.5050361      736.57489     -29.349058      707.22583    
   2136000   310.90102      0.01485129     7.1893759      771.35399     -28.503181      742.85081    
   2137000   309.18995      0.01485129     6.7534085      767.10878     -27.40503       739.70375    
   2138000   290.59009      0.01485129     7.7093347      720.96203     -26.820034      694.142      
   2139000   295.31612      0.01485129     6.6942743      732.68744     -25.791082      706.89636    
   2140000   316.438        0.01485129     7.5663329      785.09139     -28.346235      756.74515    
   2141000   303.92028      0.01485129     7.0228969      754.0346      -28.527152      725.50744    
   2142000   295.30235      0.01485129     8.2464993      732.65327     -25.988466      706.6648     
   2143000   284.82632      0.01485129     8.6694732      706.66194     -26.377896      680.28405    
   2144000   304.36472      0.01485129     9.5695315      755.13727     -25.683494      729.45377    
   2145000   305.13071      0.01485129     8.3295167      757.0377      -27.923482      729.11422    
   2146000   301.34273      0.01485129     6.2935567      747.63963     -24.422042      723.21759    
   2147000   291.42799      0.01485129     6.3589156      723.04089     -24.113634      698.92725    
   2148000   290.38436      0.01485129     9.9031036      720.4516      -25.305388      695.14621    
   2149000   305.40997      0.01485129     7.982524       757.73055     -27.237264      730.49328    
   2150000   299.74853      0.01485129     8.3722086      743.68436     -23.551172      720.13319    
   2151000   292.33969      0.01485129     7.2980462      725.30282     -22.080859      703.22196    
   2152000   306.34944      0.01485129     7.8979916      760.0614      -22.970819      737.09058    
   2153000   301.63477      0.01485129     8.5929257      748.36419     -20.049161      728.31503    
   2154000   297.93113      0.01485129     11.177106      739.17533     -21.155581      718.01975    
   2155000   301.33633      0.01485129     7.5764903      747.62375     -26.054287      721.56946    
   2156000   300.86385      0.01485129     5.3953186      746.45151     -27.219783      719.23172    
   2157000   306.83023      0.01485129     9.3320485      761.25427     -30.73423       730.52004    
   2158000   299.95057      0.01485129     8.7034128      744.18563     -33.943334      710.24229    
   2159000   292.23979      0.01485129     6.419185       725.05497     -30.973385      694.08158    
   2160000   307.59695      0.01485129     10.840838      763.15652     -31.842808      731.31371    
   2161000   295.96889      0.01485129     23.816995      734.30697     -29.872515      704.43445    
   2162000   294.21468      0.01485129     6.2384986      729.95473     -27.91998       702.03475    
   2163000   307.2324       0.01485129     2.9368286      762.25206     -28.633061      733.619      
   2164000   302.88199      0.01485129     9.4931636      751.45856     -23.42172       728.03684    
   2165000   286.56909      0.01485129     11.254424      710.98581     -28.39747       682.58834    
   2166000   291.33119      0.01485129     7.0106414      722.80071     -24.842185      697.95852    
   2167000   313.23387      0.01485129     7.7309281      777.14187     -27.02137       750.1205     
   2168000   297.94949      0.01485129     8.8280017      739.2209      -23.049166      716.17173    
   2169000   282.98196      0.01485129     7.8039832      702.08603     -21.710999      680.37503    
   2170000   308.1652       0.01485129     5.3919793      764.56636     -24.629777      739.93658    
   2171000   315.48429      0.01485129     8.2460037      782.72523     -26.717595      756.00763    
   2172000   298.45103      0.01485129     16.106293      740.46523     -25.425677      715.03955    
   2173000   292.24701      0.01485129     3.0855016      725.07289     -27.378708      697.69418    
   2174000   297.29273      0.01485129     4.4743775      737.59146     -19.778735      717.81272    
   2175000   310.10221      0.01485129     15.055022      769.37212     -20.009188      749.36293    
   2176000   294.10844      0.01485129     7.0072274      729.69114     -25.275119      704.41602    
   2177000   303.89697      0.01485129     6.6580479      753.97676     -25.425274      728.55148    
   2178000   301.61947      0.01485129     10.246408      748.32621     -27.465954      720.86026    
   2179000   299.75312      0.01485129     11.965962      743.69575     -28.620883      715.07486    
   2180000   291.59283      0.01485129     8.3145321      723.44985     -27.640025      695.80983    
   2181000   300.61819      0.01485129     1.8922715      745.84201     -22.965705      722.87631    
   2182000   310.03693      0.01485129     6.8410288      769.21016     -26.21425       742.99591    
   2183000   305.28201      0.01485129     13.582474      757.41307     -23.241986      734.17109    
   2184000   295.46064      0.01485129     16.227892      733.046       -21.633983      711.41202    
   2185000   303.21178      0.01485129     6.2680535      752.27678     -20.806133      731.47064    
   2186000   305.1485       0.01485129    -2.2645835      757.08183     -21.953006      735.12882    
   2187000   321.33406      0.01485129     16.467688      797.23865     -20.698346      776.5403     
   2188000   296.16008      0.01485129     10.341931      734.78132     -22.89795       711.88337    
   2189000   294.13015      0.01485129     9.497871       729.74501     -20.759938      708.98507    
   2190000   299.02593      0.01485129     2.8984137      741.89159     -22.554145      719.33744    
   2191000   303.53681      0.01485129     3.7413555      753.08319     -24.62543       728.45776    
   2192000   307.55507      0.01485129     33.003364      763.05261     -26.478179      736.57443    
   2193000   287.72879      0.01485129     7.3598348      713.86306     -26.093487      687.76957    
   2194000   309.55129      0.01485129     3.7537027      768.00529     -26.309331      741.69596    
   2195000   305.59216      0.01485129     18.862248      758.18257     -20.177826      738.00475    
   2196000   287.83402      0.01485129     1.4290261      714.12413     -22.159565      691.96456    
   2197000   287.46187      0.01485129     1.5783413      713.20082     -25.177506      688.02331    
   2198000   320.57442      0.01485129     8.822604       795.35397     -24.150606      771.20336    
   2199000   291.01529      0.01485129     12.06934       722.01697     -23.499518      698.51745    
   2200000   296.30653      0.01485129     5.3898096      735.14466     -24.279138      710.86552    
   2201000   312.11441      0.01485129     7.8453235      774.36444     -25.235864      749.12858    
   2202000   300.35909      0.01485129     9.5845355      745.19918     -23.111224      722.08795    
   2203000   295.60669      0.01485129     7.796377       733.40835     -24.927817      708.48054    
   2204000   298.92193      0.01485129     5.0900115      741.63354     -22.264398      719.36914    
   2205000   314.98475      0.01485129     8.1226241      781.48586     -24.269945      757.21591    
   2206000   309.15339      0.01485129     9.2023469      767.01807     -25.574819      741.44326    
   2207000   293.07117      0.01485129     9.4833949      727.11766     -24.786477      702.33118    
   2208000   291.27666      0.01485129     2.4960087      722.66542     -26.780201      695.88522    
   2209000   299.12459      0.01485129     4.7981022      742.13635     -23.334359      718.80199    
   2210000   299.60233      0.01485129     9.446713       743.32164     -21.943913      721.37773    
   2211000   304.29106      0.01485129     8.7966519      754.95451     -24.745105      730.20941    
   2212000   295.14062      0.01485129     4.8617149      732.25202     -22.931437      709.32059    
   2213000   295.56668      0.01485129     8.1957347      733.30909     -23.411433      709.89766    
   2214000   286.25471      0.01485129     11.080547      710.20583     -19.35073       690.8551     
   2215000   302.11145      0.01485129     8.116175       749.54684     -21.276196      728.27065    
   2216000   318.37685      0.01485129     6.2663648      789.90174     -18.385603      771.51613    
   2217000   296.15886      0.01485129     8.0101106      734.77829     -24.086796      710.6915     
   2218000   288.01112      0.01485129     7.8762303      714.56354     -23.055037      691.5085     
   2219000   324.46279      0.01485129     8.6390092      805.00113     -21.736454      783.26468    
   2220000   294.89615      0.01485129     8.2351902      731.64549     -27.241699      704.40379    
   2221000   288.986        0.01485129     7.5750611      716.98223     -27.327032      689.65519    
   2222000   310.03609      0.01485129     9.2699937      769.20809     -20.421199      748.78689    
   2223000   309.32292      0.01485129     7.3085364      767.43869     -23.777778      743.66091    
   2224000   304.73237      0.01485129     5.1877249      756.04942     -26.269451      729.77997    
   2225000   289.65672      0.01485129     12.056105      718.6463      -27.848548      690.79775    
   2226000   304.31387      0.01485129     12.833021      755.0111      -26.00321       729.00789    
   2227000   309.44046      0.01485129     4.7557463      767.73032     -19.637057      748.09326    
   2228000   305.97776      0.01485129     5.4558329      759.13925     -17.944184      741.19507    
   2229000   294.28487      0.01485129     10.300186      730.12888     -18.795714      711.33316    
   2230000   309.19704      0.01485129     12.320224      767.12637     -20.73672       746.38965    
   2231000   306.01864      0.01485129     7.3598542      759.24067     -19.902748      739.33792    
   2232000   306.08054      0.01485129     2.3961704      759.39425     -18.032797      741.36145    
   2233000   296.36867      0.01485129     4.1253786      735.29885     -18.423986      716.87486    
   2234000   301.61483      0.01485129     8.8701346      748.31472     -21.009679      727.30504    
   2235000   298.50891      0.01485129     11.00339       740.60884     -21.601155      719.00769    
   2236000   298.76334      0.01485129     10.453034      741.24008     -22.894309      718.34578    
   2237000   317.62072      0.01485129     8.1220781      788.02576     -17.304393      770.72136    
   2238000   305.1144       0.01485129     6.7386838      756.99725     -20.656789      736.34046    
   2239000   298.70787      0.01485129     16.132854      741.10247     -17.145137      723.95733    
   2240000   298.18173      0.01485129     10.131187      739.79709     -22.822522      716.97457    
   2241000   306.97096      0.01485129     6.4554617      761.60342     -23.45091       738.15251    
   2242000   298.6221       0.01485129     6.5458613      740.88966     -20.417044      720.47262    
   2243000   300.88553      0.01485129     8.6002764      746.50529     -18.678285      727.82701    
   2244000   301.89158      0.01485129     10.460714      749.00132     -19.430443      729.57088    
   2245000   299.3148       0.01485129     10.852564      742.60828     -18.879575      723.7287     
   2246000   288.722        0.01485129     7.29691        716.32723     -22.700588      693.62665    
   2247000   301.57608      0.01485129     7.7002181      748.21857     -22.254537      725.96403    
   2248000   296.35127      0.01485129     9.0991243      735.25567     -21.033755      714.22192    
   2249000   307.80377      0.01485129     12.853001      763.66963     -22.204005      741.46563    
   2250000   297.26415      0.01485129     8.5060571      737.52056     -23.077328      714.44323    
   2251000   317.01928      0.01485129     8.4482674      786.53357     -19.968831      766.56474    
   2252000   299.39703      0.01485129     4.2358352      742.81229     -19.522142      723.29014    
   2253000   292.75635      0.01485129     10.230257      726.33656     -20.573157      705.76341    
   2254000   291.80468      0.01485129     11.957639      723.97546     -22.701365      701.2741     
   2255000   304.88492      0.01485129     10.35021       756.42789     -22.990284      733.43761    
   2256000   323.50578      0.01485129     3.746719       802.62675     -20.401915      782.22484    
   2257000   297.01853      0.01485129     6.2395999      736.91116     -24.94551       711.96565    
   2258000   292.38924      0.01485129     10.880445      725.42577     -24.651484      700.77428    
   2259000   307.20328      0.01485129     7.8176526      762.1798      -23.870844      738.30895    
   2260000   306.9698       0.01485129     3.9732133      761.60053     -23.541141      738.05939    
   2261000   307.83202      0.01485129     8.7792877      763.73973     -17.78209       745.95764    
   2262000   309.14746      0.01485129     9.5496815      767.00337     -19.632157      747.37121    
   2263000   301.71336      0.01485129     6.8061123      748.55917     -20.141544      728.41762    
   2264000   301.43768      0.01485129     7.6256397      747.87519     -21.033575      726.84161    
   2265000   294.21693      0.01485129     12.002055      729.96032     -20.353111      709.60721    
   2266000   283.67829      0.01485129     19.388819      703.81367     -16.430835      687.38283    
   2267000   310.41342      0.01485129     11.895158      770.14425     -22.480483      747.66377    
   2268000   305.9088       0.01485129     4.1384398      758.96817     -24.582113      734.38606    
   2269000   295.29855      0.01485129     2.2412836      732.64384     -24.470761      708.17308    
   2270000   303.51782      0.01485129     6.709025       753.03608     -24.829533      728.20654    
   2271000   291.44743      0.01485129     3.9927193      723.08911     -22.525515      700.5636     
   2272000   290.23038      0.01485129     5.4113369      720.06956     -23.713614      696.35595    
   2273000   302.46911      0.01485129     10.142683      750.4342      -26.058826      724.37537    
   2274000   306.96121      0.01485129     7.2451717      761.57922     -25.258699      736.32052    
   2275000   283.04428      0.01485129     1.8565239      702.24067     -28.759258      673.48141    
   2276000   299.70157      0.01485129     10.088783      743.56786     -28.63025       714.93761    
   2277000   299.51135      0.01485129     11.334454      743.0959      -31.671178      711.42473    
   2278000   293.66777      0.01485129     9.1507544      728.59782     -28.489981      700.10784    
   2279000   302.11799      0.01485129     3.8024439      749.56305     -30.91203       718.65102    
   2280000   296.9923       0.01485129     2.4252924      736.84609     -30.498738      706.34735    
   2281000   287.85239      0.01485129     9.4675552      714.16971     -27.996819      686.17289    
   2282000   310.5281       0.01485129     17.299716      770.42879     -26.325447      744.10334    
   2283000   302.70751      0.01485129     3.6865726      751.02567     -29.922454      721.10321    
   2284000   296.08687      0.01485129     3.7078275      734.59969     -24.775829      709.82386    
   2285000   304.06021      0.01485129     10.416496      754.38177     -29.022919      725.35885    
   2286000   308.12096      0.01485129     12.266448      764.45659     -29.681848      734.77475    
   2287000   297.49145      0.01485129     3.385655       738.08449     -29.66592       708.41857    
   2288000   302.12828      0.01485129     6.1784887      749.58858     -26.330021      723.25856    
   2289000   301.91825      0.01485129     12.373787      749.06751     -24.529347      724.53816    
   2290000   310.09611      0.01485129     7.3634672      769.35699     -21.463298      747.89369    
   2291000   285.05596      0.01485129     7.6346197      707.23169     -22.249155      684.98253    
   2292000   293.21986      0.01485129     5.2454915      727.48655     -21.273837      706.21271    
   2293000   301.66446      0.01485129     12.793678      748.43783     -27.250106      721.18773    
   2294000   301.77522      0.01485129     8.5025717      748.71265     -27.473981      721.23867    
   2295000   307.39111      0.01485129     8.3639012      762.64581     -30.473672      732.17214    
   2296000   309.22265      0.01485129     8.7282189      767.18991     -24.784752      742.40516    
   2297000   296.97165      0.01485129     13.692877      736.79485     -26.034957      710.75989    
   2298000   287.31885      0.01485129     10.050925      712.84598     -21.399814      691.44616    
   2299000   292.38002      0.01485129     5.2235254      725.40288     -22.938738      702.46414    
   2300000   313.50254      0.01485129     2.8642067      777.80844     -24.046889      753.76155    
   2301000   311.89685      0.01485129     12.57541       773.82469     -21.874365      751.95033    
   2302000   291.87059      0.01485129     19.545906      724.13898     -22.836203      701.30278    
   2303000   297.32201      0.01485129     11.566723      737.6641      -24.686064      712.97804    
   2304000   292.97248      0.01485129     7.1681751      726.87281     -23.968816      702.90399    
   2305000   303.51911      0.01485129     7.4484959      753.03929     -20.267401      732.77189    
   2306000   301.7108       0.01485129     5.6640439      748.5528      -20.538539      728.01426    
   2307000   294.50011      0.01485129     16.854404      730.66289     -24.435849      706.22704    
   2308000   299.33246      0.01485129     6.9704751      742.65208     -22.03033       720.62175    
   2309000   309.09859      0.01485129     6.8844455      766.88212     -27.81992       739.0622     
   2310000   290.55309      0.01485129     13.38585       720.87023     -27.757793      693.11244    
   2311000   286.92261      0.01485129     8.3012432      711.86291     -22.007188      689.85572    
   2312000   299.9484       0.01485129     3.9761894      744.18026     -19.32608       724.85418    
   2313000   308.37663      0.01485129     7.6958331      765.09092     -19.541515      745.5494     
   2314000   308.44487      0.01485129     7.2910001      765.26021     -20.133785      745.12643    
   2315000   295.78789      0.01485129     20.614867      733.8579      -21.597163      712.26074    
   2316000   290.93445      0.01485129     5.8988798      721.81639     -18.735822      703.08056    
   2317000   305.23882      0.01485129     4.2497608      757.30594     -19.374654      737.93128    
   2318000   306.5696       0.01485129     5.7313505      760.60763     -21.942071      738.66556    
   2319000   306.00583      0.01485129     10.937167      759.20891     -23.472038      735.73687    
   2320000   309.38896      0.01485129     7.3969164      767.60254     -24.740704      742.86184    
   2321000   310.87309      0.01485129     9.050045       771.28469     -24.386174      746.89852    
   2322000   304.3659       0.01485129     7.0567306      755.14018     -24.96905       730.17113    
   2323000   297.23772      0.01485129     4.2590519      737.45498     -18.58845       718.86653    
   2324000   304.94702      0.01485129     15.626704      756.58197     -21.749037      734.83293    
   2325000   298.35749      0.01485129     13.147291      740.23315     -21.554844      718.67831    
   2326000   299.90292      0.01485129     0.87512628     744.06742     -20.494138      723.57328    
   2327000   294.53152      0.01485129     4.7858417      730.74081     -20.523102      710.21771    
   2328000   300.00714      0.01485129     15.296704      744.32598     -21.22783       723.09815    
   2329000   302.16994      0.01485129     6.2424013      749.69196     -20.404999      729.28696    
   2330000   295.74938      0.01485129    -1.2680706      733.76235     -21.762294      712.00006    
   2331000   304.94135      0.01485129     7.5000587      756.56791     -19.202908      737.365      
   2332000   307.98609      0.01485129     6.8669521      764.12198     -24.474726      739.64726    
   2333000   296.768        0.01485129     18.240715      736.28959     -22.027549      714.26204    
   2334000   296.92326      0.01485129     13.653947      736.6748      -20.862004      715.81279    
   2335000   303.08663      0.01485129     3.4208194      751.9663      -23.758893      728.2074     
   2336000   304.78235      0.01485129     2.3910005      756.17341     -21.902916      734.2705     
   2337000   299.76099      0.01485129     13.778006      743.71528     -26.474196      717.24108    
   2338000   290.28143      0.01485129     9.5302528      720.19624     -23.085245      697.11099    
   2339000   302.51341      0.01485129     8.9006236      750.54411     -22.099928      728.44418    
   2340000   296.29499      0.01485129     6.80397        735.11603     -19.066762      716.04927    
   2341000   302.06213      0.01485129     8.4793396      749.42447     -23.134775      726.2897     
   2342000   303.7491       0.01485129     11.079976      753.6099      -24.664651      728.94525    
   2343000   306.6285       0.01485129     13.282996      760.75377     -23.023287      737.73048    
   2344000   278.22269      0.01485129     8.7384784      690.27816     -21.977971      668.30019    
   2345000   304.54391      0.01485129     1.4007858      755.58184     -19.579581      736.00226    
   2346000   302.11551      0.01485129     10.845761      749.5569      -22.338348      727.21855    
   2347000   298.70238      0.01485129     7.9677088      741.08885     -25.865122      715.22373    
   2348000   305.46389      0.01485129     2.9985349      757.86433     -24.790243      733.07409    
   2349000   307.05048      0.01485129     10.734706      761.80071     -26.1323        735.66841    
   2350000   285.15736      0.01485129     10.992834      707.48328     -24.490915      682.99236    
   2351000   302.72872      0.01485129     7.2369468      751.0783      -20.349293      730.729      
   2352000   300.81565      0.01485129     7.6413422      746.33192     -22.401308      723.93061    
   2353000   297.58525      0.01485129     8.5081907      738.31722     -26.038028      712.27919    
   2354000   306.25895      0.01485129     8.0394589      759.83691     -25.554489      734.28242    
   2355000   291.96407      0.01485129     6.3254583      724.37092     -26.437846      697.93307    
   2356000   292.59005      0.01485129     9.5895396      725.92398     -21.843631      704.08035    
   2357000   316.13056      0.01485129     8.4188393      784.32862     -20.316542      764.01208    
   2358000   312.81074      0.01485129     7.1433583      776.09206     -24.016882      752.07518    
   2359000   281.77271      0.01485129     5.4174419      699.08586     -22.095331      676.99053    
   2360000   295.9874       0.01485129     10.733979      734.3529      -22.802416      711.55049    
   2361000   300.17745      0.01485129     3.6467566      744.74854     -25.900888      718.84765    
   2362000   287.6898       0.01485129     5.2360865      713.76632     -27.021968      686.74435    
   2363000   307.06225      0.01485129     8.1549748      761.8299      -27.038939      734.79096    
   2364000   314.49466      0.01485129     9.2223788      780.26992     -24.073127      756.19679    
   2365000   297.42412      0.01485129     7.6741837      737.91744     -28.714784      709.20266    
   2366000   294.21735      0.01485129     6.1916351      729.96137     -27.631331      702.33003    
   2367000   301.82698      0.01485129     8.9524051      748.84107     -24.797552      724.04351    
   2368000   313.74683      0.01485129     9.166357       778.41454     -26.748462      751.66608    
   2369000   293.86609      0.01485129     5.0189292      729.08987     -16.198711      712.89116    
   2370000   291.21805      0.01485129     3.9219882      722.52        -20.891372      701.62863    
   2371000   297.03166      0.01485129     6.769304       736.94374     -19.886677      717.05707    
   2372000   303.59112      0.01485129     14.544814      753.21793     -24.17361       729.04432    
   2373000   295.67855      0.01485129    -8.3176642      733.58664     -22.674819      710.91182    
   2374000   300.52935      0.01485129     10.238421      745.6216      -26.145213      719.47639    
   2375000   307.17799      0.01485129     6.3926352      762.11706     -25.905793      736.21127    
   2376000   297.8699       0.01485129     6.0384146      739.02342     -25.965652      713.05777    
   2377000   299.70768      0.01485129     4.4516663      743.58302     -27.008074      716.57495    
   2378000   294.18036      0.01485129     10.204499      729.86958     -27.298835      702.57075    
   2379000   307.23593      0.01485129     8.9153747      762.26082     -26.29721       735.96361    
   2380000   286.23714      0.01485129     4.7775127      710.16223     -26.26796       683.89427    
   2381000   302.10774      0.01485129     8.7341873      749.53763     -20.737953      728.79968    
   2382000   304.38667      0.01485129     10.306633      755.19171     -24.720576      730.47114    
   2383000   298.63237      0.01485129     11.354801      740.91514     -23.208985      717.70615    
   2384000   305.95806      0.01485129     6.0234149      759.09037     -29.59016       729.50021    
   2385000   304.34054      0.01485129     7.4427653      755.07726     -25.23633       729.84093    
   2386000   296.87728      0.01485129     3.2827394      736.56072     -27.159448      709.40127    
   2387000   298.71131      0.01485129     9.3515426      741.11099     -25.931099      715.17989    
   2388000   313.15274      0.01485129     14.922238      776.94059     -27.941264      748.99933    
   2389000   302.71162      0.01485129     9.2111062      751.03587     -30.550418      720.48545    
   2390000   298.09798      0.01485129     6.8606221      739.58931     -28.779629      710.80969    
   2391000   298.95349      0.01485129     6.0379588      741.71185     -27.709792      714.00206    
   2392000   299.89742      0.01485129     20.963537      744.05378     -29.008316      715.04546    
   2393000   311.05822      0.01485129     2.8744658      771.74402     -26.080411      745.6636     
   2394000   286.36584      0.01485129     5.2730791      710.48155     -25.75663       684.72492    
   2395000   285.92185      0.01485129     12.446194      709.37998     -22.14128       687.2387     
   2396000   307.56377      0.01485129     14.641902      763.07419     -28.254735      734.81946    
   2397000   304.19535      0.01485129    -0.79809151     754.71704     -25.865585      728.85146    
   2398000   294.567        0.01485129    -1.2723462      730.82885     -26.706276      704.12257    
   2399000   295.93002      0.01485129     11.005668      734.21054     -29.671124      704.53942    
   2400000   309.06732      0.01485129     17.073052      766.80455     -24.662758      742.14179    
   2401000   304.49172      0.01485129     5.8355197      755.45236     -23.973543      731.47882    
   2402000   311.29464      0.01485129     2.036254       772.33059     -23.473628      748.85697    
   2403000   302.34249      0.01485129     4.0375463      750.12006     -24.417494      725.70256    
   2404000   292.18282      0.01485129     6.5230114      724.91362     -21.675933      703.23769    
   2405000   289.8419       0.01485129     10.45238       719.10573     -20.817402      698.28833    
   2406000   297.57983      0.01485129     11.078265      738.30377     -19.679255      718.62451    
   2407000   304.55456      0.01485129     4.5391886      755.60826     -22.781513      732.82674    
   2408000   297.71744      0.01485129     4.1556029      738.64519     -21.405537      717.23965    
   2409000   286.62018      0.01485129     6.3597782      711.11257     -20.316122      690.79645    
   2410000   289.53451      0.01485129     17.321688      718.34311     -21.483433      696.85968    
   2411000   299.99562      0.01485129     9.3712529      744.29741     -21.735723      722.56168    
   2412000   320.64395      0.01485129     1.6274981      795.52648     -21.865071      773.66141    
   2413000   286.03136      0.01485129     2.0317721      709.6517      -19.240162      690.41154    
   2414000   291.65363      0.01485129     10.935014      723.6007      -22.450106      701.15059    
   2415000   296.80042      0.01485129     10.984542      736.37002     -19.316427      717.05359    
   2416000   310.51768      0.01485129     7.7193382      770.40292     -23.870731      746.53219    
   2417000   278.69251      0.01485129    -5.9148774      691.4438      -22.804167      668.63964    
   2418000   296.51379      0.01485129     9.0953582      735.65888     -24.382782      711.27609    
   2419000   310.20644      0.01485129     9.8798358      769.63073     -28.576581      741.05415    
   2420000   308.85467      0.01485129     5.7500156      766.27695     -25.662862      740.61409    
   2421000   283.19836      0.01485129     6.4449878      702.62294     -21.20803       681.41491    
   2422000   299.41974      0.01485129     9.0108889      742.86864     -19.854577      723.01406    
   2423000   313.12416      0.01485129     9.1481746      776.86967     -18.381633      758.48804    
   2424000   292.56536      0.01485129     8.0320704      725.86273     -20.477789      705.38494    
   2425000   298.20564      0.01485129     4.2600165      739.85641     -23.269963      716.58645    
   2426000   316.18467      0.01485129     9.6991696      784.46289     -22.298311      762.16457    
   2427000   287.4858       0.01485129     7.5436901      713.2602      -23.05791       690.20229    
   2428000   297.27717      0.01485129     6.4097814      737.55284     -24.611503      712.94134    
   2429000   309.66135      0.01485129     7.3777855      768.27834     -24.521526      743.75681    
   2430000   309.21628      0.01485129     8.6972041      767.17411     -24.652901      742.52121    
   2431000   289.43113      0.01485129     7.3229101      718.08662     -29.612048      688.47457    
   2432000   308.37473      0.01485129     12.044773      765.0862      -25.738085      739.34811    
   2433000   304.28361      0.01485129     4.1486054      754.93603     -25.225891      729.71014    
   2434000   301.31552      0.01485129    -1.0597626      747.57212     -23.391164      724.18095    
   2435000   291.3823       0.01485129     2.0507191      722.92751     -21.106488      701.82103    
   2436000   295.46547      0.01485129     8.4413891      733.05798     -22.812278      710.2457     
   2437000   303.99301      0.01485129     10.838498      754.21503     -27.705306      726.50972    
   2438000   309.22499      0.01485129     9.5612587      767.19571     -26.710687      740.48503    
   2439000   293.48738      0.01485129     6.6696873      728.15029     -25.805308      702.34498    
   2440000   303.70543      0.01485129     7.7346564      753.50156     -24.073387      729.42817    
   2441000   304.34996      0.01485129     8.3466626      755.10064     -18.904686      736.19595    
   2442000   299.54823      0.01485129     8.9985652      743.18742     -22.045144      721.14228    
   2443000   293.94329      0.01485129     5.413437       729.28141     -20.704494      708.57691    
   2444000   302.41334      0.01485129     7.0448833      750.29583     -24.650788      725.64504    
   2445000   303.60023      0.01485129     10.341373      753.24055     -25.431794      727.80875    
   2446000   296.1372       0.01485129     10.379089      734.72457     -27.181753      707.54281    
   2447000   302.23058      0.01485129     7.2426392      749.84239     -27.220771      722.62162    
   2448000   305.37856      0.01485129     5.6217188      757.65264     -28.014369      729.63827    
   2449000   301.04334      0.01485129     9.583414       746.89682     -24.601842      722.29498    
   2450000   300.22181      0.01485129     9.9386112      744.85858     -24.223173      720.6354     
   2451000   290.71117      0.01485129     8.2432614      721.26243     -27.249504      694.01293    
   2452000   310.58225      0.01485129     11.014856      770.56312     -30.708198      739.85492    
   2453000   304.95358      0.01485129     9.484244       756.59823     -27.79031       728.80792    
   2454000   292.91092      0.01485129     3.1286369      726.72006     -28.51855       698.20151    
   2455000   298.46649      0.01485129     6.230098       740.50359     -32.123419      708.38017    
   2456000   299.56307      0.01485129     14.048463      743.22424     -31.081394      712.14285    
   2457000   306.31158      0.01485129     8.7371062      759.96747     -26.433373      733.5341     
   2458000   300.25635      0.01485129     3.4250276      744.94428     -27.170339      717.77394    
   2459000   302.0724       0.01485129     8.2454325      749.44995     -20.381288      729.06866    
   2460000   279.52394      0.01485129     9.5575561      693.5066      -26.476745      667.02985    
   2461000   299.58478      0.01485129     9.2716798      743.2781      -24.591068      718.68703    
   2462000   306.50817      0.01485129     4.4537326      760.45522     -28.141167      732.31406    
   2463000   289.34482      0.01485129     7.0715675      717.87248     -27.230681      690.6418     
   2464000   288.128        0.01485129     7.1605782      714.85351     -29.150504      685.70301    
   2465000   307.28975      0.01485129     10.959294      762.39434     -25.190915      737.20343    
   2466000   301.08881      0.01485129     7.7179533      747.00964     -22.719073      724.29056    
   2467000   301.0675       0.01485129     6.8798003      746.95676     -24.77973       722.17703    
   2468000   300.29371      0.01485129     7.5187187      745.03698     -25.964369      719.07261    
   2469000   283.4727       0.01485129     9.5769624      703.30357     -25.079468      678.2241     
   2470000   294.60911      0.01485129     9.0412433      730.93333     -27.325523      703.60781    
   2471000   312.14911      0.01485129     7.5853481      774.45053     -29.302763      745.14777    
   2472000   302.52392      0.01485129     7.586707       750.57019     -27.467189      723.103      
   2473000   291.95288      0.01485129     7.1803876      724.34314     -28.718177      695.62496    
   2474000   296.92272      0.01485129     9.6517315      736.67346     -26.911411      709.76205    
   2475000   308.37555      0.01485129     8.4074277      765.08824     -26.072789      739.01546    
   2476000   295.30498      0.01485129     7.1936153      732.6598      -30.084105      702.57569    
   2477000   301.94512      0.01485129     8.1244102      749.13418     -26.874752      722.25942    
   2478000   309.87176      0.01485129     7.2297062      768.80039     -27.549788      741.2506     
   2479000   291.76476      0.01485129     8.882809       723.8764      -28.096852      695.77955    
   2480000   302.87611      0.01485129     7.9152101      751.44399     -28.20127       723.24272    
   2481000   307.53922      0.01485129     6.9601452      763.01329     -28.919036      734.09425    
   2482000   301.78888      0.01485129     8.3035839      748.74654     -24.288588      724.45795    
   2483000   286.6514       0.01485129     7.0829794      711.19003     -29.88382       681.3062     
   2484000   300.83444      0.01485129     8.6921184      746.37853     -28.348861      718.02967    
   2485000   300.03328      0.01485129     8.8275851      744.39083     -26.177866      718.21296    
   2486000   303.88471      0.01485129     6.750449       753.94633     -31.345119      722.60121    
   2487000   288.13359      0.01485129     2.6352623      714.86737     -25.625091      689.24228    
   2488000   294.36422      0.01485129     7.285338       730.32573     -20.566326      709.75941    
   2489000   300.95828      0.01485129     10.131431      746.68579     -22.048297      724.63749    
   2490000   303.50312      0.01485129     9.8165665      752.9996      -24.048379      728.95122    
   2491000   302.47918      0.01485129     8.3683134      750.45919     -22.903258      727.55593    
   2492000   297.67042      0.01485129     6.2231079      738.52851     -20.637908      717.89061    
   2493000   305.43293      0.01485129     10.369504      757.78752     -18.223631      739.56389    
   2494000   307.01375      0.01485129     8.3031098      761.70958     -21.811873      739.89771    
   2495000   298.995        0.01485129     6.6743956      741.81483     -26.93306       714.88177    
   2496000   298.89824      0.01485129     4.8465522      741.57478     -20.714827      720.85995    
   2497000   303.66165      0.01485129     12.178735      753.39292     -23.973677      729.41925    
   2498000   300.13886      0.01485129     7.4451078      744.65279     -22.380604      722.27219    
   2499000   293.40357      0.01485129    -0.82967756     727.94235     -22.759554      705.1828     
   2500000   298.05166      0.01485129     5.297251       739.47439     -25.819931      713.65446    
   2501000   292.11016      0.01485129     9.3967464      724.73337     -24.224477      700.50889    
   2502000   306.80889      0.01485129     8.6750588      761.20131     -25.305954      735.89536    
   2503000   298.48544      0.01485129     7.3174075      740.55059     -23.170698      717.3799     
   2504000   307.98343      0.01485129     9.0339374      764.11538     -25.19185       738.92353    
   2505000   304.06209      0.01485129     8.0812893      754.38642     -26.295907      728.09051    
   2506000   290.0171       0.01485129     13.936464      719.54042     -26.401131      693.13928    
   2507000   284.54081      0.01485129     9.3820237      705.9536      -24.228491      681.72511    
   2508000   296.74919      0.01485129     2.3519817      736.24292     -26.014788      710.22813    
   2509000   310.23876      0.01485129     11.182299      769.7109      -23.226854      746.48405    
   2510000   286.45179      0.01485129     10.313491      710.6948      -21.102619      689.59218    
   2511000   299.57412      0.01485129     2.9005802      743.25165     -24.079169      719.17248    
   2512000   310.382        0.01485129     11.74735       770.06629     -24.817753      745.24854    
   2513000   297.41351      0.01485129     12.928992      737.89112     -23.560402      714.33071    
   2514000   282.015        0.01485129     20.936335      699.68699     -28.724734      670.96226    
   2515000   293.76162      0.01485129     6.0962637      728.83067     -28.877915      699.95275    
   2516000   317.24548      0.01485129     9.4814121      787.09479     -24.585542      762.50925    
   2517000   306.14699      0.01485129     21.400673      759.55911     -26.150696      733.40842    
   2518000   288.05155      0.01485129     9.5369955      714.66384     -26.775387      687.88845    
   2519000   301.57933      0.01485129     3.9007033      748.22662     -22.816337      725.41028    
   2520000   311.83156      0.01485129     0.38332469     773.66271     -17.818379      755.84433    
   2521000   298.86188      0.01485129     14.358595      741.48455     -20.026002      721.45855    
   2522000   291.63013      0.01485129     8.1313029      723.54238     -20.002096      703.54029    
   2523000   317.55036      0.01485129     2.704172       787.85119     -26.614359      761.23683    
   2524000   301.87398      0.01485129     11.646604      748.95766     -24.295928      724.66173    
   2525000   288.89405      0.01485129     9.3449769      716.7541      -29.642104      687.112      
   2526000   298.02056      0.01485129    -2.1923838      739.39723     -27.728176      711.66905    
   2527000   309.2722       0.01485129     2.9151794      767.31286     -26.625563      740.68729    
   2528000   307.45948      0.01485129     7.6452806      762.81543     -29.195731      733.6197     
   2529000   295.90609      0.01485129     19.901874      734.15116     -27.008349      707.14281    
   2530000   298.30425      0.01485129     7.1370136      740.10106     -29.088343      711.01272    
   2531000   314.16371      0.01485129     3.2251861      779.44883     -31.095017      748.35381    
   2532000   300.44456      0.01485129     5.891487       745.41122     -29.713215      715.69801    
   2533000   307.95414      0.01485129     14.952331      764.0427      -27.083149      736.95955    
   2534000   295.56721      0.01485129     9.5724637      733.31039     -29.490736      703.81966    
   2535000   298.03005      0.01485129     5.4696288      739.42078     -26.333026      713.08775    
   2536000   298.98207      0.01485129     6.7082242      741.78277     -24.132393      717.65037    
   2537000   299.43802      0.01485129     7.6844537      742.91398     -22.683167      720.23081    
   2538000   316.29968      0.01485129     9.0184791      784.74824     -21.697629      763.05061    
   2539000   301.02612      0.01485129     7.6955347      746.85411     -18.926911      727.9272     
   2540000   290.92538      0.01485129     7.6655612      721.7939      -21.775933      700.01796    
   2541000   307.86065      0.01485129     8.7160805      763.81076     -22.23675       741.57401    
   2542000   303.84693      0.01485129     7.6662364      753.85261     -24.003391      729.84922    
   2543000   279.99091      0.01485129     7.2918103      694.66516     -26.217358      668.4478     
   2544000   308.75526      0.01485129     8.6490786      766.03031     -22.825133      743.20517    
   2545000   312.14166      0.01485129     8.1659664      774.43206     -20.660962      753.77109    
   2546000   298.88795      0.01485129     6.3389504      741.54925     -25.431092      716.11816    
   2547000   287.15387      0.01485129     6.7348797      712.43668     -21.605999      690.83068    
   2548000   300.52319      0.01485129     8.2993556      745.60631     -22.80861       722.7977     
   2549000   284.99391      0.01485129     7.355984       707.07775     -24.157727      682.92003    
   2550000   308.03313      0.01485129     9.2808237      764.23868     -23.310769      740.92791    
   2551000   311.46858      0.01485129     5.6842401      772.76213     -24.475609      748.28652    
   2552000   293.53532      0.01485129     4.901985       728.26921     -25.943141      702.32607    
   2553000   286.05138      0.01485129     11.544265      709.70137     -26.439966      683.2614     
   2554000   292.22806      0.01485129     10.088058      725.02587     -26.036036      698.98983    
   2555000   304.95226      0.01485129     12.120467      756.59496     -24.524639      732.07032    
   2556000   308.57498      0.01485129     7.9552287      765.58304     -24.046801      741.53624    
   2557000   298.58523      0.01485129     2.661846       740.7982      -22.581019      718.21718    
   2558000   301.6384       0.01485129     9.1602355      748.37318     -20.548902      727.82428    
   2559000   312.7126       0.01485129     10.4714        775.84858     -21.095796      754.75278    
   2560000   297.2555       0.01485129     5.5188313      737.4991      -25.949958      711.54914    
   2561000   296.46087      0.01485129     7.2834621      735.5276      -21.292186      714.23541    
   2562000   304.29053      0.01485129     8.8552469      754.9532      -22.156965      732.79624    
   2563000   306.72917      0.01485129     8.3975101      761.00352     -20.502468      740.50105    
   2564000   298.44713      0.01485129     6.3455996      740.45556     -24.459143      715.99642    
   2565000   303.26693      0.01485129     8.4649143      752.4136      -22.389241      730.02436    
   2566000   303.98916      0.01485129     8.6597346      754.20548     -18.932105      735.27338    
   2567000   304.69667      0.01485129     8.7582895      755.96084     -24.625426      731.33542    
   2568000   296.96876      0.01485129     7.7810558      736.78769     -20.8389        715.94879    
   2569000   284.85566      0.01485129     6.2529019      706.73474     -20.400386      686.33436    
   2570000   298.23301      0.01485129     7.7976013      739.92431     -19.975553      719.94876    
   2571000   302.00351      0.01485129     7.8951979      749.27903     -23.558108      725.72092    
   2572000   304.66127      0.01485129     8.1080865      755.87301     -23.310879      732.56213    
   2573000   296.92324      0.01485129     7.840396       736.67474     -23.694171      712.98057    
   2574000   297.96744      0.01485129     7.9652484      739.26543     -23.142279      716.12315    
   2575000   299.07488      0.01485129     8.288142       742.01302     -18.348548      723.66447    
   2576000   325.08975      0.01485129     7.4030189      806.55662     -23.275857      783.28077    
   2577000   288.67923      0.01485129     6.8565031      716.22114     -19.505049      696.71609    
   2578000   290.13314      0.01485129     7.8423657      719.82832     -19.97973       699.84859    
   2579000   303.46513      0.01485129     8.5160874      752.90536     -25.200849      727.70451    
   2580000   322.5602       0.01485129     8.7706675      800.28074     -19.825679      780.45506    
   2581000   298.10656      0.01485129     8.4384581      739.61058     -23.259353      716.35123    
   2582000   273.32943      0.01485129     7.6979356      678.13785     -22.499754      655.63809    
   2583000   298.21065      0.01485129     6.8154374      739.86885     -19.108292      720.76056    
   2584000   312.23321      0.01485129     7.705366       774.65919     -16.859313      757.79988    
   2585000   299.10139      0.01485129     8.1429502      742.07878     -20.857452      721.22133    
   2586000   298.42629      0.01485129     7.9607924      740.40385     -18.467442      721.93641    
   2587000   293.55988      0.01485129     7.6221806      728.33015     -19.38487       708.94528    
   2588000   310.20052      0.01485129     8.626275       769.61604     -21.670571      747.94547    
   2589000   300.7794       0.01485129     7.7780619      746.24199     -24.17772       722.06427    
   2590000   291.72025      0.01485129     7.2619057      723.76597     -22.828787      700.93718    
   2591000   298.80369      0.01485129     8.9021026      741.3402      -17.631764      723.70844    
   2592000   298.23911      0.01485129     7.2090996      739.93945     -22.018529      717.92092    
   2593000   301.43419      0.01485129     7.7662894      747.86654     -19.057107      728.80943    
   2594000   295.01462      0.01485129     7.2459731      731.93941     -19.571469      712.36794    
   2595000   280.84152      0.01485129     8.9256287      696.77554     -18.95418       677.82136    
   2596000   306.6108       0.01485129     6.1242878      760.70985     -22.393057      738.31679    
   2597000   319.54563      0.01485129     9.0875545      792.80151     -23.755318      769.0462     
   2598000   287.09001      0.01485129     7.6979869      712.27823     -25.72774       686.55049    
   2599000   286.1672       0.01485129     7.4215998      709.98871     -21.939861      688.04885    
   2600000   296.60068      0.01485129     7.8283019      735.87446     -21.38121       714.49325    
   2601000   299.09989      0.01485129     8.4053942      742.07506     -21.149065      720.926      
   2602000   293.80564      0.01485129     7.1345379      728.93989     -25.163405      703.77649    
   2603000   305.2744       0.01485129     7.5055158      757.39419     -21.623663      735.77053    
   2604000   289.29892      0.01485129     14.627332      717.75859     -23.577944      694.18064    
   2605000   292.69348      0.01485129     7.5510926      726.18058     -23.297387      702.88319    
   2606000   312.78385      0.01485129     6.5406575      776.02535     -27.007472      749.01788    
   2607000   296.41833      0.01485129     8.6317674      735.42204     -24.483532      710.93851    
   2608000   296.44283      0.01485129     9.5049372      735.48282     -25.254253      710.22857    
   2609000   293.36058      0.01485129     7.785475       727.83568     -26.374584      701.4611     
   2610000   308.60833      0.01485129     2.0190663      765.66576     -27.390229      738.27554    
   2611000   308.50258      0.01485129     12.465619      765.40342     -27.341171      738.06225    
   2612000   284.17907      0.01485129     13.537583      705.05611     -23.22449       681.83162    
   2613000   291.22314      0.01485129     10.724285      722.53264     -26.179401      696.35324    
   2614000   308.00664      0.01485129     4.1199288      764.17296     -25.852535      738.32042    
   2615000   323.41046      0.01485129     8.2159824      802.39028     -24.087932      778.30234    
   2616000   293.8775       0.01485129     8.9955722      729.11819     -28.431692      700.68649    
   2617000   293.21325      0.01485129     7.2054478      727.47016     -33.254878      694.21528    
   2618000   301.17224      0.01485129     6.199683       747.21663     -30.237495      716.97914    
   2619000   330.22416      0.01485129     10.331841      819.29525     -25.064291      794.23096    
   2620000   286.40155      0.01485129     13.775728      710.57013     -23.761331      686.8088     
   2621000   294.4102       0.01485129     6.9632165      730.43983     -22.952596      707.48724    
   2622000   313.06995      0.01485129     8.0605562      776.73519     -28.596194      748.13899    
   2623000   310.38047      0.01485129     8.5750712      770.06251     -25.873467      744.18904    
   2624000   293.71584      0.01485129     8.2509892      728.7171      -27.158218      701.55888    
   2625000   294.22143      0.01485129     7.6146924      729.97147     -24.000752      705.97072    
   2626000   305.80816      0.01485129     8.3847567      758.71848     -25.2177        733.50078    
   2627000   298.98378      0.01485129     7.9824352      741.787       -26.000287      715.78671    
   2628000   293.64272      0.01485129     7.3463467      728.53568     -29.838305      698.69738    
   2629000   295.18864      0.01485129     8.2123495      732.37115     -26.788873      705.58227    
   2630000   312.12376      0.01485129     8.3332666      774.38765     -28.285645      746.10201    
   2631000   305.8121       0.01485129     7.6296293      758.72824     -24.852989      733.87525    
   2632000   290.61092      0.01485129     7.79261        721.01371     -25.505292      695.50842    
   2633000   302.54167      0.01485129     10.753908      750.61421     -23.216099      727.39811    
   2634000   319.12631      0.01485129     8.2037202      791.76118     -25.832651      765.92853    
   2635000   315.61018      0.01485129     7.3528332      783.03757     -21.706466      761.3311     
   2636000   301.47363      0.01485129     5.8592732      747.96438     -23.270001      724.69438    
   2637000   289.35723      0.01485129     8.565649       717.90327     -24.890778      693.01249    
   2638000   295.26514      0.01485129     10.590391      732.56094     -21.156083      711.40486    
   2639000   320.19412      0.01485129     10.348812      794.41043     -22.250013      772.16042    
   2640000   299.66498      0.01485129     4.7213422      743.47707     -24.900783      718.57629    
   2641000   295.30679      0.01485129     9.9235197      732.6643      -21.629223      711.03507    
   2642000   302.19642      0.01485129     7.3790621      749.75764     -21.049677      728.70796    
   2643000   295.25516      0.01485129     3.4841318      732.5362      -23.684431      708.85177    
   2644000   301.27251      0.01485129     17.54236       747.46541     -21.267935      726.19748    
   2645000   305.00283      0.01485129     15.445693      756.72043     -22.263295      734.45714    
   2646000   307.84222      0.01485129     6.884731       763.76504     -24.120597      739.64445    
   2647000   300.60128      0.01485129     6.3981861      745.80007     -23.121468      722.6786     
   2648000   304.48512      0.01485129     9.4363788      755.43597     -23.633767      731.8022     
   2649000   307.64976      0.01485129     7.3996799      763.28753     -25.356914      737.93062    
   2650000   293.19731      0.01485129     2.8580362      727.43061     -24.049025      703.38158    
   2651000   283.33285      0.01485129     10.828887      702.95661     -22.818553      680.13806    
   2652000   321.6912       0.01485129     11.74713       798.12474     -17.939862      780.18488    
   2653000   303.40596      0.01485129     1.3321769      752.75855     -23.274212      729.48433    
   2654000   293.74343      0.01485129     5.3832607      728.78554     -22.376873      706.40867    
   2655000   294.92625      0.01485129     14.644492      731.72017     -24.823063      706.8971     
   2656000   303.12186      0.01485129     7.8029268      752.0537      -27.028312      725.02539    
   2657000   301.21982      0.01485129     6.2896539      747.33467     -23.542038      723.79263    
   2658000   294.40786      0.01485129     5.2559992      730.43403     -21.349954      709.08407    
   2659000   295.84697      0.01485129     10.094975      734.00449     -23.647659      710.35683    
   2660000   293.07127      0.01485129     7.5365802      727.1179      -24.155513      702.96239    
   2661000   289.65456      0.01485129     4.9265612      718.64095     -23.417046      695.2239     
   2662000   305.51708      0.01485129     8.4250719      757.9963      -26.815053      731.18125    
   2663000   307.677        0.01485129     6.7954316      763.35511     -26.074934      737.28017    
   2664000   289.37422      0.01485129     6.5961669      717.94542     -28.760489      689.18493    
   2665000   303.19232      0.01485129     7.2606857      752.22851     -30.606973      721.62154    
   2666000   302.96381      0.01485129     5.6228639      751.66156     -28.489419      723.17214    
   2667000   292.53282      0.01485129     8.6923477      725.78199     -27.778324      698.00366    
   2668000   309.19448      0.01485129     8.6883029      767.12004     -20.509729      746.61031    
   2669000   306.81674      0.01485129     4.2203384      761.22078     -22.078848      739.14193    
   2670000   288.16981      0.01485129     8.3167758      714.95725     -25.330775      689.62647    
   2671000   293.13027      0.01485129     10.835436      727.26427     -24.954574      702.3097     
   2672000   307.42336      0.01485129     6.9751556      762.72584     -22.043076      740.68276    
   2673000   284.87042      0.01485129     7.5977173      706.77136     -19.772848      686.99851    
   2674000   293.26437      0.01485129     7.7224814      727.59699     -22.161539      705.43545    
   2675000   300.40418      0.01485129     8.0996203      745.31104     -22.390996      722.92005    
   2676000   310.72863      0.01485129     8.4343775      770.9263      -20.782775      750.14352    
   2677000   299.49628      0.01485129     7.6904716      743.05853     -21.395077      721.66345    
   2678000   278.50707      0.01485129     7.6617161      690.98372     -19.690071      671.29365    
   2679000   308.81435      0.01485129     7.5664278      766.17692     -21.319005      744.85791    
   2680000   307.48857      0.01485129     9.823019       762.88762     -23.50564       739.38198    
   2681000   284.37103      0.01485129     7.8975272      705.53236     -22.055134      683.47723    
   2682000   297.29458      0.01485129     7.474823       737.59604     -18.565964      719.03007    
   2683000   305.22509      0.01485129     7.4898734      757.27185     -18.963002      738.30885    
   2684000   301.28044      0.01485129     9.3737339      747.48507     -18.106804      729.37827    
   2685000   300.9064       0.01485129     5.6596373      746.55708     -18.387002      728.17008    
   2686000   303.53508      0.01485129     8.3421989      753.0789      -18.252078      734.82682    
   2687000   303.6787       0.01485129     7.7265358      753.43522     -21.236486      732.19873    
   2688000   310.99246      0.01485129     9.7363546      771.58086     -19.381063      752.1998     
   2689000   284.64326      0.01485129     9.1019303      706.20777     -23.470135      682.73763    
   2690000   290.86179      0.01485129     7.3588414      721.63612     -19.827385      701.80874    
   2691000   309.52655      0.01485129     8.4009551      767.9439      -22.038062      745.90584    
   2692000   300.91257      0.01485129     7.2686044      746.57238     -15.973816      730.59857    
   2693000   299.974        0.01485129     7.6419983      744.24377     -20.541228      723.70255    
   2694000   303.46064      0.01485129     8.7753569      752.89421     -23.838839      729.05537    
   2695000   302.89654      0.01485129     9.1909431      751.49466     -17.814521      733.68014    
   2696000   296.79088      0.01485129     9.9375665      736.34636     -20.299591      716.04677    
   2697000   295.71309      0.01485129     6.4371043      733.67233     -24.136756      709.53557    
   2698000   294.9228       0.01485129     8.0540449      731.71159     -18.804861      712.90673    
   2699000   303.6623       0.01485129     8.680502       753.39454     -19.040119      734.35442    
   2700000   305.88743      0.01485129     12.669967      758.91515     -18.319451      740.5957     
   2701000   304.78573      0.01485129     7.1636203      756.18181     -18.550914      737.63089    
   2702000   295.47679      0.01485129     5.8889221      733.08606     -21.205842      711.88022    
   2703000   305.25751      0.01485129     8.1349495      757.35229     -19.204895      738.14739    
   2704000   311.33887      0.01485129     8.8561041      772.44033     -23.435166      749.00516    
   2705000   290.21199      0.01485129     8.001181       720.02394     -19.184801      700.83914    
   2706000   303.52496      0.01485129     8.1708039      753.05379     -23.520145      729.53364    
   2707000   295.81622      0.01485129     7.3891712      733.92821     -21.11444       712.81377    
   2708000   294.84637      0.01485129     7.7528134      731.52198     -18.777403      712.74457    
   2709000   297.92678      0.01485129     9.1165416      739.16456     -20.721722      718.44284    
   2710000   307.07613      0.01485129     9.0932013      761.86434     -21.452178      740.41216    
   2711000   299.52629      0.01485129     7.7001393      743.13299     -22.033483      721.0995     
   2712000   293.6054       0.01485129     7.2063157      728.4431      -19.679578      708.76352    
   2713000   299.1067       0.01485129     8.3996571      742.09197     -17.407247      724.68472    
   2714000   297.35022      0.01485129     9.1695192      737.7341      -21.997785      715.73631    
   2715000   308.54933      0.01485129     13.991141      765.51939     -22.338008      743.18138    
   2716000   300.50967      0.01485129     6.6403994      745.57278     -19.505514      726.06727    
   2717000   298.89949      0.01485129     22.508151      741.57788     -19.798066      721.77981    
   2718000   313.16043      0.01485129     6.6382409      776.95967     -13.96075       762.99892    
   2719000   294.27535      0.01485129     7.5921121      730.10525     -18.873541      711.23171    
   2720000   294.01554      0.01485129     7.3349602      729.46066     -20.315217      709.14545    
   2721000   314.9775       0.01485129     14.589176      781.46786     -20.035093      761.43277    
   2722000   311.19839      0.01485129     11.002841      772.09179     -22.092589      749.9992     
   2723000   300.43015      0.01485129     2.666057       745.37548     -24.284357      721.09112    
   2724000   291.07886      0.01485129     10.550254      722.17466     -26.190283      695.98438    
   2725000   297.32737      0.01485129     12.028989      737.67739     -20.642282      717.03511    
   2726000   304.62116      0.01485129     2.485501       755.77348     -21.275402      734.49808    
   2727000   304.56157      0.01485129    -0.81765774     755.62565     -23.314541      732.31111    
   2728000   292.19222      0.01485129     8.6765218      724.93695     -26.868412      698.06854    
   2729000   301.48785      0.01485129     11.89471       747.99967     -24.959848      723.03982    
   2730000   309.70438      0.01485129     5.2201095      768.38511     -27.048271      741.33684    
   2731000   279.63354      0.01485129     10.251435      693.77852     -27.260644      666.51787    
   2732000   297.60033      0.01485129     8.9743311      738.35461     -25.017154      713.33746    
   2733000   308.17315      0.01485129     6.1299901      764.58608     -25.929797      738.65628    
   2734000   301.58139      0.01485129     6.1346583      748.23174     -28.058308      720.17343    
   2735000   293.95407      0.01485129     14.95216       729.30816     -24.972003      704.33615    
   2736000   303.45793      0.01485129     14.981411      752.88749     -23.063661      729.82383    
   2737000   324.28454      0.01485129     9.8116018      804.55889     -22.516149      782.04274    
   2738000   312.15598      0.01485129     7.7421037      774.46759     -20.982037      753.48556    
   2739000   292.42785      0.01485129     4.9020229      725.52155     -20.887716      704.63383    
   2740000   298.87874      0.01485129     7.6586231      741.5264      -23.656895      717.8695     
   2741000   300.0521       0.01485129     13.264766      744.43753     -24.778949      719.65858    
   2742000   297.06218      0.01485129     7.0518216      737.01945     -27.381576      709.63788    
   2743000   294.66945      0.01485129     7.0804898      731.08302     -26.118708      704.96431    
   2744000   309.78252      0.01485129     22.122184      768.57896     -26.686676      741.89229    
   2745000   298.49116      0.01485129     3.4258431      740.5648      -24.904981      715.65982    
   2746000   284.79514      0.01485129     6.2445919      706.5846      -28.398653      678.18595    
   2747000   300.95503      0.01485129     11.703878      746.67774     -24.178413      722.49932    
   2748000   317.4702       0.01485129     9.2011571      787.65233     -25.459781      762.19254    
   2749000   300.02628      0.01485129     8.7926021      744.37346     -23.613475      720.75999    
   2750000   283.96518      0.01485129     8.7983648      704.52545     -24.209279      680.31617    
   2751000   299.37358      0.01485129     7.9729005      742.7541      -24.168239      718.58586    
   2752000   304.87965      0.01485129     8.6177032      756.41482     -30.619864      725.79495    
   2753000   299.52752      0.01485129     7.6266719      743.13602     -24.694953      718.44107    
   2754000   290.89926      0.01485129     6.6965262      721.72909     -29.250689      692.4784     
   2755000   283.26146      0.01485129     9.5650169      702.77949     -28.214612      674.56488    
   2756000   313.50201      0.01485129     10.460926      777.80714     -32.8238        744.98334    
   2757000   311.47332      0.01485129     6.3261417      772.77389     -25.060184      747.7137     
   2758000   292.38797      0.01485129     5.3200415      725.42262     -27.361186      698.06143    
   2759000   304.60732      0.01485129     8.6041715      755.73915     -29.243559      726.49559    
   2760000   317.25436      0.01485129     10.496514      787.1168      -26.004227      761.11257    
   2761000   301.52932      0.01485129     6.5935789      748.10256     -27.487118      720.61545    
   2762000   293.48926      0.01485129     9.136928       728.15496     -25.703405      702.45155    
   2763000   300.96012      0.01485129     9.1388853      746.69036     -23.824665      722.86569    
   2764000   298.24947      0.01485129     2.2871866      739.96517     -22.574999      717.39017    
   2765000   299.66431      0.01485129     8.6506691      743.47542     -24.056065      719.41935    
   2766000   308.91297      0.01485129     9.4595825      766.4216      -26.365127      740.05647    
   2767000   290.42777      0.01485129     7.7836812      720.5593      -26.002917      694.55639    
   2768000   284.99087      0.01485129     5.7359574      707.07021     -25.805776      681.26443    
   2769000   304.75344      0.01485129     4.0062864      756.10167     -24.898007      731.20367    
   2770000   305.19139      0.01485129     8.9789353      757.18825     -24.834471      732.35378    
   2771000   300.66746      0.01485129     8.8608105      745.96427     -25.265792      720.69848    
   2772000   291.52795      0.01485129     8.5923729      723.28889     -27.063293      696.22559    
   2773000   292.9598       0.01485129     6.5129715      726.84133     -23.90403       702.9373     
   2774000   306.08667      0.01485129     6.8297386      759.40946     -25.649827      733.75963    
   2775000   299.25935      0.01485129     10.063298      742.4707      -25.476561      716.99414    
   2776000   288.00941      0.01485129     7.5679996      714.5593      -27.100142      687.45915    
   2777000   307.4989       0.01485129     6.9594334      762.91326     -28.057875      734.85538    
   2778000   314.25076      0.01485129     14.6678        779.66481     -26.677097      752.98771    
   2779000   299.41599      0.01485129     15.649714      742.85933     -33.635292      709.22403    
   2780000   292.11719      0.01485129     8.3636243      724.75081     -26.778508      697.9723     
   2781000   300.98853      0.01485129    -6.7203921      746.76084     -27.737523      719.02331    
   2782000   322.83349      0.01485129     4.6476279      800.95878     -23.407848      777.55093    
   2783000   306.63936      0.01485129     9.7395703      760.78072     -26.722742      734.05797    
   2784000   288.64942      0.01485129     14.394611      716.14716     -25.174537      690.97263    
   2785000   302.22553      0.01485129     4.25889        749.82987     -26.156454      723.67342    
   2786000   294.73376      0.01485129     7.6932585      731.24258     -26.824618      704.41796    
   2787000   299.92156      0.01485129     7.2553403      744.11366     -23.257044      720.85662    
   2788000   309.0657       0.01485129     6.1858766      766.80053     -26.814968      739.98556    
   2789000   314.27433      0.01485129     14.695993      779.72328     -19.363201      760.36008    
   2790000   291.9258       0.01485129     10.718014      724.27597     -24.742754      699.53321    
   2791000   287.03315      0.01485129     9.0577706      712.13716     -25.401528      686.73563    
   2792000   305.09208      0.01485129     3.7736755      756.94186     -25.663775      731.27808    
   2793000   306.42785      0.01485129     17.860492      760.25595     -24.285009      735.97094    
   2794000   295.81843      0.01485129     6.6413502      733.93368     -27.984676      705.94901    
   2795000   301.38886      0.01485129     3.4547652      747.75408     -23.829557      723.92452    
   2796000   300.44019      0.01485129     7.7690814      745.4004      -29.144085      716.25631    
   2797000   296.05343      0.01485129     11.726788      734.51671     -32.03849       702.47822    
   2798000   308.22762      0.01485129     8.5335337      764.72122     -29.965374      734.75585    
   2799000   303.25724      0.01485129     5.1706391      752.38958     -28.971325      723.41826    
   2800000   305.0393       0.01485129     7.5952754      756.81092     -28.717909      728.09301    
   2801000   288.32786      0.01485129     17.77341       715.34937     -25.891444      689.45793    
   2802000   307.38125      0.01485129     1.4152541      762.62136     -28.323999      734.29736    
   2803000   311.30281      0.01485129     2.731101       772.35086     -25.651861      746.699      
   2804000   296.55023      0.01485129     15.694776      735.74929     -34.516117      701.23318    
   2805000   307.1881       0.01485129     10.985764      762.14215     -27.115231      735.02692    
   2806000   296.03978      0.01485129     4.8744491      734.48286     -29.184217      705.29865    
   2807000   299.09072      0.01485129     3.2161644      742.05231     -26.254462      715.79785    
   2808000   302.65929      0.01485129     8.4587527      750.90605     -25.621003      725.28505    
   2809000   306.50845      0.01485129     9.6482975      760.45592     -24.547464      735.90845    
   2810000   306.60019      0.01485129     7.9829282      760.68351     -23.047274      737.63624    
   2811000   299.9239       0.01485129     4.5624446      744.11947     -25.719834      718.39963    
   2812000   297.79347      0.01485129     6.3057138      738.83381     -26.482179      712.35163    
   2813000   317.44678      0.01485129     7.4201005      787.59422     -28.310984      759.28324    
   2814000   311.32993      0.01485129     10.547336      772.41814     -25.959234      746.4589     
   2815000   298.22826      0.01485129     12.896026      739.91253     -29.167939      710.74459    
   2816000   297.80992      0.01485129     6.3838879      738.87462     -29.639123      709.2355     
   2817000   303.79745      0.01485129     7.3871982      753.72986     -31.662392      722.06747    
   2818000   309.38058      0.01485129     10.078442      767.58174     -33.010009      734.57173    
   2819000   281.81449      0.01485129     9.3195781      699.18952     -26.106055      673.08346    
   2820000   295.63208      0.01485129     8.56274        733.47135     -26.981816      706.48954    
   2821000   299.43006      0.01485129     7.9749268      742.89423     -23.551352      719.34288    
   2822000   301.76249      0.01485129     8.0417846      748.68105     -26.745041      721.93601    
   2823000   295.48797      0.01485129     7.9351802      733.1138      -25.529064      707.58474    
   2824000   286.89906      0.01485129     8.2853954      711.80448     -26.194811      685.60966    
   2825000   301.75195      0.01485129     7.9948658      748.65492     -24.214951      724.43996    
   2826000   316.83954      0.01485129     7.2277674      786.08763     -22.685817      763.40181    
   2827000   291.73465      0.01485129     6.6001747      723.80171     -22.000123      701.80158    
   2828000   295.51676      0.01485129     6.6385943      733.18523     -21.630915      711.55432    
   2829000   295.00317      0.01485129     10.168563      731.91099     -24.512041      707.39895    
   2830000   296.63415      0.01485129     10.100297      735.9575      -20.593972      715.36352    
   2831000   303.42352      0.01485129     5.5745726      752.80211     -24.327758      728.47436    
   2832000   305.11275      0.01485129     6.358159       756.99314     -19.156155      737.83698    
   2833000   293.67859      0.01485129     4.5923489      728.62467     -23.544012      705.08065    
   2834000   305.69256      0.01485129     11.987938      758.43166     -23.35735       735.07431    
   2835000   293.89813      0.01485129     3.8469224      729.16936     -21.730757      707.4386     
   2836000   302.63498      0.01485129     7.2963828      750.84572     -22.6506        728.19512    
   2837000   300.74289      0.01485129     8.1975616      746.1514      -20.880581      725.27082    
   2838000   296.73111      0.01485129     8.8595797      736.19807     -18.68961       717.50846    
   2839000   307.16468      0.01485129     7.732621       762.08403     -18.647803      743.43623    
   2840000   290.18666      0.01485129     7.5944455      719.9611      -18.014807      701.94629    
   2841000   296.98283      0.01485129     6.940187       736.82258     -22.238634      714.58394    
   2842000   308.67694      0.01485129     10.886979      765.836       -24.999938      740.83606    
   2843000   295.77308      0.01485129     9.0835953      733.82118     -20.599732      713.22144    
   2844000   306.93961      0.01485129     8.2400413      761.52564     -22.720911      738.80472    
   2845000   304.05882      0.01485129     8.1280368      754.37832     -22.717851      731.66047    
   2846000   289.2056       0.01485129     6.8232885      717.52706     -22.55264       694.97442    
   2847000   299.77962      0.01485129     7.2849874      743.76149     -23.670835      720.09066    
   2848000   312.00313      0.01485129     8.9230909      774.08836     -21.971161      752.1172     
   2849000   295.70781      0.01485129     7.728061       733.65922     -21.500995      712.15822    
   2850000   279.90485      0.01485129     8.3501249      694.45165     -17.748658      676.70299    
   2851000   296.66466      0.01485129     9.0167544      736.0332      -22.104359      713.92884    
   2852000   294.76351      0.01485129     9.2726705      731.31639     -17.798569      713.51782    
   2853000   299.18599      0.01485129     7.7131139      742.28868     -17.821302      724.46738    
   2854000   305.93092      0.01485129     7.9161234      759.02304     -19.704158      739.31888    
   2855000   308.44272      0.01485129     8.8582415      765.2549      -19.4337        745.8212     
   2856000   292.56509      0.01485129     7.3865002      725.86204     -26.348702      699.51334    
   2857000   297.1954       0.01485129     10.016002      737.34999     -26.173388      711.1766     
   2858000   312.0569       0.01485129     8.0477109      774.22177     -24.816781      749.40499    
   2859000   298.13739      0.01485129     6.5153928      739.68708     -22.158379      717.52871    
   2860000   293.31672      0.01485129     9.2692575      727.72687     -20.24536       707.48151    
   2861000   315.43098      0.01485129     9.2309271      782.59295     -23.767307      758.82564    
   2862000   320.59626      0.01485129     7.1094399      795.40815     -23.947942      771.46021    
   2863000   292.76094      0.01485129     7.4420708      726.34797     -26.720011      699.62796    
   2864000   295.8269       0.01485129     8.1721774      733.9547      -24.064594      709.8901     
   2865000   302.62133      0.01485129     8.4476258      750.81187     -27.59829       723.21358    
   2866000   308.48555      0.01485129     7.8980875      765.36116     -26.283563      739.07759    
   2867000   292.1914       0.01485129     7.593611       724.93493     -28.10304       696.83189    
   2868000   266.05788      0.01485129     6.9643347      660.09693     -33.539848      626.55708    
   2869000   291.03839      0.01485129     8.7292419      722.07427     -23.512213      698.56205    
   2870000   319.04242      0.01485129     8.4532762      791.55305     -25.048874      766.50418    
   2871000   314.67715      0.01485129     9.9831846      780.72269     -26.308317      754.41438    
   2872000   300.21432      0.01485129     7.0755887      744.84        -25.3208        719.5192     
   2873000   305.95377      0.01485129     8.0735999      759.07974     -27.500735      731.57901    
   2874000   303.5602       0.01485129     7.8097822      753.14123     -27.399456      725.74177    
   2875000   289.88669      0.01485129     6.7330016      719.21686     -25.908648      693.30822    
   2876000   302.55758      0.01485129     8.6518188      750.6537      -27.36586       723.28784    
   2877000   302.78455      0.01485129     9.075524       751.21682     -25.109729      726.10709    
   2878000   306.28113      0.01485129     7.9218759      759.89193     -26.785648      733.10629    
   2879000   299.99825      0.01485129     7.7543879      744.30393     -29.56296       714.74097    
   2880000   318.02294      0.01485129     7.9222815      789.02368     -24.441739      764.58194    
   2881000   296.40309      0.01485129     8.9225091      735.38423     -22.236039      713.14819    
   2882000   289.26074      0.01485129     7.5285611      717.66387     -22.35007       695.3138     
   2883000   302.84909      0.01485129     6.7724334      751.37693     -22.37113       729.0058     
   2884000   300.32548      0.01485129     8.4159166      745.1158      -25.207439      719.90836    
   2885000   293.44481      0.01485129     10.027906      728.04467     -25.240079      702.80459    
   2886000   296.51733      0.01485129    -0.65900787     735.66766     -26.38246       709.2852     
   2887000   298.47542      0.01485129     9.342412       740.52576     -27.132864      713.39289    
   2888000   296.78789      0.01485129     11.208743      736.33894     -27.254298      709.08465    
   2889000   305.29489      0.01485129     4.9089307      757.44505     -25.818419      731.62663    
   2890000   306.59729      0.01485129     6.0999532      760.67633     -27.082707      733.59363    
   2891000   303.05889      0.01485129     9.2000675      751.89746     -26.844549      725.05291    
   2892000   289.60192      0.01485129     11.386         718.51036     -22.634603      695.87575    
   2893000   286.79431      0.01485129     8.9983425      711.54459     -22.047987      689.4966     
   2894000   304.59103      0.01485129     7.6228054      755.69874     -22.468874      733.22987    
   2895000   312.60509      0.01485129     8.6222234      775.58185     -26.024833      749.55702    
   2896000   286.06747      0.01485129     7.0394281      709.74128     -23.117395      686.62388    
   2897000   295.61277      0.01485129     7.4601505      733.42342     -21.750038      711.67338    
   2898000   306.63925      0.01485129     8.7512134      760.78042     -22.233595      738.54683    
   2899000   293.80405      0.01485129     6.1873374      728.93596     -23.285466      705.65049    
   2900000   288.61993      0.01485129     9.9970612      716.07399     -20.082671      695.99132    
   2901000   309.43696      0.01485129     10.863272      767.72163     -22.215117      745.50651    
   2902000   308.45409      0.01485129     7.2448271      765.28309     -24.129375      741.15371    
   2903000   278.12652      0.01485129     5.2377475      690.03957     -24.536968      665.5026     
   2904000   300.16786      0.01485129     6.340344       744.72474     -23.666991      721.05775    
   2905000   289.06661      0.01485129     12.26041       717.18223     -22.026115      695.15611    
   2906000   296.00136      0.01485129     10.540693      734.38754     -21.866451      712.52109    
   2907000   317.62323      0.01485129     9.1618412      788.032       -21.418566      766.61343    
   2908000   295.90613      0.01485129     1.8616355      734.15127     -24.709176      709.4421     
   2909000   293.77974      0.01485129     9.6825618      728.87563     -24.515992      704.35963    
   2910000   318.0548       0.01485129     7.2308959      789.10272     -23.896646      765.20607    
   2911000   305.43822      0.01485129     2.9878394      757.80064     -25.878088      731.92255    
   2912000   288.04446      0.01485129     6.9607497      714.64624     -27.736908      686.90934    
   2913000   291.57598      0.01485129     8.3958172      723.40804     -27.534748      695.87329    
   2914000   314.54503      0.01485129     8.3365744      780.39489     -26.267039      754.12785    
   2915000   317.50745      0.01485129     7.3831478      787.74474     -19.849306      767.89544    
   2916000   294.93218      0.01485129     8.6721287      731.73486     -24.696161      707.0387     
   2917000   290.04389      0.01485129     7.9557362      719.60688     -26.756481      692.8504     
   2918000   306.1027       0.01485129     9.1195617      759.44923     -22.970538      736.47869    
   2919000   300.59772      0.01485129     7.4635078      745.79122     -21.124212      724.66701    
   2920000   291.27253      0.01485129     6.0536641      722.65519     -19.204023      703.45116    
   2921000   304.25718      0.01485129     11.309642      754.87044     -16.11213       738.75831    
   2922000   305.77134      0.01485129     9.0725749      758.62713     -13.469407      745.15773    
   2923000   274.84087      0.01485129     4.3502039      681.88778     -18.405371      663.48241    
   2924000   291.11061      0.01485129     8.2872779      722.25345     -18.647974      703.60548    
   2925000   313.09708      0.01485129     12.370205      776.8025      -20.310934      756.49156    
   2926000   314.69036      0.01485129     3.3253092      780.75546     -18.151529      762.60393    
   2927000   286.84314      0.01485129     6.9235301      711.66573     -20.069838      691.59589    
   2928000   303.93069      0.01485129     11.84723       754.06041     -22.893222      731.16719    
   2929000   316.93492      0.01485129     1.6526649      786.32427     -21.241562      765.08271    
   2930000   292.9917       0.01485129     4.4919862      726.92049     -23.206085      703.71441    
   2931000   285.13153      0.01485129     18.705319      707.41918     -25.017341      682.40184    
   2932000   299.53124      0.01485129     11.220096      743.14526     -25.352573      717.79269    
   2933000   303.69429      0.01485129    -0.7947075      753.4739      -23.500488      729.97341    
   2934000   297.31286      0.01485129     14.105611      737.64141     -20.974222      716.66719    
   2935000   305.94895      0.01485129     9.5831932      759.06778     -21.433576      737.63421    
   2936000   310.29211      0.01485129    -9.3299446      769.84328     -23.9958        745.84748    
   2937000   300.42965      0.01485129     7.5868056      745.37425     -22.929261      722.44499    
   2938000   292.97675      0.01485129     7.8744781      726.88339     -24.182978      702.70041    
   2939000   300.21297      0.01485129     10.434694      744.83666     -26.641512      718.19515    
   2940000   308.44025      0.01485129    -3.8309925      765.24875     -22.136175      743.11258    
   2941000   292.56617      0.01485129     3.8038544      725.86474     -24.165292      701.69945    
   2942000   297.96756      0.01485129     11.113505      739.26574     -18.895906      720.36983    
   2943000   305.99489      0.01485129     8.4136429      759.18176     -18.982153      740.19961    
   2944000   306.11855      0.01485129     6.5515834      759.48855     -23.27964       736.20891    
   2945000   291.41098      0.01485129     6.2958447      722.99866     -21.785023      701.21364    
   2946000   294.5517       0.01485129     9.7508495      730.79089     -21.17035       709.62054    
   2947000   311.76947      0.01485129     14.263193      773.50865     -20.341702      753.16695    
   2948000   307.09751      0.01485129     4.3234947      761.91739     -18.421875      743.49552    
   2949000   292.3949       0.01485129     8.89926        725.43981     -20.045907      705.3939     
   2950000   291.51238      0.01485129     17.869196      723.25025     -25.045489      698.20476    
   2951000   311.50694      0.01485129     7.7288099      772.85731     -23.784582      749.07273    
   2952000   289.96525      0.01485129     3.5460041      719.41178     -20.38124       699.03054    
   2953000   292.29343      0.01485129     7.3236014      725.18806     -19.71158       705.47648    
   2954000   297.95724      0.01485129     12.303515      739.24011     -20.590515      718.6496     
   2955000   319.75367      0.01485129     10.758178      793.31767     -22.818539      770.49913    
   2956000   309.41952      0.01485129     4.8966281      767.67836     -18.66746       749.0109     
   2957000   293.50832      0.01485129     3.5447537      728.20224     -21.677344      706.5249     
   2958000   299.51101      0.01485129     8.7849379      743.09507     -21.456765      721.6383     
   2959000   303.33524      0.01485129     14.331773      752.58309     -24.656352      727.92674    
   2960000   298.07104      0.01485129     8.64596        739.52247     -24.453201      715.06927    
   2961000   297.17728      0.01485129     2.9547803      737.30502     -25.405845      711.89917    
   2962000   300.45727      0.01485129     8.3508389      745.44277     -25.710646      719.73213    
   2963000   306.98746      0.01485129     11.342982      761.64434     -21.808013      739.83633    
   2964000   299.40166      0.01485129     8.8096103      742.82378     -22.298842      720.52493    
   2965000   295.17118      0.01485129     2.7255694      732.32784     -26.569874      705.75796    
   2966000   298.97819      0.01485129     5.9419931      741.77314     -26.594317      715.17882    
   2967000   301.01197      0.01485129     9.8211851      746.81899     -26.910328      719.90867    
   2968000   302.50472      0.01485129     0.0011458329   750.52255     -25.694059      724.82849    
   2969000   297.21346      0.01485129     5.7358564      737.3948      -27.109811      710.28498    
   2970000   306.64426      0.01485129     12.447226      760.79286     -29.847538      730.94532    
   2971000   302.28279      0.01485129     14.798957      749.97193     -21.75869       728.21324    
   2972000   293.06035      0.01485129     2.9256947      727.09081     -23.067785      704.02302    
   2973000   297.12401      0.01485129     9.6191259      737.17287     -21.726243      715.44663    
   2974000   310.65592      0.01485129     11.850776      770.7459      -26.950866      743.79503    
   2975000   305.8145       0.01485129     7.7232699      758.7342      -22.094591      736.63961    
   2976000   293.14772      0.01485129     7.8002425      727.30757     -25.437991      701.86958    
   2977000   305.95953      0.01485129     8.440525       759.09402     -23.621856      735.47216    
   2978000   308.00511      0.01485129     8.9084686      764.16917     -26.486814      737.68236    
   2979000   319.88597      0.01485129     10.350902      793.64592     -20.441109      773.20481    
   2980000   293.24991      0.01485129     7.711426       727.56112     -21.303178      706.25794    
   2981000   298.13928      0.01485129     10.735033      739.69177     -19.689523      720.00225    
   2982000   318.33883      0.01485129     7.6350007      789.80741     -19.355593      770.45182    
   2983000   301.87049      0.01485129     8.1278223      748.94901     -20.488544      728.46047    
   2984000   282.63617      0.01485129     8.5901104      701.22814     -18.656369      682.57177    
   2985000   297.65744      0.01485129     5.1905764      738.49631     -22.44292       716.05339    
   2986000   325.3236       0.01485129     8.8809334      807.13682     -17.81917       789.31765    
   2987000   305.42585      0.01485129     8.6611963      757.76996     -20.379474      737.39049    
   2988000   290.73393      0.01485129     7.8053579      721.31888     -19.792224      701.52666    
   2989000   296.49065      0.01485129     7.9102487      735.60147     -23.651242      711.95023    
   2990000   315.16108      0.01485129     8.5809739      781.92332     -21.379689      760.54363    
   2991000   299.12973      0.01485129     9.409895       742.1491      -23.905289      718.24381    
   2992000   290.37492      0.01485129     7.1319923      720.42818     -23.247752      697.18043    
   2993000   298.11593      0.01485129     5.4629479      739.63385     -20.990426      718.64342    
   2994000   304.95763      0.01485129     8.9583882      756.60828     -20.524076      736.0842     
   2995000   302.66925      0.01485129     9.8365673      750.93076     -16.088216      734.84255    
   2996000   291.28707      0.01485129     5.8547571      722.69126     -20.080697      702.61056    
   2997000   300.50931      0.01485129    -1.3137785      745.57188     -23.015363      722.55652    
   2998000   306.80197      0.01485129     9.2446829      761.18413     -27.289441      733.89469    
   2999000   309.19801      0.01485129     8.9334085      767.12878     -29.48543       737.64335    
   3000000   292.98254      0.01485129     11.282403      726.89775     -28.60946       698.28829    
   3001000   293.41293      0.01485129     6.4592374      727.96556     -29.149393      698.81616    
   3002000   301.93844      0.01485129     2.8769208      749.11759     -26.519252      722.59834    
   3003000   309.45449      0.01485129     8.0675044      767.76512     -24.322533      743.44259    
   3004000   309.97966      0.01485129     8.6641824      769.06807     -30.069725      738.99834    
   3005000   278.05788      0.01485129     5.9968424      689.86926     -34.133277      655.73598    
   3006000   287.96054      0.01485129     5.7310531      714.43805     -35.024913      679.41313    
   3007000   308.02631      0.01485129     6.009116       764.22178     -29.803978      734.4178     
   3008000   303.49141      0.01485129     9.7592413      752.97054     -26.735325      726.23522    
   3009000   302.4178       0.01485129     7.7190584      750.30691     -26.53395       723.77296    
   3010000   312.70815      0.01485129     2.5398147      775.83754     -25.840295      749.99724    
   3011000   302.59015      0.01485129     12.880881      750.7345      -27.082316      723.65218    
   3012000   294.95434      0.01485129     8.461099       731.78985     -22.675249      709.1146     
   3013000   298.42063      0.01485129     15.91422       740.3898      -23.221552      717.16824    
   3014000   305.7654       0.01485129     6.8062887      758.61238     -20.559289      738.05309    
   3015000   302.29619      0.01485129     4.9154792      750.00518     -24.410721      725.59446    
   3016000   304.70559      0.01485129     11.384913      755.98297     -24.091955      731.89101    
   3017000   295.67736      0.01485129     13.612936      733.58367     -26.341787      707.24189    
   3018000   290.70282      0.01485129     4.9371125      721.24171     -32.114831      689.12688    
   3019000   297.21001      0.01485129     3.7038193      737.38623     -32.841381      704.54485    
   3020000   288.62953      0.01485129     21.321434      716.09781     -28.607053      687.49076    
   3021000   300.63304      0.01485129     5.0583346      745.87885     -29.942344      715.93651    
   3022000   298.37371      0.01485129     0.37921247     740.27341     -29.157467      711.11594    
   3023000   306.03307      0.01485129     11.199047      759.27648     -24.871342      734.40513    
   3024000   291.69747      0.01485129     11.002884      723.70945     -24.211452      699.498      
   3025000   297.74003      0.01485129     8.5629917      738.70122     -26.378719      712.3225     
   3026000   302.79475      0.01485129     6.9849033      751.24213     -25.75482       725.48731    
   3027000   296.65961      0.01485129     8.1244308      736.02067     -24.093643      711.92703    
   3028000   302.82658      0.01485129     10.257339      751.32109     -29.312721      722.00837    
   3029000   307.64537      0.01485129     8.0655139      763.27665     -23.85288       739.42377    
   3030000   308.50038      0.01485129     6.0787601      765.39794     -28.24514       737.1528     
   3031000   311.99986      0.01485129     9.3959499      774.08026     -22.225022      751.85524    
   3032000   308.93739      0.01485129     12.307003      766.48219     -25.233713      741.24848    
   3033000   292.04662      0.01485129     9.1731448      724.5757      -27.582616      696.99309    
   3034000   290.8489       0.01485129     5.87878        721.60413     -29.99738       691.60675    
   3035000   312.36451      0.01485129     8.3770801      774.98497     -23.945223      751.03975    
   3036000   304.38288      0.01485129     3.1618771      755.18231     -23.468475      731.71383    
   3037000   292.34335      0.01485129     9.1159389      725.31191     -21.645809      703.6661     
   3038000   310.76063      0.01485129     9.8186377      771.00569     -21.046809      749.95888    
   3039000   312.74034      0.01485129     7.4985761      775.9174      -28.092886      747.82452    
   3040000   289.84358      0.01485129     8.0250105      719.1099      -24.598979      694.51093    
   3041000   306.19146      0.01485129     6.5414577      759.66946     -26.493152      733.17631    
   3042000   306.79381      0.01485129     8.6337032      761.16389     -23.518369      737.64552    
   3043000   303.42258      0.01485129     10.001935      752.79977     -26.345655      726.45412    
   3044000   285.04037      0.01485129     7.532202       707.19303     -22.333985      684.85904    
   3045000   300.63278      0.01485129     9.6748888      745.87821     -24.017574      721.86063    
   3046000   312.51086      0.01485129     8.1390884      775.34805     -24.521663      750.82639    
   3047000   301.7659       0.01485129     9.4571309      748.68953     -22.102688      726.58684    
   3048000   293.1632       0.01485129     7.3688358      727.34599     -22.922624      704.42337    
   3049000   292.91598      0.01485129     9.0371326      726.73261     -23.503623      703.22899    
   3050000   296.42166      0.01485129     7.1779416      735.43032     -25.187699      710.24262    
   3051000   302.47665      0.01485129     7.8056135      750.4529      -28.801212      721.65168    
   3052000   295.77806      0.01485129     7.3346975      733.83352     -30.113495      703.72002    
   3053000   300.18626      0.01485129     8.0226141      744.77039     -29.782023      714.98836    
   3054000   304.56958      0.01485129     12.382086      755.64551     -25.395616      730.2499     
   3055000   297.15954      0.01485129     10.826261      737.26101     -27.45831       709.8027     
   3056000   278.52036      0.01485129     4.4575292      691.01669     -20.896874      670.11982    
   3057000   291.19786      0.01485129     5.0418274      722.46991     -26.793041      695.67686    
   3058000   305.34049      0.01485129     8.9810033      757.55817     -25.851476      731.70669    
   3059000   288.47221      0.01485129     9.2860737      715.70751     -24.775947      690.93156    
   3060000   300.446        0.01485129     7.9650384      745.4148      -23.77625       721.63855    
   3061000   302.0473       0.01485129     8.5375362      749.38767     -25.395118      723.99255    
   3062000   305.33769      0.01485129     8.7004243      757.55122     -28.211547      729.33968    
   3063000   288.02592      0.01485129     6.9446524      714.60024     -28.855742      685.7445     
   3064000   303.72228      0.01485129     10.318253      753.54336     -30.497606      723.04575    
   3065000   307.64378      0.01485129     7.9922238      763.27271     -23.689387      739.58332    
   3066000   282.83649      0.01485129     5.0196339      701.72513     -23.292276      678.43286    
   3067000   307.77511      0.01485129     11.885952      763.59853     -23.922918      739.67562    
   3068000   321.43561      0.01485129     8.8671143      797.4906      -23.121716      774.36889    
   3069000   291.30829      0.01485129     7.2540179      722.7439      -20.623665      702.12024    
   3070000   287.78281      0.01485129     7.6027711      713.99709     -25.837249      688.15984    
   3071000   305.16974      0.01485129     8.3229723      757.13455     -24.57694       732.55761    
   3072000   305.96315      0.01485129     8.4232295      759.103       -24.88254       734.22046    
   3073000   294.57981      0.01485129     10.26954       730.86062     -24.337977      706.52265    
   3074000   286.07525      0.01485129     4.2827165      709.76059     -23.438491      686.3221     
   3075000   299.00149      0.01485129     8.1611922      741.83095     -27.855919      713.97503    
   3076000   308.82925      0.01485129     7.0780424      766.21388     -29.761972      736.45191    
   3077000   303.53607      0.01485129     9.9462442      753.08135     -29.885073      723.19627    
   3078000   292.97073      0.01485129     8.3231622      726.86847     -27.947176      698.92129    
   3079000   291.93148      0.01485129     6.5127978      724.29004     -25.752317      698.53772    
   3080000   303.03015      0.01485129     8.100129       751.82617     -26.333132      725.49303    
   3081000   308.45184      0.01485129     8.3586998      765.27753     -28.880075      736.39745    
   3082000   286.90915      0.01485129     7.7858775      711.8295      -28.922422      682.90708    
   3083000   297.45028      0.01485129     3.9535056      737.98234     -25.983937      711.99841    
   3084000   311.10591      0.01485129     8.8631188      771.86234     -24.53597       747.32637    
   3085000   293.1113       0.01485129     15.489524      727.21722     -26.85582       700.3614     
   3086000   294.49816      0.01485129     10.449811      730.65805     -25.122346      705.53571    
   3087000   300.53639      0.01485129     6.0857302      745.63907     -27.208443      718.43062    
   3088000   291.27127      0.01485129     7.7766628      722.65206     -25.798042      696.85402    
   3089000   306.30821      0.01485129     10.691207      759.95911     -22.945865      737.01325    
   3090000   303.3686       0.01485129     12.469491      752.66587     -23.342374      729.32349    
   3091000   294.82019      0.01485129     0.8821766      731.45703     -23.621479      707.83555    
   3092000   285.06062      0.01485129     0.38572569     707.24327     -26.143311      681.09996    
   3093000   315.20528      0.01485129     4.7753545      782.03299     -28.222999      753.80999    
   3094000   303.13295      0.01485129     13.700099      752.08119     -25.407244      726.67395    
   3095000   296.2075       0.01485129     7.6059321      734.89897     -23.228081      711.67089    
   3096000   297.27217      0.01485129     5.3265522      737.54044     -23.614986      713.92546    
   3097000   308.10913      0.01485129     8.4754013      764.42724     -24.783244      739.644      
   3098000   292.56421      0.01485129     13.859147      725.85988     -21.938411      703.92147    
   3099000   285.9715       0.01485129     6.6318465      709.50318     -24.378281      685.1249     
   3100000   296.10001      0.01485129     2.2047371      734.63228     -25.540999      709.09128    
   3101000   311.21492      0.01485129     13.340346      772.13279     -27.183622      744.94917    
   3102000   293.07681      0.01485129     12.743231      727.13163     -22.881814      704.24982    
   3103000   282.385        0.01485129    -2.6307757      700.60498     -21.575107      679.02987    
   3104000   307.8843       0.01485129     7.4756072      763.86943     -27.293171      736.57626    
   3105000   293.86668      0.01485129     14.504064      729.09134     -29.155455      699.93588    
   3106000   291.06544      0.01485129     4.5590823      722.14138     -24.627534      697.51385    
   3107000   304.38906      0.01485129     1.3226106      755.19765     -26.139871      729.05778    
   3108000   315.85751      0.01485129     10.270248      783.65119     -26.139367      757.51183    
   3109000   292.00689      0.01485129     11.694215      724.47715     -27.0502        697.42695    
   3110000   281.11361      0.01485129     6.2556008      697.45062     -25.65034       671.80028    
   3111000   307.62831      0.01485129     5.3043736      763.23431     -27.019342      736.21497    
   3112000   308.7745       0.01485129     9.5821961      766.07806     -30.289539      735.78852    
   3113000   283.41859      0.01485129     13.724763      703.16933     -27.00081       676.16852    
   3114000   288.72257      0.01485129     8.6893107      716.32865     -27.893456      688.43519    
   3115000   297.02733      0.01485129     4.4008117      736.933       -28.206544      708.72646    
   3116000   303.22277      0.01485129    -1.559274       752.30406     -25.676156      726.62791    
   3117000   305.01991      0.01485129     8.3621105      756.7628      -25.522377      731.24042    
   3118000   295.12863      0.01485129     12.513857      732.22228     -22.417564      709.80471    
   3119000   300.78089      0.01485129     7.4702688      746.24568     -23.291842      722.95384    
   3120000   299.23706      0.01485129    -0.14289066     742.41539     -21.884387      720.53101    
   3121000   299.66811      0.01485129     7.1676255      743.48483     -23.447369      720.03747    
   3122000   299.71278      0.01485129     19.181333      743.59568     -22.312381      721.2833     
   3123000   295.38406      0.01485129    -4.2580318      732.85599     -19.141645      713.71434    
   3124000   303.15062      0.01485129    -6.7545703      752.12504     -21.452862      730.67218    
   3125000   306.09698      0.01485129     15.319125      759.43504     -26.72482       732.71022    
   3126000   307.77431      0.01485129     14.995516      763.59655     -25.084996      738.51156    
   3127000   298.60254      0.01485129     8.8031081      740.84113     -26.069055      714.77208    
   3128000   290.19285      0.01485129     8.7579422      719.97647     -23.608144      696.36832    
   3129000   307.52862      0.01485129     8.0889624      762.98699     -21.302155      741.68483    
   3130000   311.99215      0.01485129     6.7188349      774.06112     -22.342798      751.71832    
   3131000   292.76638      0.01485129     10.581009      726.36145     -22.952821      703.40863    
   3132000   279.0794       0.01485129     8.6620787      692.40367     -27.289899      665.11377    
   3133000   307.08117      0.01485129     7.093693       761.87685     -29.100735      732.77612    
   3134000   311.29374      0.01485129     8.9349652      772.32836     -26.287865      746.0405     
   3135000   297.59009      0.01485129     9.6073958      738.32921     -20.966539      717.36267    
   3136000   305.62204      0.01485129     7.9335129      758.25669     -21.911335      736.34536    
   3137000   299.84504      0.01485129     8.3270385      743.92381     -21.166958      722.75685    
   3138000   296.84775      0.01485129     7.5508207      736.48746     -24.95078       711.53668    
   3139000   299.75658      0.01485129     8.0844395      743.70433     -25.545686      718.15865    
   3140000   294.989        0.01485129     5.4781438      731.87584     -28.295816      703.58002    
   3141000   301.9012       0.01485129     9.8132295      749.02521     -30.041682      718.98353    
   3142000   299.75963      0.01485129     8.7673285      743.71191     -27.494933      716.21698    
   3143000   308.58929      0.01485129     9.7879975      765.61853     -27.252085      738.36644    
   3144000   298.40965      0.01485129     4.2690695      740.36258     -23.918796      716.44378    
   3145000   291.17902      0.01485129     1.4048383      722.42318     -26.139921      696.28326    
   3146000   285.92408      0.01485129     6.716153       709.38553     -23.269474      686.11606    
   3147000   300.74655      0.01485129     13.360331      746.16048     -24.537122      721.62335    
   3148000   301.56014      0.01485129     15.938094      748.17903     -26.143755      722.03527    
   3149000   306.25677      0.01485129     5.756977       759.83148     -23.343475      736.488      
   3150000   297.97576      0.01485129     0.29351113     739.28606     -23.270213      716.01585    
   3151000   301.48348      0.01485129     6.8165679      747.98882     -26.842452      721.14637    
   3152000   295.10404      0.01485129     13.595558      732.16126     -23.266961      708.8943     
   3153000   293.15536      0.01485129     8.7222183      727.32654     -27.008193      700.31835    
   3154000   307.91419      0.01485129     11.604979      763.94359     -22.351597      741.59199    
   3155000   306.99766      0.01485129     4.4692897      761.66965     -26.287304      735.38235    
   3156000   282.38395      0.01485129    -0.88516985     700.60237     -29.071088      671.53128    
   3157000   297.05941      0.01485129     14.031869      737.01258     -28.570315      708.44227    
   3158000   312.86287      0.01485129     1.8136027      776.2214      -24.899284      751.32212    
   3159000   286.18893      0.01485129     0.64383054     710.04261     -22.033819      688.00879    
   3160000   289.4253       0.01485129     16.941243      718.07215     -19.899078      698.17307    
   3161000   309.51663      0.01485129     11.859489      767.9193      -17.114104      750.80519    
   3162000   296.91906      0.01485129    -8.4981305      736.66437     -22.878255      713.78611    
   3163000   290.69302      0.01485129     9.8199184      721.2174      -24.792478      696.42492    
   3164000   304.32005      0.01485129     14.247611      755.02644     -21.538003      733.48844    
   3165000   312.68056      0.01485129     11.436628      775.7691      -19.287118      756.48198    
   3166000   312.59538      0.01485129     3.5533402      775.55777     -22.998789      752.55898    
   3167000   289.15992      0.01485129    -0.79998111     717.41374     -22.658545      694.7552     
   3168000   296.80512      0.01485129     13.702965      736.38167     -23.925919      712.45575    
   3169000   310.24235      0.01485129     13.617925      769.71982     -23.854618      745.8652     
   3170000   310.8336       0.01485129     10.006353      771.18672     -26.615047      744.57168    
   3171000   305.89816      0.01485129    -3.1787738      758.94176     -28.180551      730.76121    
   3172000   285.41004      0.01485129     7.1158677      708.11017     -29.282709      678.82746    
   3173000   297.03595      0.01485129     16.594828      736.95439     -30.900189      706.0542     
   3174000   311.62595      0.01485129     12.088783      773.15257     -31.35073       741.80184    
   3175000   305.82427      0.01485129    -4.1614396      758.75843     -32.043709      726.71472    
   3176000   302.15517      0.01485129     7.7461603      749.6553      -28.538253      721.11705    
   3177000   295.60175      0.01485129     9.3820751      733.39609     -26.43159       706.9645     
   3178000   299.65449      0.01485129     8.5634636      743.45106     -27.054927      716.39613    
   3179000   304.00081      0.01485129     11.71832       754.2344      -23.519998      730.7144     
   3180000   306.09458      0.01485129     7.6977028      759.42909     -23.21243       736.21666    
   3181000   299.58777      0.01485129     1.0684362      743.2855      -24.238768      719.04674    
   3182000   291.47358      0.01485129     5.2696912      723.15398     -25.231377      697.92261    
   3183000   304.0899       0.01485129     12.233333      754.45541     -23.929987      730.52543    
   3184000   311.60678      0.01485129     12.830184      773.10501     -30.175898      742.92911    
   3185000   300.19599      0.01485129     8.1868856      744.79452     -31.489352      713.30517    
   3186000   305.2459       0.01485129     7.6442916      757.3235      -29.526149      727.79735    
   3187000   298.99403      0.01485129     9.3252532      741.81243     -28.055662      713.75677    
   3188000   303.26741      0.01485129     8.2331644      752.41481     -27.307915      725.10689    
   3189000   314.009        0.01485129     5.7656161      779.06497     -26.144727      752.92025    
   3190000   291.39601      0.01485129     6.7933487      722.96152     -23.018059      699.94346    
   3191000   288.83913      0.01485129     8.907931       716.61785     -26.319032      690.29882    
   3192000   312.42561      0.01485129     8.2886057      775.13655     -23.061524      752.07503    
   3193000   304.33415      0.01485129     6.1908149      755.06142     -21.462833      733.59859    
   3194000   294.45535      0.01485129     10.941221      730.55184     -20.902368      709.64948    
   3195000   292.70271      0.01485129     7.8660608      726.20349     -23.592434      702.61106    
   3196000   304.63777      0.01485129     5.33025        755.81471     -25.946528      729.86818    
   3197000   302.99549      0.01485129     5.8914998      751.74016     -26.292887      725.44727    
   3198000   288.50489      0.01485129     5.1904526      715.78859     -26.474195      689.3144     
   3199000   288.99741      0.01485129     9.5558506      717.01053     -26.194967      690.81556    
   3200000   302.29003      0.01485129     8.0116993      749.98989     -22.537297      727.45259    
   3201000   301.39453      0.01485129     5.4301534      747.76814     -26.677887      721.09025    
   3202000   288.52364      0.01485129     13.105662      715.83511     -29.543174      686.29194    
   3203000   296.67766      0.01485129     10.264442      736.06545     -26.848289      709.21717    
   3204000   304.19358      0.01485129     8.4812396      754.71265     -27.606749      727.1059     
   3205000   300.60723      0.01485129     6.7812775      745.81483     -24.999063      720.81576    
   3206000   295.8467       0.01485129     10.262836      734.00381     -23.660615      710.3432     
   3207000   299.25426      0.01485129     8.1299099      742.45806     -24.101719      718.35634    
   3208000   299.52672      0.01485129     6.8178205      743.13404     -24.820503      718.31354    
   3209000   303.05806      0.01485129     8.6463279      751.8954      -20.712966      731.18243    
   3210000   308.69493      0.01485129     8.7520574      765.88063     -26.107344      739.77328    
   3211000   297.42241      0.01485129     6.5269942      737.91319     -26.601507      711.31168    
   3212000   295.5108       0.01485129     8.4461745      733.17044     -21.856822      711.31362    
   3213000   310.03593      0.01485129     10.849279      769.20769     -25.537159      743.67053    
   3214000   308.13683      0.01485129     8.4525553      764.49598     -23.29843       741.19755    
   3215000   299.11791      0.01485129     7.309144       742.11978     -29.350844      712.76894    
   3216000   307.30065      0.01485129     7.764119       762.42139     -29.229213      733.19218    
   3217000   304.50607      0.01485129     7.2160055      755.48795     -28.063377      727.42458    
   3218000   285.46254      0.01485129     8.6484449      708.24042     -30.542969      677.69745    
   3219000   296.18669      0.01485129     8.2446222      734.84734     -31.400161      703.44718    
   3220000   297.88866      0.01485129     8.2441392      739.06997     -30.244851      708.82512    
   3221000   293.94311      0.01485129     6.509524       729.28097     -28.893576      700.38739    
   3222000   304.93869      0.01485129     8.3935767      756.5613      -33.685043      722.87626    
   3223000   300.37102      0.01485129     8.0906158      745.22879     -33.770482      711.4583     
   3224000   304.8786       0.01485129     8.6330323      756.4122      -31.681423      724.73078    
   3225000   296.71008      0.01485129     7.0255667      736.14588     -27.744265      708.40162    
   3226000   293.33372      0.01485129     7.7792785      727.76905     -28.379664      699.38938    
   3227000   303.88488      0.01485129     7.907136       753.94677     -26.871073      727.07569    
   3228000   302.99258      0.01485129     7.9143183      751.73293     -26.8194        724.91353    
   3229000   290.54005      0.01485129     7.8673571      720.83787     -30.157625      690.68025    
   3230000   284.16837      0.01485129     7.5468159      705.02955     -26.145562      678.88399    
   3231000   297.73054      0.01485129     8.3016582      738.67767     -23.052844      715.62483    
   3232000   305.36533      0.01485129     11.157187      757.61979     -25.9609        731.65889    
   3233000   299.9444       0.01485129     6.7253746      744.17033     -26.333958      717.83637    
   3234000   301.24823      0.01485129     6.9468588      747.40516     -31.742147      715.66301    
   3235000   304.80796      0.01485129     10.698343      756.23695     -27.910057      728.3269     
   3236000   297.93042      0.01485129     8.044665       739.17358     -26.205574      712.96801    
   3237000   310.93602      0.01485129     6.0846408      771.44083     -26.23038       745.21045    
   3238000   295.74019      0.01485129     8.1604162      733.73957     -27.559252      706.18032    
   3239000   290.822        0.01485129     12.982843      721.5374      -23.741247      697.79616    
   3240000   302.00732      0.01485129     9.1913565      749.28848     -22.413089      726.87539    
   3241000   299.05841      0.01485129     5.926465       741.97216     -17.990696      723.98146    
   3242000   299.84003      0.01485129     5.5571505      743.91138     -20.236772      723.67461    
   3243000   293.21988      0.01485129     8.6452203      727.4866      -23.883005      703.60359    
   3244000   288.2182       0.01485129     14.204826      715.07729     -25.613033      689.46426    
   3245000   310.90995      0.01485129     8.6667214      771.37615     -24.864167      746.51198    
   3246000   299.13017      0.01485129     2.8068442      742.1502      -26.343872      715.80633    
   3247000   277.77751      0.01485129     6.7493076      689.17365     -30.25499       658.91866    
   3248000   299.85118      0.01485129     10.363554      743.93905     -31.605159      712.33389    
   3249000   306.08887      0.01485129     0.97448814     759.41493     -31.57992       727.83501    
   3250000   302.76117      0.01485129     5.5703991      751.15882     -28.158901      722.99992    
   3251000   281.9593       0.01485129     7.2533106      699.5488      -28.21542       671.33338    
   3252000   280.50803      0.01485129     5.2451072      695.94816     -22.673327      673.27484    
   3253000   319.97474      0.01485129     10.746697      793.86614     -23.221343      770.6448     
   3254000   293.79942      0.01485129     0.18717592     728.92446     -24.766539      704.15792    
   3255000   282.5069       0.01485129     8.5216301      700.9074      -23.751616      677.15579    
   3256000   305.22224      0.01485129     10.367394      757.26479     -23.306271      733.95852    
   3257000   308.00716      0.01485129     6.5621186      764.17424     -25.938156      738.23609    
   3258000   300.03338      0.01485129     7.8930446      744.39109     -26.55694       717.83414    
   3259000   292.35241      0.01485129     8.3039755      725.33438     -27.999928      697.33446    
   3260000   310.712        0.01485129     14.093417      770.88505     -22.827157      748.05789    
   3261000   304.82072      0.01485129     5.1244204      756.26861     -23.087806      733.1808     
   3262000   286.15132      0.01485129     4.0304253      709.9493      -27.975326      681.97397    
   3263000   287.3965       0.01485129     8.8920718      713.03865     -27.914553      685.1241     
   3264000   318.5756       0.01485129     8.6670531      790.39484     -24.133661      766.26118    
   3265000   301.97894      0.01485129     6.3605588      749.21808     -31.847859      717.37022    
   3266000   285.83606      0.01485129     7.6314609      709.16716     -29.829681      679.33747    
   3267000   295.062        0.01485129     10.125127      732.05696     -28.107968      703.94899    
   3268000   302.73017      0.01485129     7.7214059      751.0819      -29.284678      721.79722    
   3269000   305.67981      0.01485129     7.8797759      758.40003     -28.284861      730.11517    
   3270000   285.48791      0.01485129     7.7816654      708.30338     -26.693538      681.60985    
   3271000   294.907        0.01485129     9.7393344      731.6724      -25.563583      706.10882    
   3272000   307.98163      0.01485129     8.0922645      764.11092     -24.126031      739.98489    
   3273000   295.90416      0.01485129     9.6436408      734.14638     -30.992449      703.15393    
   3274000   293.18819      0.01485129     6.8500628      727.40797     -28.592221      698.81575    
   3275000   296.84671      0.01485129     5.9267146      736.48488     -29.840266      706.64461    
   3276000   304.99408      0.01485129     8.9238993      756.69872     -27.227306      729.47141    
   3277000   292.43878      0.01485129     11.620696      725.54867     -26.311227      699.23744    
   3278000   300.24044      0.01485129     4.5085337      744.90481     -23.470229      721.43458    
   3279000   314.34196      0.01485129    -5.4334983      779.89107     -24.483594      755.40748    
   3280000   301.46669      0.01485129     1.0017315      747.94716     -27.041956      720.90521    
   3281000   301.976        0.01485129     9.9813156      749.21077     -28.212403      720.99837    
   3282000   285.18861      0.01485129     7.2607959      707.56081     -28.804672      678.75614    
   3283000   298.03711      0.01485129     3.9566189      739.43828     -28.44794       710.99034    
   3284000   314.08591      0.01485129     7.9987211      779.25579     -27.993948      751.26185    
   3285000   301.76217      0.01485129     12.153258      748.68025     -25.582187      723.09806    
   3286000   285.31758      0.01485129     4.7612225      707.88079     -28.013132      679.86766    
   3287000   321.12851      0.01485129     7.5649869      796.72868     -31.058518      765.67016    
   3288000   300.636        0.01485129     11.031014      745.88621     -29.912324      715.97389    
   3289000   284.8698       0.01485129     5.1432406      706.76983     -29.214546      677.55529    
   3290000   308.07206      0.01485129     4.4131433      764.33528     -30.366231      733.96905    
   3291000   296.97671      0.01485129     16.838998      736.8074      -25.3932        711.4142     
   3292000   292.08077      0.01485129     8.0353809      724.66044     -25.203637      699.45681    
   3293000   299.02043      0.01485129     4.6201837      741.87793     -25.504349      716.37358    
   3294000   309.99578      0.01485129     16.188631      769.10808     -26.155578      742.9525     
   3295000   293.48488      0.01485129     15.755545      728.14407     -27.303417      700.84066    
   3296000   291.75911      0.01485129    -10.307642      723.8624      -24.593147      699.26925    
   3297000   299.79522      0.01485129     15.454905      743.8002      -28.489452      715.31074    
   3298000   301.83953      0.01485129     12.421047      748.87219     -30.218333      718.65386    
   3299000   282.55976      0.01485129    -3.104939       701.03855     -35.67664       665.36191    
   3300000   309.61951      0.01485129     0.62928129     768.17453     -29.58512       738.58941    
   3301000   307.43982      0.01485129     12.388606      762.76668     -31.702201      731.06448    
   3302000   307.82158      0.01485129     10.27128       763.71381     -20.772919      742.94089    
   3303000   306.68649      0.01485129    -11.97804       760.89765     -27.682668      733.21498    
   3304000   301.00054      0.01485129     11.92644       746.79064     -28.648597      718.14204    
   3305000   316.90451      0.01485129     14.705543      786.24881     -28.908479      757.34034    
   3306000   296.93552      0.01485129     13.481965      736.70522     -32.404163      704.30106    
   3307000   286.95273      0.01485129     7.7229794      711.93764     -30.394708      681.54293    
   3308000   301.13545      0.01485129     1.2601397      747.12536     -31.951063      715.1743     
   3309000   309.32459      0.01485129     4.5575485      767.44282     -30.93033       736.51249    
   3310000   305.18956      0.01485129     12.135436      757.18372     -31.488101      725.69561    
   3311000   292.22106      0.01485129     11.932212      725.0085      -27.610585      697.39791    
   3312000   295.12306      0.01485129     5.9059025      732.20844     -23.043167      709.16527    
   3313000   312.90146      0.01485129     8.0263957      776.31714     -21.482884      754.83426    
   3314000   313.3442       0.01485129     7.7290461      777.41559     -25.445828      751.96976    
   3315000   299.62097      0.01485129     7.799713       743.36789     -26.539343      716.82855    
   3316000   301.22373      0.01485129     7.8401695      747.34437     -27.781089      719.56328    
   3317000   307.66366      0.01485129     10.230997      763.32202     -27.537352      735.78467    
   3318000   305.89725      0.01485129     8.7414037      758.9395      -34.524346      724.41515    
   3319000   306.79262      0.01485129     11.79086       761.16095     -26.977147      734.1838     
   3320000   298.57175      0.01485129     7.0712236      740.76475     -31.197854      709.5669     
   3321000   295.48247      0.01485129     6.0052782      733.10015     -24.738975      708.36118    
   3322000   303.19428      0.01485129     4.7027723      752.23337     -23.80027       728.4331     
   3323000   318.48436      0.01485129     9.0516577      790.16848     -21.692096      768.47638    
   3324000   301.36956      0.01485129     8.7930504      747.70619     -25.375875      722.33032    
   3325000   288.39832      0.01485129     8.9821215      715.52419     -24.885857      690.63833    
   3326000   291.12818      0.01485129     7.1174405      722.29703     -23.549213      698.74782    
   3327000   306.28894      0.01485129     5.6086387      759.9113      -22.425512      737.48579    
   3328000   304.63686      0.01485129     9.4465924      755.81246     -24.148185      731.66427    
   3329000   283.53907      0.01485129     7.2226075      703.46824     -25.327189      678.14105    
   3330000   307.16176      0.01485129     8.1763433      762.0768      -23.719718      738.35708    
   3331000   327.67062      0.01485129     9.182823       812.95983     -22.118892      790.84094    
   3332000   297.12025      0.01485129     9.6311886      737.16352     -21.969677      715.19385    
   3333000   293.217        0.01485129     8.1004536      727.47945     -20.388959      707.09049    
   3334000   287.61572      0.01485129     7.6438608      713.58253     -23.797906      689.78462    
   3335000   301.34728      0.01485129     8.8156077      747.6509      -24.805246      722.84566    
   3336000   300.65424      0.01485129     8.5684861      745.93146     -25.746091      720.18537    
   3337000   286.37039      0.01485129     6.6879537      710.49283     -23.323953      687.16888    
   3338000   291.4738       0.01485129     6.9532073      723.15453     -24.512647      698.64188    
   3339000   307.0634       0.01485129     15.24574       761.83276     -27.470839      734.36192    
   3340000   310.28357      0.01485129     8.2989488      769.82208     -28.692918      741.12916    
   3341000   297.09574      0.01485129     11.255112      737.10271     -28.139935      708.96278    
   3342000   292.11931      0.01485129     7.094696       724.75606     -27.31231       697.44375    
   3343000   305.99536      0.01485129     7.5624115      759.18292     -25.222307      733.96061    
   3344000   316.2082       0.01485129     7.8117851      784.52126     -31.198116      753.32314    
   3345000   294.70385      0.01485129     4.5541         731.16838     -29.699767      701.46861    
   3346000   288.40786      0.01485129     9.4631225      715.54785     -26.056757      689.4911     
   3347000   300.17499      0.01485129     8.8360794      744.74244     -24.601156      720.14128    
   3348000   314.3431       0.01485129     8.7237702      779.8939      -25.454578      754.43932    
   3349000   310.07483      0.01485129     7.6078866      769.3042      -29.108857      740.19534    
   3350000   286.43296      0.01485129     6.3099007      710.64807     -27.650858      682.99721    
   3351000   298.1302       0.01485129     7.7581414      739.66925     -27.688931      711.98031    
   3352000   304.28065      0.01485129     8.373372       754.92867     -23.235918      731.69275    
   3353000   296.8218       0.01485129     8.1488373      736.42308     -20.686545      715.73653    
   3354000   297.57561      0.01485129     9.2330007      738.29329     -21.79355       716.49974    
   3355000   304.63657      0.01485129     6.12478        755.81172     -25.232029      730.57969    
   3356000   293.67707      0.01485129     5.9620122      728.62092     -27.871732      700.74918    
   3357000   299.5327       0.01485129     10.297248      743.14889     -22.651188      720.4977     
   3358000   302.24555      0.01485129     7.497538       749.87953     -25.062157      724.81737    
   3359000   293.34546      0.01485129     2.3696821      727.79816     -23.54347       704.25469    
   3360000   307.5294       0.01485129     8.6495556      762.98892     -28.581208      734.40771    
   3361000   309.10844      0.01485129     11.096543      766.90657     -28.403505      738.50306    
   3362000   300.46296      0.01485129    -8.6467519      745.4569      -26.030877      719.42602    
   3363000   288.40944      0.01485129     8.3185024      715.55177     -24.176814      691.37496    
   3364000   297.34055      0.01485129     12.51168       737.71011     -23.229297      714.48081    
   3365000   308.33371      0.01485129     9.5023724      764.98444     -25.825167      739.15927    
   3366000   296.92771      0.01485129     2.5264539      736.68583     -23.306469      713.37937    
   3367000   300.98315      0.01485129     8.4749077      746.74749     -22.760585      723.98691    
   3368000   292.28685      0.01485129     8.6670126      725.17174     -21.08316       704.08858    
   3369000   318.67173      0.01485129     7.915755       790.63335     -19.727055      770.9063     
   3370000   294.45684      0.01485129     7.2993784      730.55552     -22.393713      708.16181    
   3371000   287.72468      0.01485129     8.9449939      713.85287     -25.371013      688.48186    
   3372000   312.163        0.01485129     8.6682921      774.48501     -25.599135      748.88587    
   3373000   302.02345      0.01485129     6.5246264      749.32851     -21.891333      727.43717    
   3374000   289.54949      0.01485129     7.3026985      718.38026     -22.10512       696.27514    
   3375000   290.95906      0.01485129     8.7379149      721.87746     -20.602429      701.27503    
   3376000   306.45025      0.01485129     7.9642222      760.31153     -24.098536      736.21299    
   3377000   299.57748      0.01485129     7.0042804      743.25998     -25.373535      717.88644    
   3378000   303.51696      0.01485129     10.089145      753.03395     -24.821201      728.21275    
   3379000   313.38318      0.01485129     8.9340255      777.5123      -25.343048      752.16925    
   3380000   290.23609      0.01485129     7.9097258      720.08375     -18.435893      701.64785    
   3381000   280.42907      0.01485129     8.1400887      695.75224     -16.581926      679.17031    
   3382000   311.9513       0.01485129     11.892626      773.95977     -21.603679      752.35609    
   3383000   307.14764      0.01485129     8.0854534      762.04177     -19.029325      743.01245    
   3384000   295.40373      0.01485129     8.109588       732.9048      -17.22033       715.68447    
   3385000   289.14192      0.01485129     8.9852482      717.36906     -23.025498      694.34356    
   3386000   314.66469      0.01485129     8.2851722      780.69178     -21.291517      759.40026    
   3387000   318.28339      0.01485129     2.3017757      789.66987     -20.884243      768.78563    
   3388000   292.84744      0.01485129     7.7327758      726.56256     -17.914346      708.64821    
   3389000   311.1968       0.01485129     10.807954      772.08784     -15.704411      756.38343    
   3390000   311.12643      0.01485129     3.3646139      771.91325     -17.984748      753.9285     
   3391000   289.37057      0.01485129     4.6100565      717.93635     -22.06035       695.876      
   3392000   285.84008      0.01485129     6.5157115      709.17711     -20.279358      688.89775    
   3393000   291.83531      0.01485129     14.291406      724.05144     -18.848048      705.20339    
   3394000   306.27786      0.01485129     10.410143      759.88382     -22.02155       737.86227    
   3395000   294.45847      0.01485129    -0.83536026     730.55959     -19.543094      711.0165     
   3396000   296.17346      0.01485129     7.3036238      734.81451     -23.532233      711.28228    
   3397000   305.46201      0.01485129     10.092631      757.85965     -22.584285      735.27537    
   3398000   308.01261      0.01485129     16.36884       764.18776     -19.490729      744.69703    
   3399000   296.30726      0.01485129    -2.2877693      735.14648     -26.844891      708.30159    
   3400000   298.54166      0.01485129     3.0081979      740.69009     -24.251275      716.43882    
   3401000   295.73742      0.01485129     12.306154      733.7327      -17.699936      716.03277    
   3402000   303.52399      0.01485129     13.768771      753.05138     -24.134733      728.91665    
   3403000   294.28052      0.01485129     6.8615385      730.11809     -29.509359      700.60873    
   3404000   300.69863      0.01485129    -3.8258844      746.0416      -21.650729      724.39087    
   3405000   301.94878      0.01485129     12.959935      749.14324     -22.914071      726.22917    
   3406000   297.74974      0.01485129     18.63114       738.72531     -20.972776      717.75254    
   3407000   300.96875      0.01485129     7.4517665      746.71177     -27.155458      719.55631    
   3408000   290.07157      0.01485129     3.411643       719.67557     -24.20171       695.47386    
   3409000   303.48351      0.01485129     8.9246154      752.95095     -24.764594      728.18635    
   3410000   305.25372      0.01485129     9.6883436      757.34289     -23.759801      733.58309    
   3411000   310.94432      0.01485129     5.5748113      771.46143     -23.738166      747.72326    
   3412000   304.39137      0.01485129     2.4997717      755.20338     -23.497815      731.70557    
   3413000   296.96974      0.01485129     9.3458276      736.79012     -27.027884      709.76224    
   3414000   313.43184      0.01485129     11.604711      777.63305     -24.219427      753.41362    
   3415000   306.36231      0.01485129     8.570637       760.09333     -23.231407      736.86192    
   3416000   288.52907      0.01485129     1.3250161      715.84858     -22.448074      693.40051    
   3417000   296.78962      0.01485129     12.975102      736.34323     -20.974197      715.36903    
   3418000   296.83449      0.01485129     17.809573      736.45456     -23.697709      712.75685    
   3419000   305.66086      0.01485129     10.469487      758.35303     -22.688302      735.66473    
   3420000   309.08472      0.01485129     3.5788692      766.84771     -22.553291      744.29442    
   3421000   296.43044      0.01485129     6.7183285      735.4521      -26.701601      708.7505     
   3422000   298.88732      0.01485129     8.8579175      741.54769     -24.992269      716.55542    
   3423000   309.41496      0.01485129     12.083739      767.66705     -13.319013      754.34804    
   3424000   303.78222      0.01485129     6.7468278      753.69206     -18.114337      735.57772    
   3425000   303.45671      0.01485129     7.4265045      752.88446     -17.198579      735.68588    
   3426000   289.7777       0.01485129     8.3577674      718.94646     -18.442827      700.50364    
   3427000   296.79526      0.01485129     9.3023417      736.35722     -16.510767      719.84645    
   3428000   300.55346      0.01485129     5.4424926      745.68142     -19.388961      726.29246    
   3429000   280.52792      0.01485129     8.6260526      695.9975      -23.821036      672.17647    
   3430000   309.3448       0.01485129     10.287567      767.49298     -27.128107      740.36487    
   3431000   313.06689      0.01485129     5.9925206      776.72759     -26.677324      750.05027    
   3432000   301.32173      0.01485129     7.1328395      747.58751     -25.968519      721.61899    
   3433000   293.85203      0.01485129     6.9450006      729.05498     -25.816854      703.23813    
   3434000   294.48459      0.01485129     12.501988      730.62438     -25.677602      704.94677    
   3435000   310.55277      0.01485129     15.231101      770.48999     -17.734712      752.75528    
   3436000   291.15863      0.01485129     11.698601      722.37258     -26.638074      695.73451    
   3437000   312.48383      0.01485129     10.758595      775.28101     -26.891341      748.38967    
   3438000   297.91588      0.01485129     4.2889816      739.13752     -23.495378      715.64214    
   3439000   295.16147      0.01485129     6.8466984      732.30375     -27.168873      705.13488    
   3440000   297.83526      0.01485129     11.976155      738.93748     -26.490093      712.44739    
   3441000   299.97309      0.01485129     8.3198543      744.24151     -24.674667      719.56685    
   3442000   309.9074       0.01485129     7.0538587      768.8888      -26.364107      742.5247     
   3443000   299.75654      0.01485129     6.569084       743.70423     -26.524269      717.17996    
   3444000   298.93238      0.01485129     8.4019554      741.65947     -23.301096      718.35838    
   3445000   293.21112      0.01485129     9.0991991      727.46487     -24.670796      702.79407    
   3446000   309.23034      0.01485129     8.3997334      767.209       -24.827929      742.38107    
   3447000   310.89645      0.01485129     8.0685603      771.34266     -24.121375      747.22129    
   3448000   313.50271      0.01485129     7.1551536      777.80886     -22.876791      754.93207    
   3449000   294.65135      0.01485129     4.8519344      731.03811     -27.869866      703.16824    
   3450000   289.80743      0.01485129     7.6133642      719.02023     -27.667404      691.35282    
   3451000   296.19868      0.01485129     9.0855825      734.8771      -25.645476      709.23162    
   3452000   312.11507      0.01485129     8.3445853      774.36608     -28.028443      746.33764    
   3453000   310.33972      0.01485129     8.4031818      769.96141     -27.282456      742.67895    
   3454000   288.46723      0.01485129     7.9120476      715.69514     -26.039866      689.65528    
   3455000   293.34267      0.01485129     6.7844988      727.79124     -24.145636      703.64561    
   3456000   318.27836      0.01485129     8.0686191      789.65738     -26.358735      763.29865    
   3457000   301.24986      0.01485129     11.446733      747.40921     -25.622899      721.78631    
   3458000   291.6913       0.01485129     7.6505636      723.69416     -26.470505      697.22366    
   3459000   299.57435      0.01485129    -1.4671057      743.25222     -34.862006      708.39022    
   3460000   309.75401      0.01485129     9.5933954      768.50824     -33.205021      735.30321    
   3461000   297.71713      0.01485129     10.184607      738.64441     -32.942916      705.70149    
   3462000   279.71205      0.01485129     6.5279622      693.97332     -29.448869      664.52445    
   3463000   302.53154      0.01485129     4.8524851      750.58908     -28.547128      722.04195    
   3464000   300.56746      0.01485129     4.4393334      745.71615     -25.09711       720.61904    
   3465000   298.73681      0.01485129     16.336864      741.17425     -24.228256      716.94599    
   3466000   301.86863      0.01485129     6.7681337      748.9444      -18.607433      730.33697    
   3467000   309.61085      0.01485129     8.2503966      768.15306     -21.413217      746.73984    
   3468000   295.59265      0.01485129     11.397157      733.37352     -22.586254      710.78727    
   3469000   294.56714      0.01485129     9.6626903      730.8292      -24.128012      706.70119    
   3470000   305.3325       0.01485129     5.7872097      757.53835     -23.080765      734.45759    
   3471000   306.52441      0.01485129     6.7890974      760.49551     -23.376457      737.11905    
   3472000   300.9831       0.01485129     12.193775      746.74737     -24.327481      722.41989    
   3473000   296.39108      0.01485129     8.6165795      735.35445     -22.307532      713.04692    
   3474000   303.07786      0.01485129     7.6024023      751.94452     -21.419644      730.52487    
   3475000   306.57885      0.01485129     7.8018405      760.63057     -24.615598      736.01497    
   3476000   290.64259      0.01485129     10.016394      721.09228     -24.540138      696.55214    
   3477000   296.10346      0.01485129     9.5297914      734.64086     -25.836312      708.80454    
   3478000   311.0555       0.01485129     7.7789472      771.73726     -24.745345      746.99191    
   3479000   309.52862      0.01485129     8.2223936      767.94904     -22.983534      744.9655     
   3480000   295.79992      0.01485129     8.2135952      733.88775     -25.376486      708.51127    
   3481000   296.26161      0.01485129     8.490326       735.03322     -25.535065      709.49816    
   3482000   300.16848      0.01485129     7.9514131      744.72628     -27.031439      717.69484    
   3483000   306.91372      0.01485129     8.0024632      761.46139     -23.711727      737.74966    
   3484000   306.27576      0.01485129     8.5435421      759.8786      -22.332894      737.54571    
   3485000   297.9006       0.01485129     7.5242923      739.0996      -26.979704      712.1199     
   3486000   295.57864      0.01485129     7.4166759      733.33875     -29.697817      703.64094    
   3487000   298.70613      0.01485129     9.1680692      741.09815     -31.58542       709.51273    
   3488000   303.58299      0.01485129     8.2625997      753.19778     -30.897618      722.30016    
   3489000   304.18157      0.01485129     7.4544732      754.68286     -30.897645      723.78522    
   3490000   299.42345      0.01485129     11.078227      742.87784     -32.64298       710.23486    
   3491000   297.56112      0.01485129     7.9276674      738.25733     -30.202261      708.05507    
   3492000   300.9896       0.01485129     7.7633737      746.76348     -33.46899       713.29449    
   3493000   302.11302      0.01485129     6.098684       749.55073     -26.896376      722.65435    
   3494000   303.90712      0.01485129     8.7559439      754.00194     -25.709997      728.29195    
   3495000   284.15054      0.01485129     9.5490608      704.98531     -30.332459      674.65286    
   3496000   303.46775      0.01485129     7.6680625      752.91186     -22.600229      730.31163    
   3497000   309.82422      0.01485129     6.7726022      768.68244     -28.501279      740.18116    
   3498000   296.21694      0.01485129     9.2456863      734.9224      -24.193286      710.72912    
   3499000   292.82223      0.01485129     8.3404523      726.50003     -30.020896      696.47913    
   3500000   309.45983      0.01485129     4.2440075      767.77837     -32.00121       735.77716    
   3501000   308.96541      0.01485129     9.3725336      766.5517      -28.570676      737.98102    
   3502000   292.04253      0.01485129     10.29706       724.56555     -27.590701      696.97485    
   3503000   288.19679      0.01485129     2.8703762      715.02417     -22.835924      692.18825    
   3504000   306.10716      0.01485129     5.6652683      759.46031     -23.601066      735.85925    
   3505000   305.15531      0.01485129     11.015442      757.09874     -25.64318       731.45556    
   3506000   297.59591      0.01485129     9.3740274      738.34366     -25.174637      713.16902    
   3507000   288.88145      0.01485129     6.9086164      716.72283     -24.150947      692.57189    
   3508000   311.31354      0.01485129     7.8683087      772.37746     -23.96385       748.41361    
   3509000   304.77618      0.01485129     9.4849363      756.1581      -29.462173      726.69593    
   3510000   289.23712      0.01485129     1.9329292      717.60526     -31.763983      685.84128    
   3511000   309.10038      0.01485129     0.85521743     766.88657     -26.627337      740.25923    
   3512000   305.51958      0.01485129     14.618972      758.0025      -25.725088      732.27741    
   3513000   285.99867      0.01485129     3.9063627      709.57058     -25.588172      683.9824     
   3514000   295.2708       0.01485129    -0.033201314    732.57498     -25.906076      706.66891    
   3515000   316.51478      0.01485129     7.1484267      785.2819      -31.577423      753.70448    
   3516000   312.58141      0.01485129     21.366287      775.5231      -31.668872      743.85423    
   3517000   289.10687      0.01485129     10.126352      717.28211     -25.258292      692.02382    
   3518000   311.55856      0.01485129     6.4157705      772.98538     -27.642808      745.34258    
   3519000   307.11801      0.01485129     2.0990946      761.96824     -28.162753      733.80549    
   3520000   291.68393      0.01485129     12.671888      723.67586     -25.336412      698.33945    
   3521000   295.52525      0.01485129     6.7012049      733.20629     -25.243497      707.96279    
   3522000   305.58975      0.01485129     4.8327516      758.17658     -30.135952      728.04063    
   3523000   301.22875      0.01485129     14.732936      747.35682     -28.904989      718.45183    
   3524000   302.18416      0.01485129     9.0169015      749.72722     -25.768265      723.95895    
   3525000   308.09078      0.01485129     7.5619598      764.38173     -27.644413      736.73732    
   3526000   300.07435      0.01485129     7.0050568      744.49274     -22.492215      722.00053    
   3527000   300.87386      0.01485129     8.006148       746.47635     -24.180945      722.2954     
   3528000   317.66862      0.01485129     11.359469      788.14461     -26.726895      761.41772    
   3529000   302.8109       0.01485129     9.8747952      751.2822      -29.058637      722.22357    
   3530000   284.66781      0.01485129     8.1711948      706.26868     -24.269474      681.99921    
   3531000   296.36051      0.01485129     7.8383452      735.2786      -27.763982      707.51462    
   3532000   313.33352      0.01485129     11.192229      777.38911     -27.568646      749.82046    
   3533000   293.57065      0.01485129     9.0243247      728.35687     -21.33797       707.0189     
   3534000   305.86633      0.01485129     7.476336       758.86279     -25.347412      733.51537    
   3535000   305.51807      0.01485129     8.112712       757.99875     -28.47713       729.52162    
   3536000   310.86222      0.01485129     6.2425573      771.25773     -25.927485      745.33025    
   3537000   290.046        0.01485129     12.886539      719.61213     -25.262324      694.34981    
   3538000   304.33585      0.01485129     8.3936391      755.06564     -31.761529      723.30411    
   3539000   300.99803      0.01485129     8.4785851      746.78442     -32.001783      714.78264    
   3540000   297.59886      0.01485129     8.2687841      738.35097     -28.243801      710.10717    
   3541000   300.21889      0.01485129     6.97681        744.85134     -27.963954      716.88738    
   3542000   289.73549      0.01485129     7.1832919      718.84173     -27.975706      690.86603    
   3543000   298.70855      0.01485129     9.5307398      741.10415     -25.631404      715.47274    
   3544000   304.8897       0.01485129     7.8169299      756.43975     -27.332426      729.10733    
   3545000   299.82433      0.01485129     6.5401519      743.87242     -25.969091      717.90333    
   3546000   302.68322      0.01485129     8.4420939      750.9654      -30.30798       720.65742    
   3547000   307.04164      0.01485129     8.2339199      761.77876     -28.164201      733.61456    
   3548000   290.56303      0.01485129     6.9510475      720.89488     -28.725711      692.16917    
   3549000   295.89161      0.01485129     7.6803567      734.11525     -28.612626      705.50262    
   3550000   308.56388      0.01485129     9.6193605      765.55548     -26.47829       739.07719    
   3551000   295.88427      0.01485129     7.2747082      734.09703     -27.342473      706.75456    
   3552000   297.27964      0.01485129     6.35433        737.55897     -30.064089      707.49488    
   3553000   325.1072       0.01485129     9.4697499      806.59993     -27.320382      779.27955    
   3554000   296.5415       0.01485129     6.2105362      735.72764     -33.75978       701.96786    
   3555000   294.18288      0.01485129     7.5455012      729.87583     -34.368189      695.50764    
   3556000   298.88142      0.01485129     7.8168638      741.53305     -31.575584      709.95747    
   3557000   320.30797      0.01485129     9.0163271      794.69291     -29.743615      764.94929    
   3558000   297.74205      0.01485129     9.3662968      738.70623     -31.193888      707.51234    
   3559000   292.85952      0.01485129     7.1383057      726.59253     -32.531537      694.06099    
   3560000   319.64193      0.01485129     7.4508607      793.04043     -31.793183      761.24724    
   3561000   305.96935      0.01485129     12.250644      759.11839     -36.726484      722.3919     
   3562000   291.7943       0.01485129     7.1680735      723.94971     -33.991951      689.95776    
   3563000   299.25649      0.01485129     6.6764539      742.46361     -31.821192      710.64242    
   3564000   306.25138      0.01485129     6.943751       759.81811     -33.574931      726.24318    
   3565000   290.30332      0.01485129     7.5684201      720.25055     -28.35956       691.89099    
   3566000   295.50403      0.01485129     8.3148152      733.15366     -27.205609      705.94805    
   3567000   294.2911       0.01485129     9.2096381      730.14432     -27.162005      702.98232    
   3568000   313.2119       0.01485129     7.3854375      777.08736     -27.409816      749.67755    
   3569000   299.97793      0.01485129     2.3650925      744.2535      -20.332031      723.92147    
   3570000   294.75306      0.01485129     3.9858366      731.29046     -22.041684      709.24877    
   3571000   292.46051      0.01485129     5.9957324      725.60259     -18.241095      707.3615     
   3572000   297.002        0.01485129     9.7869867      736.87016     -23.167702      713.70246    
   3573000   321.40659      0.01485129     12.620253      797.4186      -25.61298       771.80562    
   3574000   299.59259      0.01485129    -1.1050535      743.29747     -24.671828      718.62564    
   3575000   283.90283      0.01485129     2.9478215      704.37074     -24.981694      679.38905    
   3576000   299.04863      0.01485129     13.44738       741.94789     -23.428482      718.51941    
   3577000   312.88712      0.01485129    -4.2793718      776.28157     -21.200507      755.08107    
   3578000   289.64126      0.01485129    -13.733691      718.60796     -21.777415      696.83054    
   3579000   288.80692      0.01485129     19.374969      716.53794     -24.605716      691.93222    
   3580000   299.32769      0.01485129     4.9941097      742.64025     -22.584837      720.05541    
   3581000   290.70278      0.01485129     4.2692475      721.24162     -25.9128        695.32882    
   3582000   292.93945      0.01485129     19.436931      726.79084     -24.406064      702.38478    
   3583000   293.57011      0.01485129     8.5112237      728.35554     -22.350738      706.0048     
   3584000   314.39955      0.01485129    -0.72720926     780.03394     -23.80311       756.23083    
   3585000   294.1533       0.01485129     4.7308505      729.80244     -22.127509      707.67493    
   3586000   289.93316      0.01485129     11.625201      719.33217     -22.012159      697.32001    
   3587000   302.10057      0.01485129     8.6243582      749.51984     -21.610263      727.90958    
   3588000   304.09053      0.01485129     5.3185149      754.45698     -22.6694        731.78758    
   3589000   283.96983      0.01485129     3.1865991      704.53698     -21.533524      683.00346    
   3590000   294.61462      0.01485129     12.781549      730.947       -23.211806      707.7352     
   3591000   305.34657      0.01485129     17.686107      757.57326     -23.28552       734.28774    
   3592000   297.30942      0.01485129     2.4919695      737.63285     -24.50232       713.13053    
   3593000   294.19515      0.01485129     5.1216061      729.90627     -21.726371      708.17989    
   3594000   287.80491      0.01485129     12.356874      714.0519      -23.495941      690.55596    
   3595000   282.0941       0.01485129     0.73779459     699.88325     -23.879581      676.00367    
   3596000   291.8275       0.01485129     7.8804011      724.03208     -26.384041      697.64803    
   3597000   304.05311      0.01485129     9.5249994      754.36416     -26.935693      727.42846    
   3598000   303.75935      0.01485129     8.5685012      753.63531     -23.659557      729.97575    
   3599000   293.64556      0.01485129     8.2677685      728.54272     -24.135846      704.40687    
   3600000   299.27195      0.01485129     7.7365607      742.50196     -22.902407      719.59955    
   3601000   309.74401      0.01485129     7.7548579      768.48343     -21.894929      746.5885     
   3602000   304.19593      0.01485129     7.1847321      754.7185      -22.208638      732.50986    
   3603000   289.38661      0.01485129     6.831113       717.97617     -27.362474      690.61369    
   3604000   289.84102      0.01485129     7.5895536      719.10356     -26.286629      692.81693    
   3605000   297.89859      0.01485129     7.9064268      739.09461     -21.94507       717.14954    
   3606000   304.46239      0.01485129     8.7813264      755.37958     -22.36524       733.01434    
   3607000   312.43949      0.01485129     9.7174385      775.17099     -18.217157      756.95384    
   3608000   298.54192      0.01485129     8.5079648      740.69073     -17.551427      723.1393     
   3609000   293.74322      0.01485129     7.985824       728.78504     -23.408611      705.37643    
   3610000   298.81508      0.01485129     8.3288476      741.36846     -22.958781      718.40968    
   3611000   317.08825      0.01485129     8.3015492      786.70469     -25.487185      761.2175     
   3612000   304.68938      0.01485129     7.2370057      755.94274     -21.796686      734.14605    
   3613000   287.12217      0.01485129     6.4881178      712.35801     -20.593565      691.76444    
   3614000   302.28382      0.01485129     10.421641      749.97448     -18.461728      731.51276    
   3615000   318.42375      0.01485129     8.0283142      790.0181      -16.61827       773.39983    
   3616000   303.25628      0.01485129     9.4100626      752.3872      -17.66651       734.72069    
   3617000   290.94955      0.01485129     7.6469898      721.85385     -18.526034      703.32781    
   3618000   328.70223      0.01485129     9.4048681      815.5193      -18.572495      796.94681    
   3619000   310.32693      0.01485129     7.2902486      769.92966     -21.055319      748.87435    
   3620000   282.64804      0.01485129     7.9150405      701.25757     -17.276817      683.98075    
   3621000   291.74399      0.01485129     7.6204788      723.82489     -15.449618      708.37527    
   3622000   306.51064      0.01485129     9.3805303      760.46134     -17.292357      743.16899    
   3623000   308.23896      0.01485129     10.167475      764.74936     -23.001927      741.74744    
   3624000   288.47752      0.01485129     7.9218379      715.72068     -21.094959      694.62572    
   3625000   299.69233      0.01485129     8.3634678      743.54492     -24.150702      719.39422    
   3626000   312.30444      0.01485129     8.9207346      774.83592     -28.255444      746.58047    
   3627000   303.91042      0.01485129     7.6352746      754.01012     -28.434368      725.57575    
   3628000   297.48923      0.01485129     6.8990842      738.07898     -25.060998      713.01798    
   3629000   299.40811      0.01485129     12.420281      742.83978     -24.127443      718.71234    
   3630000   306.17071      0.01485129     6.331587       759.61796     -24.40529       735.21267    
   3631000   285.55363      0.01485129     5.600235       708.46642     -26.785904      681.68052    
   3632000   303.78334      0.01485129     10.054645      753.69484     -23.728403      729.96644    
   3633000   297.97735      0.01485129     13.250788      739.29002     -21.382276      717.90775    
   3634000   302.2948       0.01485129     7.6098735      750.00172     -25.722009      724.27971    
   3635000   302.51689      0.01485129     8.404443       750.55275     -23.982233      726.57052    
   3636000   297.93922      0.01485129     7.7914536      739.19543     -21.221705      717.97372    
   3637000   300.18409      0.01485129     7.7968821      744.76501     -22.091883      722.67313    
   3638000   298.89156      0.01485129     9.0742087      741.55819     -26.647397      714.91079    
   3639000   309.15902      0.01485129     8.7842633      767.03206     -24.045086      742.98698    
   3640000   299.75447      0.01485129     8.2333643      743.6991      -25.515199      718.1839     
   3641000   291.61676      0.01485129     8.0301173      723.50922     -26.27465       697.23457    
   3642000   311.5605       0.01485129     7.3493555      772.9902      -27.329534      745.66066    
   3643000   296.0511       0.01485129     7.9335703      734.51095     -27.247819      707.26313    
   3644000   301.18432      0.01485129     11.478807      747.2466      -26.421024      720.82558    
   3645000   297.13549      0.01485129     7.4623198      737.20135     -27.542975      709.65837    
   3646000   302.2152       0.01485129     5.563465       749.80423     -26.982366      722.82187    
   3647000   295.02199      0.01485129     9.2257871      731.9577      -23.669592      708.28811    
   3648000   304.0561       0.01485129     9.0186244      754.37157     -23.212891      731.15868    
   3649000   309.02619      0.01485129     7.6096048      766.70249     -26.101857      740.60064    
   3650000   302.33691      0.01485129     7.2006806      750.1062      -26.609508      723.49669    
   3651000   286.11541      0.01485129     7.9006262      709.86023     -29.853758      680.00647    
   3652000   300.83049      0.01485129     10.187385      746.36874     -25.81995       720.54879    
   3653000   306.3966       0.01485129     5.8666711      760.17842     -27.272163      732.90626    
   3654000   290.80383      0.01485129     7.260902       721.49233     -27.562838      693.92949    
   3655000   299.75278      0.01485129     10.033624      743.6949      -24.301224      719.39368    
   3656000   296.28515      0.01485129     7.1316241      735.09163     -24.917084      710.17455    
   3657000   295.87234      0.01485129     5.7069274      734.06742     -29.693211      704.37421    
   3658000   289.3396       0.01485129     4.8266763      717.85952     -34.459171      683.40035    
   3659000   284.18709      0.01485129     5.4878001      705.07601     -30.362775      674.71323    
   3660000   303.17981      0.01485129     12.959364      752.19747     -25.301144      726.89632    
   3661000   309.54079      0.01485129     13.948356      767.97923     -26.311253      741.66798    
   3662000   299.98106      0.01485129    -1.1077767      744.26127     -27.169757      717.09151    
   3663000   282.30717      0.01485129     7.8840222      700.41188     -26.57078       673.8411     
   3664000   293.67422      0.01485129     10.393138      728.61383     -24.123919      704.48991    
   3665000   298.44604      0.01485129     12.928532      740.45285     -25.793831      714.65902    
   3666000   298.79351      0.01485129     7.744782       741.31494     -23.654321      717.66062    
   3667000   292.55507      0.01485129     5.4453683      725.83719     -21.786966      704.05023    
   3668000   299.44908      0.01485129     10.336169      742.94143     -23.26646       719.67497    
   3669000   314.99334      0.01485129     11.344875      781.50716     -24.925159      756.582      
   3670000   306.6233       0.01485129     2.2046736      760.74086     -28.542162      732.1987     
   3671000   295.956        0.01485129     6.0326207      734.27498     -23.772568      710.50242    
   3672000   290.22919      0.01485129     4.256149       720.06662     -26.403839      693.66278    
   3673000   305.51485      0.01485129     6.9172598      757.99076     -22.873188      735.11757    
   3674000   292.28341      0.01485129     8.6746036      725.16319     -22.12848       703.03471    
   3675000   298.44841      0.01485129     9.2567565      740.45872     -20.029846      720.42887    
   3676000   311.72136      0.01485129     10.363059      773.38928     -18.747843      754.64143    
   3677000   312.57004      0.01485129     1.7598095      775.49487     -19.666908      755.82797    
   3678000   295.24912      0.01485129     4.6035485      732.52121     -18.534996      713.98621    
   3679000   302.43472      0.01485129     8.7458369      750.34887     -20.480783      729.86809    
   3680000   303.98247      0.01485129     9.4604085      754.18888     -18.334921      735.85396    
   3681000   306.97619      0.01485129     9.607259       761.61639     -21.096302      740.52009    
   3682000   292.91073      0.01485129     6.0736683      726.71958     -21.960915      704.75867    
   3683000   297.27193      0.01485129     10.572347      737.53984     -18.775726      718.76412    
   3684000   296.87382      0.01485129     7.2195371      736.55214     -24.232331      712.31981    
   3685000   293.57548      0.01485129     8.461466       728.36886     -25.457037      702.91183    
   3686000   295.5835       0.01485129     7.3462205      733.35082     -23.33814       710.01268    
   3687000   306.38029      0.01485129     7.7222903      760.13795     -23.988101      736.14985    
   3688000   309.23393      0.01485129     7.5146391      767.21789     -25.245393      741.9725     
   3689000   299.44904      0.01485129     9.5777965      742.94132     -26.473764      716.46756    
   3690000   298.89205      0.01485129     11.965871      741.55941     -26.035206      715.5242     
   3691000   296.43053      0.01485129     2.8047621      735.45231     -25.138184      710.31413    
   3692000   297.11074      0.01485129     2.1390509      737.13993     -22.636433      714.5035     
   3693000   309.7322       0.01485129     12.095699      768.45412     -26.041258      742.41286    
   3694000   298.07933      0.01485129     9.8545444      739.54303     -28.180907      711.36212    
   3695000   305.41557      0.01485129     5.0134878      757.74445     -26.336568      731.40788    
   3696000   297.34676      0.01485129     3.516102       737.72551     -25.211621      712.51389    
   3697000   297.14674      0.01485129     9.7335077      737.22926     -22.507199      714.72206    
   3698000   304.07986      0.01485129     13.19733       754.43052     -19.218853      735.21166    
   3699000   294.38371      0.01485129     2.9913663      730.3741      -22.784632      707.58947    
   3700000   290.05751      0.01485129     7.2488339      719.64067     -25.853595      693.78708    
   3701000   298.30528      0.01485129     7.4745192      740.10362     -22.846013      717.25761    
   3702000   307.3303       0.01485129     7.8232105      762.49494     -20.592361      741.90257    
   3703000   316.80316      0.01485129     9.0934828      785.99737     -25.727532      760.26983    
   3704000   296.67874      0.01485129     7.6218248      736.06812     -27.575431      708.49269    
   3705000   302.20566      0.01485129     7.1244908      749.78057     -22.396418      727.38415    
   3706000   292.23773      0.01485129     9.5662062      725.04986     -27.309909      697.73995    
   3707000   292.5571       0.01485129     9.9221421      725.84223     -25.848561      699.99367    
   3708000   301.77307      0.01485129     3.5987594      748.70731     -26.932496      721.77481    
   3709000   306.38569      0.01485129     7.9090979      760.15133     -28.3669        731.78443    
   3710000   285.21253      0.01485129     12.034642      707.62014     -27.911768      679.70837    
   3711000   295.68476      0.01485129     7.7810636      733.60204     -26.567947      707.03409    
   3712000   311.49214      0.01485129    -2.1993116      772.82059     -22.827755      749.99283    
   3713000   295.96107      0.01485129     9.9713227      734.28758     -26.784467      707.50311    
   3714000   289.29514      0.01485129     22.438922      717.74922     -18.741293      699.00792    
   3715000   292.35412      0.01485129     2.8185053      725.33864     -20.931898      704.40674    
   3716000   300.99122      0.01485129     4.6680521      746.76751     -18.481153      728.28636    
   3717000   305.85877      0.01485129     11.704732      758.84405     -16.284454      742.55959    
   3718000   298.15447      0.01485129     11.592799      739.72947     -21.041611      718.68785    
   3719000   300.0545       0.01485129     7.4671635      744.4435      -18.05502       726.38848    
   3720000   309.35652      0.01485129    -0.5041062      767.52205     -19.172924      748.34913    
   3721000   296.33431      0.01485129     14.088503      735.21358     -19.616381      715.5972     
   3722000   291.6581       0.01485129     8.822289       723.61179     -18.818477      704.79332    
   3723000   296.90964      0.01485129     2.4782499      736.64101     -19.477647      717.16336    
   3724000   302.06828      0.01485129    -16.482431      749.43974     -16.260704      733.17903    
   3725000   300.25115      0.01485129     10.786308      744.93137     -19.970899      724.96047    
   3726000   299.31432      0.01485129     16.932563      742.60707     -21.533223      721.07385    
   3727000   301.38011      0.01485129     2.662782       747.73236     -27.150707      720.58166    
   3728000   300.82828      0.01485129     6.1092634      746.36326     -23.510306      722.85296    
   3729000   301.43211      0.01485129     9.9399321      747.86138     -22.359454      725.50192    
   3730000   297.7562       0.01485129     12.11483       738.74135     -24.384611      714.35673    
   3731000   307.23209      0.01485129     3.5079254      762.25129     -24.813795      737.43749    
   3732000   301.61044      0.01485129     9.9869937      748.30381     -24.628254      723.67555    
   3733000   301.49906      0.01485129     12.206984      748.02747     -29.344148      718.68333    
   3734000   289.93917      0.01485129     5.8615894      719.34707     -26.795441      692.55163    
   3735000   294.42183      0.01485129     8.488259       730.46868     -26.541489      703.92719    
   3736000   309.39925      0.01485129     5.9080319      767.62808     -25.6004        742.02768    
   3737000   301.4989       0.01485129     1.312467       748.02708     -23.548334      724.47874    
   3738000   295.88872      0.01485129     15.833213      734.10808     -21.339795      712.76829    
   3739000   299.3944       0.01485129     11.089668      742.80577     -20.519966      722.2858     
   3740000   299.06186      0.01485129     14.794209      741.98072     -23.689545      718.29118    
   3741000   295.02183      0.01485129     6.1590653      731.9573      -22.42065       709.53665    
   3742000   309.45123      0.01485129     5.3569209      767.75704     -25.73108       742.02596    
   3743000   289.95322      0.01485129     12.074516      719.38194     -25.997069      693.38487    
   3744000   293.45545      0.01485129     6.84053        728.07106     -25.960269      702.11079    
   3745000   323.96241      0.01485129     8.5794613      803.75966     -23.297468      780.46219    
   3746000   299.03961      0.01485129     11.182993      741.92553     -27.785524      714.14       
   3747000   288.67362      0.01485129     7.0691814      716.2072      -23.140162      693.06704    
   3748000   304.09362      0.01485129     7.5935065      754.46466     -28.15995       726.30471    
   3749000   308.81499      0.01485129     9.4756677      766.17849     -27.496889      738.6816     
   3750000   292.26643      0.01485129     8.1921901      725.12108     -27.908184      697.21289    
   3751000   294.73226      0.01485129     9.4753664      731.23887     -26.252855      704.98601    
   3752000   299.3027       0.01485129     7.2112534      742.57825     -28.365632      714.21261    
   3753000   298.89223      0.01485129     1.8380142      741.55985     -28.432117      713.12774    
   3754000   305.46748      0.01485129     5.9788518      757.87324     -31.041617      726.83162    
   3755000   293.75321      0.01485129     11.066631      728.8098      -30.877857      697.93194    
   3756000   296.91354      0.01485129     8.4224951      736.65067     -31.363304      705.28736    
   3757000   299.5484       0.01485129     6.1778778      743.18784     -28.255323      714.93252    
   3758000   299.31991      0.01485129     8.6624283      742.62094     -29.701747      712.91919    
   3759000   297.26316      0.01485129     9.4701759      737.5181      -26.87691       710.64119    
   3760000   304.04944      0.01485129     8.1429181      754.35503     -28.750807      725.60422    
   3761000   296.31081      0.01485129     8.5067424      735.15528     -23.422921      711.73236    
   3762000   299.32894      0.01485129     7.1542287      742.64334     -24.812951      717.83039    
   3763000   298.9574       0.01485129     8.2172268      741.72155     -28.218652      713.5029     
   3764000   307.86107      0.01485129     8.1482223      763.81181     -28.498795      735.31301    
   3765000   302.42659      0.01485129     7.4149555      750.32871     -31.911856      718.41686    
   3766000   292.89537      0.01485129     7.8120322      726.6815      -34.059766      692.62173    
   3767000   303.44135      0.01485129     11.579757      752.84636     -26.986872      725.85949    
   3768000   313.01775      0.01485129     6.0955778      776.60567     -26.517706      750.08797    
   3769000   297.31337      0.01485129     4.3023337      737.64267     -25.740323      711.90235    
   3770000   296.33031      0.01485129     10.233875      735.20366     -22.170504      713.03316    
   3771000   313.23806      0.01485129     10.399224      777.15227     -27.890684      749.26158    
   3772000   302.11415      0.01485129     4.0853277      749.55353     -29.828886      719.72465    
   3773000   291.05888      0.01485129     15.948529      722.12511     -25.218333      696.90678    
   3774000   301.75432      0.01485129     12.286954      748.66079     -23.071932      725.58885    
   3775000   307.74008      0.01485129    -0.89227298     763.51161     -25.92597       737.58564    
   3776000   302.11192      0.01485129     5.0608519      749.548       -25.995551      723.55245    
   3777000   301.42569      0.01485129     15.663835      747.84545     -32.585502      715.25995    
   3778000   306.02736      0.01485129     1.6547537      759.26232     -30.915511      728.34681    
   3779000   306.25392      0.01485129     7.6470244      759.82443     -33.647407      726.17702    
   3780000   303.64636      0.01485129     10.805374      753.35499     -30.094761      723.26023    
   3781000   283.25456      0.01485129     15.612784      702.76236     -30.600538      672.16183    
   3782000   284.86374      0.01485129     4.5304178      706.75478     -30.663858      676.09092    
   3783000   299.487        0.01485129     11.167933      743.03551     -23.123753      719.91176    
   3784000   311.07778      0.01485129    -2.1763417      771.79254     -22.377031      749.41551    
   3785000   303.9364       0.01485129     9.1991194      754.07459     -20.88815       733.18644    
   3786000   296.22523      0.01485129     9.0328191      734.94295     -18.964694      715.97826    
   3787000   309.91138      0.01485129     5.3504562      768.89867     -20.631267      748.2674     
   3788000   302.78305      0.01485129    -0.10333742     751.2131      -21.994883      729.21822    
   3789000   298.10339      0.01485129     14.383234      739.60272     -25.333706      714.26901    
   3790000   299.96346      0.01485129     7.7389046      744.21761     -20.167259      724.05035    
   3791000   300.59727      0.01485129     6.2403115      745.7901      -22.461026      723.32908    
   3792000   296.5395       0.01485129     8.7780759      735.72267     -24.968409      710.75426    
   3793000   306.87152      0.01485129     10.288795      761.3567      -24.807657      736.54904    
   3794000   299.85508      0.01485129     2.2681825      743.94871     -27.138987      716.80972    
   3795000   299.83381      0.01485129     11.507651      743.89596     -30.168916      713.72704    
   3796000   299.28299      0.01485129     9.3669055      742.52936     -34.056153      708.47321    
   3797000   300.43207      0.01485129    -1.3023349      745.38025     -38.156204      707.22405    
   3798000   300.31517      0.01485129     9.8928613      745.09021     -35.121081      709.96913    
   3799000   293.95065      0.01485129     8.9779935      729.29966     -39.159047      690.14061    
   3800000   308.73186      0.01485129     9.9471516      765.97225     -31.314822      734.65743    
   3801000   306.31785      0.01485129     3.8674892      759.98304     -31.959098      728.02394    
   3802000   290.20424      0.01485129     11.782262      720.00471     -30.884705      689.12001    
   3803000   296.64721      0.01485129     9.3879578      735.9899      -32.774946      703.21496    
   3804000   310.19762      0.01485129     0.081862616    769.60885     -32.634668      736.97418    
   3805000   299.85005      0.01485129     6.3625186      743.93623     -31.770327      712.1659     
   3806000   288.32229      0.01485129     4.997104       715.33555     -26.572857      688.76269    
   3807000   296.57489      0.01485129     9.5903767      735.81047     -24.905984      710.90448    
   3808000   310.325        0.01485129     9.2036976      769.92488     -19.084792      750.84009    
   3809000   311.3663       0.01485129     6.4476974      772.50837     -20.035058      752.47331    
   3810000   303.47957      0.01485129    -3.9437985      752.94119     -21.362248      731.57894    
   3811000   291.74486      0.01485129     10.857774      723.82703     -20.180185      703.64685    
   3812000   304.16483      0.01485129     8.0248308      754.64133     -23.181647      731.45969    
   3813000   306.70392      0.01485129     6.6526151      760.94087     -24.098192      736.84268    
   3814000   301.99245      0.01485129     7.7011213      749.2516      -28.983637      720.26796    
   3815000   308.93273      0.01485129     8.708855       766.47062     -28.904742      737.56587    
   3816000   290.83942      0.01485129     7.2013323      721.58062     -27.352779      694.22784    
   3817000   292.40127      0.01485129     5.8413281      725.45562     -27.14949       698.30613    
   3818000   302.69085      0.01485129     5.2355898      750.98434     -24.770985      726.21335    
   3819000   314.22643      0.01485129     8.1024252      779.60443     -24.269892      755.33454    
   3820000   304.87422      0.01485129     9.6657901      756.40134     -21.830359      734.57098    
   3821000   281.32388      0.01485129     8.6984956      697.9723      -21.908362      676.06393    
   3822000   297.91224      0.01485129     7.4562016      739.12848     -19.869173      719.25931    
   3823000   317.29482      0.01485129     4.4346315      787.2172      -20.916235      766.30096    
   3824000   303.13467      0.01485129     8.2606817      752.08547     -28.97533       723.11014    
   3825000   290.48435      0.01485129     6.8168334      720.69967     -29.997045      690.70263    
   3826000   297.93044      0.01485129     7.367672       739.17363     -25.47997       713.69366    
   3827000   293.57873      0.01485129     7.7036514      728.37692     -30.93217       697.44475    
   3828000   316.45141      0.01485129     9.6577387      785.12466     -30.68961       754.43505    
   3829000   316.74548      0.01485129     8.1756267      785.85428     -30.866763      754.98751    
   3830000   293.09661      0.01485129     7.7302012      727.18076     -30.844443      696.33632    
   3831000   293.76899      0.01485129     8.1036593      728.84895     -33.473408      695.37555    
   3832000   313.89624      0.01485129     6.8693648      778.78522     -25.594834      753.19038    
   3833000   310.03823      0.01485129     8.4382303      769.2134      -26.845717      742.36769    
   3834000   295.46669      0.01485129     9.6505813      733.061       -26.342226      706.71878    
   3835000   292.83739      0.01485129     7.8121056      726.53763     -19.548429      706.9892     
   3836000   306.83769      0.01485129     7.1711529      761.27278     -20.681653      740.59113    
   3837000   321.98086      0.01485129     8.9349352      798.84338     -22.63143       776.21195    
   3838000   296.93344      0.01485129     8.5082731      736.70005     -21.88828       714.81177    
   3839000   288.81735      0.01485129     7.6739176      716.56381     -21.472485      695.09133    
   3840000   298.44599      0.01485129     1.7723433      740.45273     -20.990074      719.46266    
   3841000   314.61972      0.01485129     5.2240459      780.5802      -27.345124      753.23508    
   3842000   305.63818      0.01485129     13.313832      758.29675     -25.523159      732.77359    
   3843000   287.25398      0.01485129     6.4928403      712.68504     -23.580342      689.1047     
   3844000   319.53002      0.01485129    -3.0130781      792.76279     -26.01196       766.75083    
   3845000   302.50721      0.01485129     10.006278      750.52872     -23.556138      726.97258    
   3846000   300.61298      0.01485129     15.574825      745.82909     -23.655183      722.1739     
   3847000   291.40705      0.01485129     5.1829484      722.98892     -29.584256      693.40466    
   3848000   313.28472      0.01485129     4.0508631      777.26801     -26.194123      751.07389    
   3849000   320.22202      0.01485129     11.633765      794.47966     -25.906095      768.57356    
   3850000   302.0699       0.01485129     8.6041544      749.44375     -26.07154       723.37221    
   3851000   294.3929       0.01485129     6.4662679      730.3969      -28.756494      701.64041    
   3852000   309.02205      0.01485129     6.5206874      766.69222     -29.550476      737.14174    
   3853000   308.87237      0.01485129     6.1374788      766.32085     -28.01438       738.30647    
   3854000   295.94126      0.01485129     14.143334      734.23843     -27.12741       707.11102    
   3855000   302.16132      0.01485129     10.732425      749.67055     -25.232357      724.43819    
   3856000   291.85709      0.01485129     10.304441      724.10548     -26.76347       697.34201    
   3857000   310.6964       0.01485129     4.1274159      770.84634     -24.422372      746.42397    
   3858000   303.88042      0.01485129     19.27308       753.93569     -24.094941      729.84075    
   3859000   299.6873       0.01485129     11.252118      743.53246     -26.089173      717.44329    
   3860000   305.76364      0.01485129     8.7548728      758.60803     -27.913708      730.69432    
   3861000   300.06877      0.01485129    -1.4557096      744.47889     -27.680771      716.79812    
   3862000   294.84685      0.01485129     16.641939      731.52315     -22.242618      709.28054    
   3863000   292.35838      0.01485129     12.244347      725.3492      -23.63528       701.71392    
   3864000   294.94953      0.01485129     2.5863971      731.77791     -25.776289      706.00162    
   3865000   303.20753      0.01485129    -10.840362      752.26625     -29.576919      722.68933    
   3866000   299.96191      0.01485129     5.811233       744.21376     -29.724337      714.48942    
   3867000   309.54818      0.01485129     16.806519      767.99757     -29.576183      738.42139    
   3868000   299.4619       0.01485129     13.763199      742.97323     -30.219146      712.75408    
   3869000   295.72931      0.01485129     5.8710339      733.71257     -27.849878      705.86269    
   3870000   297.55813      0.01485129     1.1703071      738.24993     -26.353951      711.89598    
   3871000   306.82389      0.01485129     10.860466      761.23854     -26.651426      734.58711    
   3872000   303.21452      0.01485129     10.690062      752.28359     -26.234601      726.04899    
   3873000   287.17093      0.01485129     7.099803       712.47899     -27.327331      685.15166    
   3874000   303.62932      0.01485129     6.5517472      753.31272     -27.8929        725.41982    
   3875000   318.13084      0.01485129     7.3243843      789.29139     -31.971379      757.32001    
   3876000   289.21196      0.01485129     9.3296227      717.54284     -29.661461      687.88138    
   3877000   292.82985      0.01485129     7.5229453      726.51892     -25.829784      700.68914    
   3878000   313.13107      0.01485129     8.3360763      776.88681     -23.657892      753.22891    
   3879000   303.96457      0.01485129     9.5061005      754.14448     -26.548799      727.59568    
   3880000   284.10873      0.01485129     7.285164       704.88158     -23.681065      681.20051    
   3881000   307.78341      0.01485129     7.7384642      763.61912     -23.431487      740.18763    
   3882000   312.73965      0.01485129     8.1770628      775.91569     -27.808909      748.10678    
   3883000   307.0529       0.01485129     12.820939      761.80671     -26.971899      734.83481    
   3884000   292.17052      0.01485129     7.8221463      724.88311     -27.646986      697.23612    
   3885000   287.92236      0.01485129     6.5175971      714.34332     -23.683763      690.65956    
   3886000   300.36171      0.01485129     8.1137936      745.20569     -27.411293      717.7944     
   3887000   315.79722      0.01485129     8.6061533      783.50161     -32.654346      750.84726    
   3888000   294.45273      0.01485129     7.842332       730.54533     -27.511774      703.03355    
   3889000   296.61524      0.01485129     9.7062415      735.91058     -26.365854      709.54473    
   3890000   317.92282      0.01485129     8.3382874      788.77529     -24.065692      764.7096     
   3891000   295.87236      0.01485129     3.9505773      734.06749     -26.858359      707.20913    
   3892000   286.84654      0.01485129     8.6650082      711.67418     -31.702831      679.97135    
   3893000   306.10331      0.01485129     8.6351792      759.45075     -27.427392      732.02336    
   3894000   318.50755      0.01485129     5.5247973      790.22601     -28.635744      761.59026    
   3895000   289.11443      0.01485129     6.4672838      717.30088     -26.02522       691.27566    
   3896000   298.43602      0.01485129     9.1323328      740.42798     -28.926707      711.50128    
   3897000   306.0735       0.01485129     14.59243       759.37678     -34.532849      724.84393    
   3898000   317.87702      0.01485129     9.5391255      788.66166     -31.299219      757.36244    
   3899000   305.96356      0.01485129     6.0512374      759.10403     -31.934572      727.16945    
   3900000   294.20786      0.01485129     3.8879139      729.9378      -29.193306      700.7445     
   3901000   304.75187      0.01485129     8.5618147      756.09778     -32.784636      723.31314    
   3902000   306.27996      0.01485129     11.217419      759.88902     -27.194618      732.6944     
   3903000   299.16462      0.01485129     9.955497       742.23566     -29.452033      712.78363    
   3904000   303.07582      0.01485129     5.412653       751.93945     -32.543339      719.39612    
   3905000   294.15319      0.01485129     7.8738309      729.80217     -31.775745      698.02642    
   3906000   302.35711      0.01485129     9.006407       750.15631     -27.906017      722.2503     
   3907000   304.64819      0.01485129     8.4441092      755.84056     -28.78644       727.05412    
   3908000   293.12949      0.01485129     9.278366       727.26234     -26.740698      700.52165    
   3909000   295.02961      0.01485129     8.0035793      731.97659     -27.87703       704.09956    
   3910000   299.16297      0.01485129     8.9829582      742.23159     -24.240092      717.99149    
   3911000   299.94723      0.01485129     7.8047761      744.17736     -28.567175      715.61018    
   3912000   306.98484      0.01485129     7.0871093      761.63785     -25.84808       735.78977    
   3913000   294.89588      0.01485129     7.4352972      731.6448      -26.141348      705.50345    
   3914000   307.53865      0.01485129     8.3075778      763.01187     -31.897382      731.11448    
   3915000   284.01042      0.01485129     9.8622076      704.63767     -29.409852      675.22782    
   3916000   287.85006      0.01485129     7.1398471      714.16393     -29.577156      684.58678    
   3917000   308.95925      0.01485129     7.1210086      766.53643     -26.286331      740.2501     
   3918000   311.95073      0.01485129     9.0306837      773.95836     -26.550918      747.40745    
   3919000   275.172        0.01485129     6.2878112      682.70932     -31.829415      650.8799     
   3920000   299.71741      0.01485129     8.7286394      743.60715     -30.162811      713.44433    
   3921000   312.19675      0.01485129     10.160955      774.56875     -34.500556      740.0682     
   3922000   299.27317      0.01485129     4.7120293      742.50497     -35.402871      707.1021     
   3923000   293.13738      0.01485129     10.039182      727.28193     -32.273839      695.00809    
   3924000   294.06592      0.01485129     9.7304638      729.58564     -34.277939      695.3077     
   3925000   314.04185      0.01485129     2.1640335      779.14649     -33.293253      745.85323    
   3926000   297.05738      0.01485129     7.9241831      737.00754     -28.989263      708.01828    
   3927000   313.43023      0.01485129     10.045182      777.62904     -27.69184       749.9372     
   3928000   306.19358      0.01485129     6.4726812      759.67471     -26.256902      733.41781    
   3929000   293.9508       0.01485129     2.900712       729.30003     -22.203957      707.09608    
   3930000   289.48496      0.01485129     2.3939275      718.22017     -26.116563      692.10361    
   3931000   293.72726      0.01485129     10.315289      728.74542     -23.500591      705.24483    
   3932000   309.73221      0.01485129     12.03032       768.45415     -23.988245      744.4659     
   3933000   324.80988      0.01485129     15.077647      805.86226     -30.559889      775.30237    
   3934000   308.44627      0.01485129     8.1914265      765.2637      -33.750631      731.51307    
   3935000   297.53826      0.01485129     5.9360503      738.20063     -32.397845      705.80278    
   3936000   283.02672      0.01485129     11.118485      702.19709     -34.005612      668.19148    
   3937000   302.77808      0.01485129     8.7207288      751.20076     -29.075108      722.12565    
   3938000   318.77436      0.01485129     6.918329       790.88798     -30.805017      760.08296    
   3939000   297.04959      0.01485129     6.7020878      736.98822     -26.295892      710.69233    
   3940000   287.17366      0.01485129     8.1628168      712.48576     -32.928882      679.55688    
   3941000   301.85604      0.01485129     9.1202743      748.91316     -35.126354      713.78681    
   3942000   305.74515      0.01485129     10.140526      758.56216     -30.359162      728.203      
   3943000   314.17225      0.01485129     5.1169174      779.47002     -27.163777      752.30625    
   3944000   290.94121      0.01485129     7.5794463      721.83315     -29.652863      692.18029    
   3945000   291.90708      0.01485129     8.1950573      724.2295      -23.621983      700.60752    
   3946000   328.85383      0.01485129     18.720689      815.89542     -24.914406      790.98102    
   3947000   307.24473      0.01485129     9.3699415      762.28264     -24.632838      737.6498     
   3948000   301.12868      0.01485129     1.4011727      747.10855     -23.475109      723.63344    
   3949000   298.19042      0.01485129     7.3700188      739.81864     -20.003551      719.81509    
   3950000   304.79467      0.01485129     10.058493      756.20397     -21.063746      735.14023    
   3951000   303.1039       0.01485129     7.9201263      752.00914     -26.463019      725.54612    
   3952000   299.6875       0.01485129     7.3189343      743.53294     -30.323296      713.20964    
   3953000   299.43631      0.01485129     7.2203736      742.90975     -33.517148      709.3926     
   3954000   310.45815      0.01485129     10.026862      770.25523     -28.44118       741.81405    
   3955000   305.88678      0.01485129     7.8184839      758.91353     -28.841436      730.07209    
   3956000   286.35155      0.01485129     6.4341888      710.44608     -27.359062      683.08702    
   3957000   297.26484      0.01485129     7.9170757      737.52226     -27.792383      709.72988    
   3958000   312.20861      0.01485129     7.8181244      774.59816     -29.415468      745.18269    
   3959000   307.98158      0.01485129     7.7998828      764.11079     -27.601453      736.50934    
   3960000   294.66345      0.01485129     4.1636573      731.06813     -26.869278      704.19885    
   3961000   295.35488      0.01485129     10.719528      732.7836      -29.326102      703.4575     
   3962000   311.31584      0.01485129     5.2801884      772.38318     -27.173104      745.21008    
   3963000   302.86133      0.01485129     6.6929815      751.40732     -27.708347      723.69897    
   3964000   291.46109      0.01485129     7.1203497      723.12299     -26.592372      696.53062    
   3965000   300.5015       0.01485129     8.1199171      745.55251     -23.556948      721.99556    
   3966000   307.56463      0.01485129     11.134376      763.07632     -19.924205      743.15211    
   3967000   286.26577      0.01485129     3.3134479      710.23327     -22.126262      688.107      
   3968000   299.97973      0.01485129     5.9766126      744.25798     -21.300423      722.95756    
   3969000   315.06518      0.01485129     9.6208191      781.6854      -21.559701      760.1257     
   3970000   296.64209      0.01485129     8.120924       735.9772      -24.440567      711.53663    
   3971000   292.81558      0.01485129     6.5553411      726.48352     -19.476678      707.00685    
   3972000   312.27689      0.01485129     10.569449      774.76757     -19.450683      755.31689    
   3973000   300.89202      0.01485129     8.6577174      746.52139     -19.349162      727.17223    
   3974000   296.42755      0.01485129     7.6492383      735.44492     -22.221843      713.22308    
   3975000   298.28288      0.01485129     5.4224257      740.04804     -22.729445      717.31859    
   3976000   304.41372      0.01485129     9.4246284      755.25882     -19.867335      735.39149    
   3977000   300.6007       0.01485129     7.7833307      745.79862     -18.567527      727.23109    
   3978000   303.0221       0.01485129     7.955768       751.80617     -16.780483      735.02569    
   3979000   313.96435      0.01485129     9.8289469      778.95421     -20.539647      758.41456    
   3980000   297.89926      0.01485129     11.060274      739.09628     -20.005889      719.0904     
   3981000   290.80221      0.01485129     6.9943125      721.4883      -22.299393      699.18891    
   3982000   327.24012      0.01485129     7.4805068      811.89175     -25.221238      786.67051    
   3983000   308.87368      0.01485129     8.0478875      766.32411     -26.999029      739.32509    
   3984000   295.55711      0.01485129     7.0574341      733.28533     -28.28529       705.00004    
   3985000   284.05851      0.01485129     8.3049358      704.757       -32.173183      672.58382    
   3986000   294.71883      0.01485129     8.5360097      731.20553     -29.850603      701.35493    
   3987000   314.78391      0.01485129     9.8735455      780.98757     -35.272348      745.71522    
   3988000   301.27792      0.01485129     7.6655264      747.47882     -29.69218       717.78664    
   3989000   286.30147      0.01485129     7.0303131      710.32183     -27.897075      682.42475    
   3990000   307.2768       0.01485129     10.446627      762.36221     -26.818424      735.54379    
   3991000   308.50761      0.01485129     7.3170329      765.41589     -29.011744      736.40415    
   3992000   287.67092      0.01485129     7.4567547      713.71949     -22.563151      691.15634    
   3993000   306.20997      0.01485129     11.754091      759.71538     -24.473816      735.24156    
   3994000   311.39973      0.01485129     5.9805772      772.59132     -28.537012      744.0543     
   3995000   298.25212      0.01485129     8.1311244      739.97174     -30.27744       709.6943     
   3996000   297.97154      0.01485129     7.3416168      739.27562     -29.389708      709.88591    
   3997000   297.23229      0.01485129     8.987896       737.4415      -24.174415      713.26709    
   3998000   303.07445      0.01485129     7.6469833      751.93607     -26.52201       725.41406    
   3999000   290.14369      0.01485129     5.5588332      719.8545      -25.960507      693.894      
   4000000   313.48605      0.01485129     8.4291718      777.76754     -24.781558      752.98598    
Loop time of 6868.17 on 1 procs for 4000000 steps with 1500 atoms

Performance: 12.580 ns/day, 1.908 hours/ns, 582.397 timesteps/s, 873.596 katom-step/s
100.0% CPU use with 1 MPI tasks x 1 OpenMP threads

MPI task timing breakdown:
Section |  min time  |  avg time  |  max time  |%varavg| %total
---------------------------------------------------------------
Pair    | 684.92     | 684.92     | 684.92     |   0.0 |  9.97
Bond    | 89.239     | 89.239     | 89.239     |   0.0 |  1.30
Kspace  | 5581.2     | 5581.2     | 5581.2     |   0.0 | 81.26
Neigh   | 0.029578   | 0.029578   | 0.029578   |   0.0 |  0.00
Comm    | 18.104     | 18.104     | 18.104     |   0.0 |  0.26
Output  | 0.089117   | 0.089117   | 0.089117   |   0.0 |  0.00
Modify  | 481.91     | 481.91     | 481.91     |   0.0 |  7.02
Other   |            | 12.66      |            |       |  0.18

Nlocal:           1500 ave        1500 max        1500 min
Histogram: 1 0 0 0 0 0 0 0 0 0
Nghost:           1148 ave        1148 max        1148 min
Histogram: 1 0 0 0 0 0 0 0 0 0
Neighs:              0 ave           0 max           0 min
Histogram: 1 0 0 0 0 0 0 0 0 0

Total # of neighbors = 0
Ave neighs/atom = 0
Ave special neighs/atom = 2
Neighbor list builds = 17505
Dangerous builds = 0
write_data	last_conf.data pair ij
System init for write_data ...
PPPM initialization ...
  using 12-bit tables for long-range coulomb (src/kspace.cpp:342)
  G vector (1/distance) = 0.16093008
  grid = 27 27 27
  stencil order = 5
  estimated absolute RMS force accuracy = 0.039376449
  estimated relative force accuracy = 0.00011858101
  using double precision FFTW3
  3d grid and FFT values/proc = 32768 19683
Generated 1 of 1 mixed pair_coeff terms from arithmetic mixing rule
Total wall time: 1:54:28
