LAMMPS (29 Aug 2024 - Update 1)
  using 1 OpenMP thread(s) per MPI task
package gpu 1 gpuID 0
# GCMC for CO2 molecular fluid, rigid/small/nvt dynamics
# Rigid CO2 TraPPE model
# [Potoff and J.I. Siepmann, Vapor-liquid equilibria of
# mixtures containing alkanes, carbon dioxide and
# nitrogen AIChE J., 47,1676-1682 (2001)].

# global model settings

units           real
atom_style      full
boundary        p p p
pair_style      lj/cut/coul/long  12
pair_modify     mix arithmetic shift yes
kspace_style    pppm 1.0e-4
bond_style      harmonic
angle_style     harmonic
neigh_modify    one 4000

# box, start molecules on simple cubic lattice
region          mbox block 0 ${lbox} 0 ${lbox} 0 ${lbox} units box
region          mbox block 0 134 0 ${lbox} 0 ${lbox} units box
region          mbox block 0 134 0 134 0 ${lbox} units box
region          mbox block 0 134 0 134 0 134 units box
create_box      2 mbox                                       bond/types 1                                angle/types 1                               extra/bond/per/atom 2                       extra/angle/per/atom 1                      extra/special/per/atom 2
Created orthogonal box = (0 0 0) to (134 134 134)
  1 by 1 by 1 MPI processor grid
molecule        co2mol ../CO2.txt
Read molecule template co2mol:
# CO2 molecule file. TraPPE model.
  1 molecules
  0 fragments
  3 atoms with max type 2
  2 bonds with max type 1
  1 angles with max type 1
  0 dihedrals with max type 0
  0 impropers with max type 0
create_atoms   	0 random ${nmols} 34578 mbox mol co2mol 464563 overlap 1.2
create_atoms   	0 random 500 34578 mbox mol co2mol 464563 overlap 1.2
Created 1500 atoms
  using lattice units in orthogonal box = (0 0 0) to (134 134 134)
  create_atoms CPU = 0.008 seconds

# rigid CO2 TraPPE model

pair_coeff      1   1  0.053649   2.800
pair_coeff      2   2  0.156973   3.050
bond_coeff      1       0       1.16
angle_coeff     1       0       180

# masses

mass 1 12.0107
mass 2 15.9994

write_data init_conf.data  pair ij
System init for write_data ...
PPPM initialization ...
  using 12-bit tables for long-range coulomb (src/kspace.cpp:342)
  G vector (1/distance) = 0.16152872
  grid = 27 27 27
  stencil order = 5
  estimated absolute RMS force accuracy = 0.038726468
  estimated relative force accuracy = 0.00011662361
  using double precision FFTW3
  3d grid and FFT values/proc = 32768 19683
Generated 1 of 1 mixed pair_coeff terms from arithmetic mixing rule

# MD settings

group           co2 type 1 2
1500 atoms in group co2
velocity       	all create 300 54654
timestep        0.25

# rigid constraints with thermostat
fix             myrigidnvt co2 rigid/nvt molecule temp 300 300 $(100*dt)
fix             myrigidnvt co2 rigid/nvt molecule temp 300 300 25
  500 rigid bodies with 1500 atoms

thermo 1000
thermo_style custom step temp density press ke pe etotal


variable    mvol equal vol
variable    mden equal density
variable	mtmp equal temp
variable    mpre equal press

fix mydat all ave/time 1 4000 4000 v_mtmp v_mden v_mpre file statistics.dat ## every 1ps

run 4000000 ## 1ns

CITE-CITE-CITE-CITE-CITE-CITE-CITE-CITE-CITE-CITE-CITE-CITE-CITE

Your simulation uses code contributions which should be cited:

- GPU package (short-range, long-range and three-body potentials): doi:10.1016/j.cpc.2010.12.021, doi:10.1016/j.cpc.2011.10.012, doi:10.1016/j.cpc.2013.08.002, doi:10.1016/j.commatsci.2014.10.068, doi:10.1016/j.cpc.2016.10.020, doi:10.3233/APC200086

@Article{Brown11,
 author = {W. M. Brown and P. Wang and S. J. Plimpton and A. N. Tharrington},
 title = {Implementing Molecular Dynamics on Hybrid High Performance Computers---Short Range Forces},
 journal = {Comput.\ Phys.\ Commun.},
 year =    2011,
 volume =  182,
 pages =   {898--911},
 doi =     {10.1016/j.cpc.2010.12.021}
}

@Article{Brown12,
 author = {W. M. Brown and A. Kohlmeyer and S. J. Plimpton and A. N. Tharrington},
 title = {Implementing Molecular Dynamics on Hybrid High Performance Computers - Particle-Particle Particle-Mesh},
 journal = {Comput.\ Phys.\ Commun.},
 year =    2012,
 volume =  183,
 doi =     {10.1016/j.cpc.2011.10.012},
 pages =   {449--459}
}

@Article{Brown13,
 author = {W. M. Brown and Y. Masako},
 title = {Implementing Molecular Dynamics on Hybrid High Performance Computers---Three-Body Potentials},
 journal = {Comput.\ Phys.\ Commun.},
 year =    2013,
 volume =  184,
 pages =   {2785--2793},
 doi =     {10.1016/j.cpc.2013.08.002},
}

@Article{Trung15,
 author = {T. D. Nguyen and S. J. Plimpton},
 title = {Accelerating Dissipative Particle Dynamics Simulations for Soft Matter Systems},
 journal = {Comput.\ Mater.\ Sci.},
 year =    2015,
 doi =     {10.1016/j.commatsci.2014.10.068},
 volume =  100,
 pages =   {173--180}
}

@Article{Trung17,
 author = {T. D. Nguyen},
 title = {{GPU}-Accelerated {T}ersoff Potentials for Massively Parallel
    Molecular Dynamics Simulations},
 journal = {Comput.\ Phys.\ Commun.},
 year =    2017,
 doi =     {10.1016/j.cpc.2016.10.020},
 volume =  212,
 pages =   {113--122}
}

@inproceedings{Nikolskiy19,
 author = {V. Nikolskiy and V. Stegailov},
 title = {{GPU} Acceleration of Four-Site Water Models in {LAMMPS}},
 booktitle = {Proceedings of the International Conference on Parallel
    Computing (ParCo 2019), Prague, Czech Republic},
 doi =     {10.3233/APC200086},
 year =    2019
}

CITE-CITE-CITE-CITE-CITE-CITE-CITE-CITE-CITE-CITE-CITE-CITE-CITE

PPPM initialization ...
  using 12-bit tables for long-range coulomb (src/kspace.cpp:342)
  G vector (1/distance) = 0.16152872
  grid = 27 27 27
  stencil order = 5
  estimated absolute RMS force accuracy = 0.038726468
  estimated relative force accuracy = 0.00011662361
  using double precision FFTW3
  3d grid and FFT values/proc = 32768 19683
Generated 1 of 1 mixed pair_coeff terms from arithmetic mixing rule
Per MPI rank memory allocation (min/avg/max) = 10.39 | 10.39 | 10.39 Mbytes
   Step          Temp         Density         Press          KinEng         PotEng         TotEng    
         0   307.41471      0.01518627    -177.57695      762.70438      20819.173      21581.878    
      1000   315.07836      0.01518627     13.175563      781.71809     -19.033359      762.68473    
      2000   318.15454      0.01518627     6.4595782      789.35018     -24.902384      764.4478     
      3000   293.2758       0.01518627     4.9148841      727.62534     -29.761797      697.86354    
      4000   302.82678      0.01518627     9.3397387      751.3216      -35.783037      715.53856    
      5000   322.83037      0.01518627     16.684393      800.95106     -40.447447      760.50361    
      6000   304.98412      0.01518627     8.9312276      756.674       -44.489006      712.18499    
      7000   289.89109      0.01518627     8.1786774      719.22779     -45.937808      673.28998    
      8000   296.00762      0.01518627     7.79569        734.40305     -51.05176       683.35129    
      9000   291.2632       0.01518627     8.958666       722.63204     -50.427187      672.20485    
     10000   300.53818      0.01518627     9.1353493      745.64351     -52.987279      692.65623    
     11000   307.19916      0.01518627     9.0500711      762.16959     -55.536795      706.63279    
     12000   295.66546      0.01518627     9.394617       733.55415     -56.278464      677.27569    
     13000   297.99448      0.01518627     8.3736895      739.33251     -56.525616      682.80689    
     14000   305.81081      0.01518627     10.008494      758.72505     -58.177023      700.54803    
     15000   304.09476      0.01518627     3.4286793      754.46749     -59.059676      695.40782    
     16000   301.44292      0.01518627     8.1046815      747.8882      -58.268954      689.61925    
     17000   312.74456      0.01518627     12.794623      775.92786     -62.305297      713.62257    
     18000   302.78488      0.01518627     8.5332537      751.21764     -62.197853      689.01979    
     19000   281.75005      0.01518627     8.6014107      699.02963     -66.618129      632.41151    
     20000   303.58103      0.01518627     7.0316324      753.19291     -63.873276      689.31964    
     21000   299.20268      0.01518627     9.5348865      742.33011     -57.604691      684.72542    
     22000   296.6113       0.01518627     4.5716711      735.90082     -67.045975      668.85484    
     23000   298.36851      0.01518627     7.395634       740.2605      -70.388368      669.87213    
     24000   311.12407      0.01518627     8.4929144      771.9074      -71.813443      700.09395    
     25000   296.22891      0.01518627     6.6666261      734.9521      -74.99961       659.95249    
     26000   295.56255      0.01518627     7.4128495      733.29883     -75.533622      657.76521    
     27000   305.56788      0.01518627     7.5935939      758.12233     -79.974596      678.14774    
     28000   297.29378      0.01518627     8.2336227      737.59406     -77.286065      660.30799    
     29000   292.02974      0.01518627     13.030829      724.53384     -73.849005      650.68483    
     30000   307.83733      0.01518627     7.5926699      763.7529      -72.769707      690.98319    
     31000   304.0857       0.01518627     7.1496112      754.445       -77.677096      676.7679     
     32000   288.41064      0.01518627     7.7338147      715.55474     -77.608026      637.94672    
     33000   301.28096      0.01518627     10.109861      747.48638     -82.17742       665.30896    
     34000   309.00053      0.01518627     9.6594358      766.63884     -82.968331      683.67051    
     35000   295.68146      0.01518627     4.5976422      733.59384     -88.820518      644.77332    
     36000   286.38356      0.01518627     6.6209642      710.52551     -88.284951      622.24056    
     37000   303.12081      0.01518627     9.0744971      752.05109     -88.268313      663.78278    
     38000   299.22165      0.01518627     11.198557      742.37716     -94.111788      648.26538    
     39000   287.67446      0.01518627     4.4864475      713.72826     -96.102471      617.62579    
     40000   301.98353      0.01518627     20.09376       749.22947     -93.900603      655.32887    
     41000   310.89038      0.01518627     9.2484927      771.32759     -93.523144      677.80445    
     42000   303.55918      0.01518627     10.869155      753.1387      -97.222259      655.91645    
     43000   298.89013      0.01518627     3.4905371      741.55466     -98.707591      642.84707    
     44000   301.33954      0.01518627     8.1524125      747.6317      -97.267679      650.36402    
     45000   312.70767      0.01518627     3.7260068      775.83634     -97.412922      678.42342    
     46000   279.66482      0.01518627     8.4675232      693.85612     -98.215844      595.64028    
     47000   296.17454      0.01518627     9.9958528      734.8172      -94.312072      640.50513    
     48000   300.62399      0.01518627     7.9098142      745.8564      -97.034554      648.82185    
     49000   307.89269      0.01518627     10.563221      763.89026     -98.132141      665.75812    
     50000   299.33269      0.01518627     3.7957444      742.65265     -98.38674       644.26591    
     51000   278.29405      0.01518627     7.3532396      690.4552      -93.165587      597.28961    
     52000   298.93243      0.01518627     8.5800645      741.65959     -101.04178      640.61781    
     53000   315.97311      0.01518627     10.669459      783.93799     -95.561916      688.37607    
     54000   302.3922       0.01518627     8.2578705      750.24338     -95.81152       654.43186    
     55000   291.46354      0.01518627     5.8077075      723.12908     -103.92062      619.20846    
     56000   290.34438      0.01518627     6.5947069      720.3524      -110.20186      610.15054    
     57000   296.78249      0.01518627     8.2338057      736.32554     -103.33105      632.99449    
     58000   308.48272      0.01518627     7.5809293      765.35413     -102.50738      662.84675    
     59000   305.07167      0.01518627     8.5173677      756.89123     -102.98986      653.90136    
     60000   301.46415      0.01518627     6.091          747.94086     -101.66762      646.27324    
     61000   300.29633      0.01518627     7.2276724      745.04347     -103.19755      641.84592    
     62000   279.40355      0.01518627     9.3273344      693.2079      -99.58302       593.62488    
     63000   303.37293      0.01518627     7.9777782      752.67659     -103.58597      649.09063    
     64000   303.9499       0.01518627     6.6172093      754.10808     -106.18618      647.92191    
     65000   295.19506      0.01518627     11.383483      732.38707     -106.0946       626.29247    
     66000   285.76316      0.01518627     10.69037       708.98629     -104.8622       604.12408    
     67000   311.21067      0.01518627     6.9203529      772.12225     -103.47026      668.65198    
     68000   304.51894      0.01518627     1.8998117      755.5199      -103.52859      651.99131    
     69000   296.54899      0.01518627     3.5556293      735.74622     -101.18183      634.56439    
     70000   290.17923      0.01518627     9.3267255      719.94267     -103.35218      616.5905     
     71000   286.43418      0.01518627     6.6690597      710.6511      -104.74639      605.90471    
     72000   289.88801      0.01518627     8.1601067      719.22015     -100.9719       618.24825    
     73000   313.62861      0.01518627     3.8833421      778.12123     -100.44739      677.67383    
     74000   296.8722       0.01518627     10.150457      736.54811     -103.87625      632.67185    
     75000   292.24288      0.01518627     9.6811003      725.06264     -106.80539      618.25725    
     76000   310.30018      0.01518627    -8.4915947      769.86329     -103.48203      666.38127    
     77000   306.80751      0.01518627     9.0159669      761.19788     -107.58531      653.61257    
     78000   295.41604      0.01518627     9.0867537      732.93533     -107.97839      624.95694    
     79000   295.01424      0.01518627     11.591051      731.93846     -112.35576      619.5827     
     80000   299.69584      0.01518627     6.2742103      743.55365     -105.91392      637.63973    
     81000   312.70602      0.01518627    -0.12572062     775.83226     -108.21165      667.6206     
     82000   302.412        0.01518627     11.339228      750.2925      -107.02094      643.27156    
     83000   296.31903      0.01518627     13.850772      735.17569     -108.8673       626.30839    
     84000   291.66147      0.01518627     6.0059447      723.62016     -102.97189      620.64827    
     85000   307.11839      0.01518627     4.471896       761.96919     -105.00027      656.96892    
     86000   299.52371      0.01518627     12.027332      743.12659     -107.48038      635.6462     
     87000   304.8509       0.01518627     2.5598505      756.34348     -107.3846       648.95889    
     88000   309.12929      0.01518627     10.811136      766.95829     -106.44991      660.50838    
     89000   300.85567      0.01518627     23.587251      746.43121     -109.4581       636.97312    
     90000   296.1803       0.01518627     3.3959319      734.83149     -105.86345      628.96804    
     91000   311.24055      0.01518627    -3.5253981      772.19639     -106.79593      665.40045    
     92000   302.33498      0.01518627     10.27253       750.10143     -111.04702      639.05441    
     93000   286.62446      0.01518627     4.3095097      711.1232      -108.88719      602.23601    
     94000   295.86515      0.01518627    -9.8988819      734.04959     -115.83739      618.2122     
     95000   303.56746      0.01518627     7.5638506      753.15925     -114.15452      639.00473    
     96000   305.6598       0.01518627     6.6959829      758.35039     -114.3623       643.98809    
     97000   288.98034      0.01518627     10.785195      716.96818     -114.69862      602.26957    
     98000   293.65421      0.01518627    -7.148979       728.56418     -110.0374       618.52679    
     99000   305.13767      0.01518627     12.949085      757.05498     -110.89859      646.1564     
    100000   302.65288      0.01518627     9.6407857      750.89013     -109.83973      641.0504     
    101000   294.31608      0.01518627     5.5742055      730.20631     -111.34417      618.86214    
    102000   305.32698      0.01518627     4.2712191      757.52466     -113.70004      643.82462    
    103000   308.13308      0.01518627     8.5314811      764.48666     -113.78177      650.70488    
    104000   293.9193       0.01518627     8.0226747      729.22188     -110.0578       619.16408    
    105000   293.361        0.01518627     7.2686198      727.83672     -110.96145      616.87526    
    106000   303.06174      0.01518627     7.4495219      751.90454     -109.57956      642.32498    
    107000   301.48808      0.01518627     10.226723      748.00023     -109.8128       638.18744    
    108000   303.77672      0.01518627     7.3433564      753.67842     -110.84455      642.83387    
    109000   302.06964      0.01518627     6.7990052      749.44311     -110.32049      639.12262    
    110000   294.31722      0.01518627     8.2124214      730.20914     -106.72758      623.48156    
    111000   303.71983      0.01518627     8.7382082      753.53726     -104.83181      648.70545    
    112000   309.50009      0.01518627     13.162065      767.87826     -105.20785      662.67041    
    113000   289.60753      0.01518627     7.4321903      718.52427     -102.3162       616.20808    
    114000   279.87398      0.01518627    -1.539574       694.37507     -99.211996      595.16307    
    115000   301.08774      0.01518627     6.9015024      747.00699     -104.38399      642.623      
    116000   305.41471      0.01518627     5.4415212      757.74232     -103.52916      654.21316    
    117000   312.23274      0.01518627     8.2261005      774.65804     -101.42227      673.23577    
    118000   293.29796      0.01518627     8.0091608      727.68033     -101.57786      626.10247    
    119000   304.96182      0.01518627     5.5317233      756.61868     -99.493683      657.125      
    120000   298.19153      0.01518627     8.4422727      739.8214      -97.598367      642.22303    
    121000   286.6381       0.01518627     10.973626      711.15702     -92.700223      618.4568     
    122000   290.00557      0.01518627    -1.1229869      719.51181     -94.28471       625.2271     
    123000   314.55655      0.01518627     4.2785815      780.42347     -91.350992      689.07247    
    124000   309.40327      0.01518627     9.6285431      767.63805     -92.663782      674.97427    
    125000   295.05         0.01518627     9.3674687      732.02719     -96.872838      635.15436    
    126000   281.49077      0.01518627     6.3923032      698.38636     -96.087399      602.29896    
    127000   300.49287      0.01518627     6.3730387      745.53109     -96.189826      649.34127    
    128000   311.29536      0.01518627     8.1189418      772.33238     -99.120737      673.21164    
    129000   302.32172      0.01518627     8.2104895      750.06851     -102.80735      647.26116    
    130000   291.27595      0.01518627     8.1175051      722.66367     -101.54849      621.11518    
    131000   298.40112      0.01518627     9.133539       740.3414      -108.2909       632.0505     
    132000   312.36396      0.01518627     7.6402576      774.98358     -107.86957      667.11402    
    133000   293.62382      0.01518627     5.47312        728.48878     -100.70349      627.78529    
    134000   287.56859      0.01518627     11.827632      713.46559     -98.98847       614.47712    
    135000   307.62364      0.01518627     10.528617      763.22272     -99.709324      663.5134     
    136000   311.82306      0.01518627     8.9929295      773.6416      -99.205963      674.43564    
    137000   288.77896      0.01518627     5.8502796      716.46856     -106.07099      610.39757    
    138000   306.31734      0.01518627     7.3563065      759.98175     -104.6932       655.28856    
    139000   305.00975      0.01518627     8.8106741      756.73759     -107.60026      649.13734    
    140000   297.68744      0.01518627     7.2734117      738.57075     -108.30577      630.26498    
    141000   302.09282      0.01518627     7.3914475      749.50062     -113.11478      636.38584    
    142000   309.19847      0.01518627     6.8784722      767.12993     -111.00445      656.12548    
    143000   300.00075      0.01518627     8.013193       744.31014     -106.69661      637.61353    
    144000   307.83609      0.01518627     7.5207708      763.74982     -101.59951      662.15032    
    145000   312.44152      0.01518627     7.6277622      775.17602     -100.49113      674.68489    
    146000   284.93306      0.01518627     5.8206323      706.92679     -99.252465      607.67432    
    147000   298.56933      0.01518627     7.6387149      740.75873     -99.452036      641.3067     
    148000   309.37803      0.01518627     7.8131107      767.57541     -104.36723      663.20818    
    149000   308.86056      0.01518627     7.972362       766.29156     -98.277654      668.01391    
    150000   282.41347      0.01518627     6.5041404      700.6756      -96.656288      604.01931    
    151000   297.2076       0.01518627     8.4226897      737.38025     -102.88804      634.49221    
    152000   318.9          0.01518627     7.70528        791.1997      -98.121515      693.07818    
    153000   298.02125      0.01518627     9.3238718      739.39893     -99.03442       640.36451    
    154000   280.55564      0.01518627     2.4033784      696.06627     -100.25953      595.80674    
    155000   306.46398      0.01518627     7.5944572      760.34559     -97.918692      662.4269     
    156000   304.67698      0.01518627     10.241165      755.91198     -92.28311       663.62887    
    157000   283.9478       0.01518627     8.2625551      704.48232     -91.368906      613.11342    
    158000   304.89435      0.01518627     5.4640692      756.45129     -91.819102      664.63219    
    159000   307.02221      0.01518627     3.4623696      761.73057     -87.22042       674.51015    
    160000   307.45498      0.01518627     7.9271629      762.80429     -93.089065      669.71522    
    161000   285.03601      0.01518627     7.8157985      707.1822      -91.324334      615.85787    
    162000   306.02913      0.01518627     7.4262347      759.26672     -97.678867      661.58785    
    163000   304.79529      0.01518627     8.328406       756.20552     -98.036455      658.16906    
    164000   297.03052      0.01518627     7.3309402      736.9409      -98.973539      637.96736    
    165000   293.46707      0.01518627     7.9144756      728.09988     -99.831409      628.26847    
    166000   294.31835      0.01518627     7.768102       730.21194     -101.06146      629.15048    
    167000   313.11851      0.01518627     7.8624928      776.85566     -97.836636      679.01903    
    168000   306.0267       0.01518627     7.2501772      759.26068     -92.728905      666.53177    
    169000   288.98588      0.01518627     8.9442522      716.98195     -93.380332      623.60161    
    170000   295.43685      0.01518627     5.8292334      732.98696     -93.594215      639.39275    
    171000   304.80183      0.01518627     10.755652      756.22175     -90.628692      665.59306    
    172000   295.30386      0.01518627     5.6365998      732.65702     -98.29455       634.36247    
    173000   297.50223      0.01518627     5.2073793      738.11122     -99.76347       638.34775    
    174000   296.83227      0.01518627    -4.0872341      736.44904     -102.55092      633.89813    
    175000   308.42985      0.01518627     8.9558553      765.22297     -94.575358      670.64761    
    176000   309.22037      0.01518627     15.378866      767.18426     -94.4117        672.77256    
    177000   299.07732      0.01518627     5.357494       742.01907     -90.91203       651.10704    
    178000   316.18778      0.01518627     7.1464189      784.4706      -91.666127      692.80447    
    179000   298.41492      0.01518627     9.1671357      740.37563     -82.773253      657.60238    
    180000   298.45753      0.01518627     8.0580343      740.48136     -85.372323      655.10904    
    181000   306.61031      0.01518627     8.0924707      760.70862     -82.342108      678.36652    
    182000   308.73211      0.01518627     8.7982212      765.97289     -85.830469      680.14242    
    183000   289.35084      0.01518627     9.5502913      717.88741     -82.578467      635.30895    
    184000   288.93063      0.01518627     1.6892237      716.84485     -83.692771      633.15208    
    185000   314.05269      0.01518627    -3.5046247      779.17337     -81.869038      697.30434    
    186000   302.41236      0.01518627     10.945704      750.29341     -90.822881      659.47053    
    187000   284.56856      0.01518627     8.6756732      706.02244     -88.044038      617.9784     
    188000   306.67579      0.01518627     6.1729075      760.87108     -90.173789      670.69729    
    189000   299.27486      0.01518627     9.5283566      742.50918     -89.59173       652.91745    
    190000   289.23856      0.01518627     7.1232507      717.60885     -95.263959      622.34489    
    191000   306.49248      0.01518627     3.9210434      760.4163      -99.27988       661.13642    
    192000   314.45686      0.01518627     8.7418099      780.17615     -90.894282      689.28187    
    193000   292.56832      0.01518627     8.4107682      725.87006     -94.376742      631.49332    
    194000   303.72219      0.01518627     7.9142609      753.54313     -86.196766      667.34636    
    195000   316.44578      0.01518627     7.8569155      785.1107      -87.61408       697.49662    
    196000   316.97056      0.01518627     8.2750904      786.4127      -81.507096      704.9056     
    197000   289.67764      0.01518627     6.6986119      718.69821     -84.276498      634.42171    
    198000   292.65325      0.01518627     9.3397887      726.08078     -85.181873      640.8989     
    199000   316.00898      0.01518627     9.3733922      784.02699     -88.130816      695.89617    
    200000   299.20096      0.01518627     4.8882959      742.32582     -84.028124      658.2977     
    201000   290.35018      0.01518627     6.9347888      720.36681     -89.854914      630.51189    
    202000   308.66612      0.01518627     7.9781516      765.80916     -85.675961      680.1332     
    203000   298.19868      0.01518627     4.1162905      739.83915     -80.207775      659.63138    
    204000   288.79418      0.01518627     7.0837202      716.50632     -80.790835      635.71548    
    205000   313.03115      0.01518627     11.058398      776.6389      -82.840247      693.79866    
    206000   302.98112      0.01518627     6.4784714      751.70451     -81.848552      669.85596    
    207000   291.32173      0.01518627     7.2908898      722.77724     -85.855551      636.92169    
    208000   308.74326      0.01518627     7.9659823      766.00054     -91.752628      674.24791    
    209000   304.0165       0.01518627     9.6751429      754.27332     -89.114798      665.15853    
    210000   287.48883      0.01518627     9.0794334      713.26771     -76.898878      636.36884    
    211000   308.48304      0.01518627     4.8658362      765.35492     -80.458809      684.89611    
    212000   305.49634      0.01518627     8.1995694      757.94484     -79.736683      678.20816    
    213000   298.61957      0.01518627     7.5619976      740.88338     -77.337681      663.5457     
    214000   294.14302      0.01518627     10.34608       729.77693     -78.696887      651.08005    
    215000   297.32855      0.01518627     4.74912        737.68032     -77.36179       660.31853    
    216000   306.67492      0.01518627     4.9438398      760.86893     -75.527705      685.34122    
    217000   294.19729      0.01518627     12.568357      729.91158     -76.603709      653.30787    
    218000   285.67116      0.01518627    -0.042563413    708.75801     -80.613625      628.14439    
    219000   301.34975      0.01518627    -4.7596435      747.65705     -76.617712      671.03933    
    220000   305.13852      0.01518627     12.012878      757.05708     -65.253282      691.8038     
    221000   281.62274      0.01518627     10.798124      698.71378     -72.468883      626.2449     
    222000   301.41276      0.01518627     5.4939773      747.81337     -73.869295      673.94407    
    223000   305.48486      0.01518627     6.9493925      757.91637     -74.77201       683.14436    
    224000   290.23233      0.01518627     17.071725      720.07441     -72.573373      647.50104    
    225000   298.05043      0.01518627     5.2282048      739.47132     -72.69737       666.77395    
    226000   304.9581       0.01518627     6.9940583      756.60945     -74.605623      682.00383    
    227000   303.94972      0.01518627     11.098641      754.10763     -80.244999      673.86263    
    228000   291.08994      0.01518627     6.8944545      722.20216     -75.230482      646.97168    
    229000   312.18115      0.01518627     7.0213259      774.53004     -75.565708      698.96433    
    230000   313.21096      0.01518627     8.4659751      777.08503     -77.646099      699.43893    
    231000   292.27364      0.01518627     11.498722      725.13895     -77.639705      647.49925    
    232000   282.51147      0.01518627     6.1087395      700.91875     -74.014948      626.9038     
    233000   318.94812      0.01518627     5.8069915      791.31909     -78.321736      712.99735    
    234000   317.20492      0.01518627     8.3791015      786.99414     -70.451211      716.54293    
    235000   302.52175      0.01518627     8.9412973      750.56479     -69.005737      681.55906    
    236000   293.84798      0.01518627     7.7303257      729.04493     -73.8502        655.19473    
    237000   300.51193      0.01518627     7.7805367      745.57839     -74.166214      671.41218    
    238000   311.28209      0.01518627     8.3594315      772.29945     -73.500719      698.79873    
    239000   282.69843      0.01518627     6.3299881      701.3826      -76.986849      624.39575    
    240000   295.73703      0.01518627     7.2287709      733.73172     -78.673007      655.05872    
    241000   317.43865      0.01518627     7.5554875      787.57405     -75.442485      712.13157    
    242000   306.8928       0.01518627     4.5595023      761.40949     -73.648919      687.76057    
    243000   294.83553      0.01518627     7.1673635      731.49508     -70.495556      660.99952    
    244000   300.15616      0.01518627     10.278215      744.69571     -74.131497      670.56421    
    245000   305.42544      0.01518627     8.0731984      757.76893     -81.105246      676.66369    
    246000   305.21139      0.01518627     6.6832405      757.23786     -82.488186      674.74968    
    247000   299.85754      0.01518627     8.3084576      743.95482     -83.025852      660.92897    
    248000   290.29426      0.01518627     14.810554      720.22806     -77.517692      642.71037    
    249000   312.66689      0.01518627     7.8973158      775.73517     -84.209513      691.52566    
    250000   307.86231      0.01518627     7.1349517      763.81488     -80.70342       683.11146    
    251000   292.13769      0.01518627     8.4202081      724.80166     -71.379463      653.4222     
    252000   303.35245      0.01518627     8.4603121      752.62578     -71.124004      681.50178    
    253000   307.5498       0.01518627     5.3813136      763.03953     -76.387418      686.65211    
    254000   302.92928      0.01518627     6.0793561      751.5759      -78.184843      673.39106    
    255000   291.85802      0.01518627     7.2137102      724.10779     -79.687691      644.4201     
    256000   280.43661      0.01518627     8.7771286      695.77096     -74.330071      621.44089    
    257000   314.48579      0.01518627     9.1112801      780.24791     -71.206302      709.04161    
    258000   305.7538       0.01518627    -0.63439573     758.5836      -70.908587      687.67502    
    259000   291.52248      0.01518627     8.0740741      723.27532     -79.959556      643.31576    
    260000   288.73238      0.01518627     11.869864      716.35301     -74.790242      641.56276    
    261000   301.16784      0.01518627     15.869192      747.20572     -76.932545      670.27318    
    262000   312.96991      0.01518627     11.883948      776.48697     -76.416768      700.0702     
    263000   301.00254      0.01518627     3.7338276      746.7956      -77.10714       669.68846    
    264000   303.35034      0.01518627     2.03234        752.62056     -83.387769      669.23279    
    265000   304.13666      0.01518627     7.4237885      754.57145     -75.379922      679.19152    
    266000   296.09096      0.01518627     12.394563      734.60982     -83.893671      650.71615    
    267000   308.94855      0.01518627     18.975912      766.50986     -76.638273      689.87159    
    268000   297.19196      0.01518627     7.0005561      737.34146     -72.966548      664.37491    
    269000   306.06351      0.01518627     4.9521187      759.352       -71.167651      688.18435    
    270000   303.58483      0.01518627     5.2969472      753.20233     -69.854218      683.34811    
    271000   289.02527      0.01518627     7.423895       717.07966     -69.506762      647.5729     
    272000   301.60076      0.01518627     10.08307       748.27979     -67.3597        680.92009    
    273000   312.33718      0.01518627     6.8111662      774.91714     -65.912772      709.00437    
    274000   290.2069       0.01518627     8.5447243      720.01131     -71.591491      648.41982    
    275000   294.2995       0.01518627     9.6231854      730.16517     -74.221832      655.94334    
    276000   287.70284      0.01518627     4.0611171      713.79867     -70.37967       643.419      
    277000   298.94014      0.01518627     1.7577238      741.67873     -68.168753      673.50997    
    278000   308.38661      0.01518627     9.8206377      765.11569     -69.924283      695.1914     
    279000   312.72073      0.01518627     32.038642      775.86876     -69.347465      706.52129    
    280000   293.94924      0.01518627     0.25219954     729.29616     -66.026744      663.26942    
    281000   305.56537      0.01518627     2.1766009      758.11611     -64.927176      693.18893    
    282000   306.09619      0.01518627     13.839861      759.43307     -69.303433      690.12964    
    283000   303.0505       0.01518627     20.299505      751.87664     -72.439923      679.43672    
    284000   286.79409      0.01518627     8.4071927      711.54404     -70.180861      641.36318    
    285000   311.31626      0.01518627    -1.7842656      772.38421     -65.976147      706.40806    
    286000   308.86418      0.01518627     14.846418      766.30053     -68.357215      697.94332    
    287000   301.73145      0.01518627     5.3095571      748.60405     -65.253101      683.35095    
    288000   292.23624      0.01518627     0.64406694     725.04616     -57.631209      667.41495    
    289000   304.09347      0.01518627    -5.8547908      754.46428     -61.623379      692.8409     
    290000   302.7539       0.01518627     10.006314      751.14078     -59.767368      691.37341    
    291000   296.91735      0.01518627     14.955478      736.66012     -54.396559      682.26357    
    292000   286.24433      0.01518627     11.683867      710.18008     -58.33727       651.84281    
    293000   296.71146      0.01518627     2.6333321      736.14931     -56.76329       679.38602    
    294000   297.73812      0.01518627     10.48776       738.69648     -57.949668      680.74681    
    295000   293.10746      0.01518627     7.7632073      727.20769     -54.501072      672.70662    
    296000   313.36212      0.01518627     1.5610064      777.46005     -55.040679      722.41938    
    297000   311.55196      0.01518627     5.2420332      772.96901     -59.179596      713.78941    
    298000   293.42299      0.01518627     10.438897      727.99052     -54.463172      673.52735    
    299000   294.33309      0.01518627     4.6613275      730.2485      -57.613333      672.63517    
    300000   308.59454      0.01518627     7.763585       765.63157     -58.573066      707.0585     
    301000   294.87491      0.01518627     8.6686055      731.59278     -46.786282      684.8065     
    302000   297.01308      0.01518627     5.8094361      736.89763     -49.269224      687.62841    
    303000   301.34008      0.01518627     9.7024267      747.63305     -49.555838      698.07721    
    304000   290.08847      0.01518627     12.319393      719.71749     -53.443448      666.27404    
    305000   310.46124      0.01518627     8.2127978      770.26291     -53.806513      716.45639    
    306000   307.68392      0.01518627     9.4051454      763.37229     -55.107834      708.26446    
    307000   290.55126      0.01518627     8.8793295      720.86567     -53.853144      667.01253    
    308000   283.83411      0.01518627     6.1722534      704.20026     -55.775523      648.42474    
    309000   314.56101      0.01518627     8.233409       780.43454     -56.035038      724.3995     
    310000   306.16105      0.01518627     8.0857432      759.594       -51.218117      708.37588    
    311000   283.75383      0.01518627     7.8949104      704.00108     -49.816568      654.18451    
    312000   303.31103      0.01518627     4.4305108      752.52302     -47.545613      704.9774     
    313000   311.41848      0.01518627     10.22669       772.63784     -53.580527      719.05731    
    314000   290.38151      0.01518627     6.842104       720.44454     -55.323463      665.12108    
    315000   286.3513       0.01518627     10.579346      710.44548     -57.955147      652.49033    
    316000   300.49281      0.01518627     1.9950566      745.53095     -53.354591      692.17636    
    317000   320.11083      0.01518627     8.4526013      794.20379     -53.690065      740.51372    
    318000   302.10591      0.01518627     17.885679      749.53308     -51.989895      697.54318    
    319000   284.84862      0.01518627     6.5567182      706.71729     -50.744843      655.97244    
    320000   299.05323      0.01518627     5.2104819      741.95931     -54.749247      687.21006    
    321000   303.21293      0.01518627     10.140531      752.27963     -50.334707      701.94492    
    322000   294.75458      0.01518627     9.4622462      731.29423     -53.572401      677.72183    
    323000   285.77225      0.01518627     7.6535787      709.00883     -50.603911      658.40492    
    324000   306.88568      0.01518627     6.3005087      761.39183     -53.552031      707.8398     
    325000   303.54944      0.01518627     9.3302241      753.11454     -56.508756      696.60578    
    326000   296.55748      0.01518627     9.4804874      735.76729     -56.529186      679.2381     
    327000   286.30657      0.01518627     8.1236201      710.3345      -57.918419      652.41609    
    328000   299.72993      0.01518627     8.1480736      743.63822     -55.650239      687.98799    
    329000   300.09341      0.01518627     7.1266307      744.54002     -54.884011      689.65601    
    330000   297.55464      0.01518627     7.7534508      738.24127     -50.897478      687.3438     
    331000   294.88216      0.01518627     7.1677793      731.61077     -54.321441      677.28932    
    332000   300.42899      0.01518627     10.284313      745.37259     -52.357645      693.01495    
    333000   301.95883      0.01518627     11.859472      749.16819     -55.145052      694.02314    
    334000   313.87446      0.01518627     7.2288466      778.73118     -53.192918      725.53826    
    335000   298.60154      0.01518627     4.4165598      740.83864     -54.540459      686.29819    
    336000   282.95219      0.01518627     9.7317565      702.01217     -59.060412      642.95176    
    337000   295.94201      0.01518627     10.762398      734.24028     -60.43116       673.80912    
    338000   319.36451      0.01518627     5.7395633      792.35215     -60.484241      731.86791    
    339000   307.50491      0.01518627    -2.2721606      762.92817     -49.480274      713.4479     
    340000   295.70566      0.01518627     3.3730138      733.6539      -53.949208      679.7047     
    341000   284.48763      0.01518627     8.0503334      705.82166     -54.244698      651.57696    
    342000   305.78093      0.01518627     15.545515      758.65092     -57.606862      701.04405    
    343000   310.40385      0.01518627    -1.0546365      770.12052     -57.492478      712.62804    
    344000   294.23261      0.01518627     8.9394924      729.99921     -56.214729      673.78448    
    345000   308.60002      0.01518627     13.044029      765.64515     -55.409579      710.23557    
    346000   314.94135      0.01518627     2.6171297      781.37817     -54.529243      726.84892    
    347000   317.53751      0.01518627     2.6591542      787.81932     -57.846894      729.97242    
    348000   291.08116      0.01518627     2.7192964      722.18038     -54.955248      667.22513    
    349000   297.8893       0.01518627     7.5719456      739.07156     -55.997792      683.07376    
    350000   302.98889      0.01518627     8.4946425      751.72379     -52.443006      699.28078    
    351000   314.05428      0.01518627     8.1286742      779.17733     -47.295531      731.8818     
    352000   290.4115       0.01518627     4.9511002      720.51895     -45.669127      674.84982    
    353000   308.67657      0.01518627     9.9033069      765.83509     -40.332908      725.50218    
    354000   293.65328      0.01518627     1.6226602      728.56187     -44.385459      684.17642    
    355000   292.35523      0.01518627     13.409863      725.34138     -43.983014      681.35837    
    356000   307.56718      0.01518627    -1.2584434      763.08265     -44.905089      718.17757    
    357000   301.3815       0.01518627     1.1093599      747.73582     -45.886062      701.84976    
    358000   289.99274      0.01518627     18.915197      719.47998     -44.575692      674.90429    
    359000   298.0896       0.01518627     4.5179382      739.56851     -43.330759      696.23775    
    360000   305.88965      0.01518627     4.3614624      758.92065     -46.942981      711.97767    
    361000   288.63462      0.01518627     3.4176725      716.11046     -44.66638       671.44408    
    362000   299.64281      0.01518627     10.03945       743.42208     -43.928101      699.49398    
    363000   286.0249       0.01518627     0.87258847     709.63565     -46.355853      663.2798     
    364000   301.27782      0.01518627     11.112312      747.47857     -47.148058      700.33051    
    365000   312.52426      0.01518627     8.6479745      775.3813      -44.56129       730.82001    
    366000   293.04492      0.01518627     2.1839818      727.05253     -44.708095      682.34444    
    367000   289.58471      0.01518627     7.1837394      718.46765     -48.804766      669.66288    
    368000   311.86896      0.01518627     9.1771659      773.75549     -47.821572      725.93392    
    369000   301.55058      0.01518627     8.4373476      748.1553      -42.893131      705.26217    
    370000   300.15869      0.01518627     9.0922823      744.70198     -46.929012      697.77297    
    371000   310.19574      0.01518627     9.2998666      769.60418     -44.819669      724.78452    
    372000   312.59512      0.01518627     8.1115665      775.55712     -44.095981      731.46114    
    373000   295.1774       0.01518627     7.919254       732.34328     -48.779937      683.56334    
    374000   296.76816      0.01518627     7.9855039      736.28999     -48.25328       688.03671    
    375000   308.65445      0.01518627     8.2597131      765.78021     -46.68686       719.09335    
    376000   303.79515      0.01518627     8.2862638      753.72413     -49.051253      704.67288    
    377000   273.82586      0.01518627     7.8643512      679.36951     -42.21828       637.15123    
    378000   301.13078      0.01518627     8.4369208      747.11376     -42.798136      704.31562    
    379000   320.09357      0.01518627     7.8614626      794.16097     -38.698563      755.4624     
    380000   293.57674      0.01518627     8.0889997      728.37199     -35.926492      692.4455     
    381000   283.12199      0.01518627     7.8964004      702.43347     -38.26486       664.16861    
    382000   310.88495      0.01518627     9.1609336      771.31413     -42.909568      728.40456    
    383000   304.57351      0.01518627     3.4129987      755.65528     -38.814344      716.84093    
    384000   291.47651      0.01518627     7.7598631      723.16126     -36.497228      686.66403    
    385000   299.87501      0.01518627     7.2851183      743.99817     -42.714225      701.28394    
    386000   309.61942      0.01518627     8.2831804      768.17432     -40.716621      727.4577     
    387000   289.03529      0.01518627     6.9064523      717.10453     -42.349733      674.7548     
    388000   289.53757      0.01518627     8.880222       718.35069     -42.086204      676.26449    
    389000   288.53513      0.01518627     7.3557955      715.86362     -43.080936      672.78268    
    390000   299.50007      0.01518627     9.7162612      743.06793     -40.816813      702.25112    
    391000   308.07427      0.01518627     7.4898414      764.34075     -44.038545      720.3022     
    392000   285.60195      0.01518627     5.9213164      708.58631     -39.05877       669.52754    
    393000   288.60372      0.01518627     8.7748976      716.03378     -39.594665      676.43912    
    394000   297.02194      0.01518627     9.0287483      736.91961     -43.436765      693.48285    
    395000   310.92457      0.01518627     7.082482       771.41243     -43.420926      727.99151    
    396000   290.74473      0.01518627     8.179585       721.34568     -45.303174      676.04251    
    397000   297.01326      0.01518627     9.1297611      736.89809     -38.348388      698.5497     
    398000   320.34801      0.01518627     8.6477082      794.79225     -45.987491      748.80476    
    399000   300.37264      0.01518627     9.0130043      745.23281     -48.774083      696.45872    
    400000   285.23887      0.01518627     8.2381127      707.68551     -48.294905      659.3906     
    401000   302.91968      0.01518627     8.6164924      751.55208     -44.167068      707.38501    
    402000   310.04161      0.01518627     7.9169392      769.22178     -47.54025       721.68153    
    403000   296.23956      0.01518627     7.5148863      734.9785      -46.903181      688.07532    
    404000   297.53734      0.01518627     8.6149391      738.19835     -47.406967      690.79138    
    405000   300.29352      0.01518627     8.3239261      745.03651     -42.152619      702.88389    
    406000   301.63636      0.01518627     3.7115547      748.36813     -49.122999      699.24513    
    407000   299.59085      0.01518627     10.215765      743.29314     -47.979941      695.3132     
    408000   299.71546      0.01518627     10.2853        743.60232     -50.409151      693.19317    
    409000   307.44771      0.01518627     4.2926221      762.78624     -49.785862      713.00038    
    410000   299.35642      0.01518627     5.5150294      742.71152     -46.532262      696.17926    
    411000   298.557        0.01518627     7.8931248      740.72815     -48.768676      691.95947    
    412000   288.83786      0.01518627     8.0925818      716.6147      -48.793694      667.821      
    413000   299.64728      0.01518627     3.7028396      743.43317     -42.772237      700.66093    
    414000   306.47166      0.01518627     8.6630577      760.36464     -39.623024      720.74162    
    415000   291.1944       0.01518627     12.169838      722.46134     -42.539992      679.92135    
    416000   290.6438       0.01518627     7.8926649      721.09529     -40.880202      680.21509    
    417000   310.5338       0.01518627     8.9880466      770.44291     -40.857775      729.58513    
    418000   310.41451      0.01518627     3.6921104      770.14697     -41.350771      728.79619    
    419000   296.97897      0.01518627     7.7977877      736.81301     -44.378659      692.43435    
    420000   297.05531      0.01518627     8.0143271      737.00241     -42.919538      694.08287    
    421000   313.00424      0.01518627     8.2647317      776.57214     -39.972067      736.60007    
    422000   302.28198      0.01518627     8.1636839      749.96992     -42.231981      707.73794    
    423000   287.48632      0.01518627     3.7433437      713.2615      -44.889623      668.37187    
    424000   292.64725      0.01518627     6.8020802      726.0659      -43.533917      682.53199    
    425000   297.33352      0.01518627     10.13518       737.69266     -47.974823      689.71784    
    426000   303.28367      0.01518627     12.695429      752.45516     -49.593213      702.86194    
    427000   302.43517      0.01518627     6.0653134      750.34998     -49.386512      700.96347    
    428000   297.33898      0.01518627     4.4380899      737.70622     -47.796103      689.91011    
    429000   303.85632      0.01518627     14.606666      753.8759      -43.027927      710.84798    
    430000   308.50106      0.01518627     7.8304207      765.39963     -45.142151      720.25748    
    431000   299.87178      0.01518627     1.9124138      743.99016     -45.331978      698.65818    
    432000   293.35735      0.01518627     11.172929      727.82767     -42.540894      685.28678    
    433000   300.60535      0.01518627     13.368915      745.81016     -42.716081      703.09408    
    434000   314.43473      0.01518627     4.5857936      780.12123     -40.031524      740.08971    
    435000   294.45558      0.01518627     4.0977712      730.55241     -38.129328      692.42308    
    436000   289.41856      0.01518627     3.7412857      718.05541     -42.169361      675.88605    
    437000   302.76217      0.01518627     15.23926       751.16129     -40.173272      710.98802    
    438000   291.39441      0.01518627    -7.4909095      722.95756     -38.903528      684.05403    
    439000   290.19921      0.01518627     12.60815       719.99223     -42.051888      677.94035    
    440000   305.02777      0.01518627     8.0826393      756.78231     -37.378901      719.40341    
    441000   308.03668      0.01518627     15.034792      764.2475      -37.143833      727.10367    
    442000   298.71483      0.01518627     7.3384868      741.11972     -38.808144      702.31158    
    443000   294.06812      0.01518627     8.5308684      729.5911      -42.686334      686.90477    
    444000   302.24241      0.01518627     8.2753707      749.87174     -46.201424      703.67032    
    445000   297.96763      0.01518627     8.2984649      739.26591     -41.955862      697.31005    
    446000   299.81157      0.01518627     15.689341      743.84078     -40.132857      703.70792    
    447000   304.40042      0.01518627     4.6210516      755.22583     -39.460506      715.76532    
    448000   310.74771      0.01518627     6.2752954      770.97362     -38.154947      732.81868    
    449000   292.58523      0.01518627     10.368123      725.91202     -39.802131      686.10989    
    450000   303.80299      0.01518627     11.525507      753.7436      -41.949314      711.79428    
    451000   302.26131      0.01518627     2.3005227      749.91865     -37.68195       712.2367     
    452000   305.28214      0.01518627     18.927711      757.4134      -35.573938      721.83946    
    453000   310.73259      0.01518627     16.920127      770.93612     -38.135457      732.80066    
    454000   291.5902       0.01518627     3.4422069      723.44333     -32.975525      690.46781    
    455000   285.0764       0.01518627    -1.3335367      707.28242     -37.220184      670.06223    
    456000   314.6199       0.01518627     10.389397      780.58065     -37.509984      743.07067    
    457000   310.19972      0.01518627     12.547821      769.61405     -35.295735      734.31831    
    458000   293.66056      0.01518627     4.1007022      728.57994     -35.0229        693.55704    
    459000   297.48379      0.01518627     15.668213      738.0655      -30.836852      707.22864    
    460000   314.63659      0.01518627     8.6976039      780.62206     -31.233981      749.38807    
    461000   301.1633       0.01518627    -0.18435521     747.19445     -37.063064      710.13138    
    462000   291.99844      0.01518627     1.7771038      724.45618     -34.628007      689.82817    
    463000   304.79084      0.01518627     26.3458        756.19449     -35.978101      720.21638    
    464000   300.48646      0.01518627     9.1160704      745.51519     -37.458927      708.05626    
    465000   302.58705      0.01518627     5.0879149      750.7268      -34.384696      716.34211    
    466000   301.12068      0.01518627    -11.902849      747.08871     -34.310293      712.77842    
    467000   305.52865      0.01518627     7.2638898      758.02501     -37.096401      720.92861    
    468000   302.64863      0.01518627     11.714451      750.87959     -32.994827      717.88477    
    469000   299.43848      0.01518627     18.437255      742.91511     -33.056083      709.85903    
    470000   294.8228       0.01518627     5.8298515      731.4635      -37.962823      693.50068    
    471000   284.87531      0.01518627     1.8693123      706.78349     -35.675658      671.10783    
    472000   308.03142      0.01518627     10.479512      764.23445     -38.635939      725.59851    
    473000   313.47664      0.01518627     9.7748698      777.74418     -41.056431      736.68775    
    474000   288.65414      0.01518627     7.2413747      716.15887     -35.768548      680.39032    
    475000   309.06154      0.01518627     13.000063      766.79019     -35.888478      730.90171    
    476000   304.44269      0.01518627     7.8205867      755.3307      -34.707303      720.6234     
    477000   294.03261      0.01518627     7.2874935      729.503       -43.732205      685.7708     
    478000   291.4851       0.01518627     6.6956277      723.18258     -43.511549      679.67103    
    479000   308.13751      0.01518627     8.7161969      764.49765     -40.427331      724.07032    
    480000   300.35519      0.01518627     8.9774961      745.18951     -37.110056      708.07946    
    481000   300.22083      0.01518627     8.2828291      744.85616     -40.913118      703.94304    
    482000   294.85023      0.01518627     7.2263473      731.53155     -40.225259      691.30629    
    483000   296.4562       0.01518627     9.550482       735.51602     -36.493356      699.02266    
    484000   312.92902      0.01518627     8.7621681      776.38553     -36.843387      739.54215    
    485000   294.1461       0.01518627     7.8749979      729.78459     -36.301011      693.48358    
    486000   296.1999       0.01518627     6.048349       734.88012     -36.472111      698.40801    
    487000   304.92982      0.01518627     9.4314316      756.5393      -36.544982      719.99432    
    488000   299.12991      0.01518627     9.9283758      742.14955     -43.525619      698.62393    
    489000   289.40391      0.01518627     9.204789       718.01907     -34.704921      683.31415    
    490000   291.26029      0.01518627     7.3784455      722.62481     -37.51818       685.10663    
    491000   301.86373      0.01518627     4.437612       748.93222     -39.686994      709.24523    
    492000   295.62089      0.01518627     7.1348995      733.44358     -38.848898      694.59468    
    493000   319.87752      0.01518627     11.279649      793.62495     -42.926221      750.69873    
    494000   299.78026      0.01518627     12.363134      743.76308     -47.295889      696.4672     
    495000   281.84863      0.01518627     3.3153515      699.27423     -44.046649      655.22758    
    496000   306.19862      0.01518627     6.9374277      759.68721     -44.176856      715.51035    
    497000   315.12733      0.01518627     10.114778      781.83959     -44.95837       736.88122    
    498000   292.19402      0.01518627     9.1034078      724.94141     -42.537361      682.40405    
    499000   288.36311      0.01518627     7.7860932      715.43683     -37.657798      677.77903    
    500000   296.57877      0.01518627     5.419292       735.82011     -39.361739      696.45838    
    501000   312.27934      0.01518627    -0.61270977     774.77366     -42.374708      732.39895    
    502000   306.91321      0.01518627     11.077035      761.46014     -38.322505      723.13764    
    503000   288.77389      0.01518627     5.8243378      716.45597     -33.648252      682.80772    
    504000   303.36794      0.01518627     6.9745508      752.66422     -33.584839      719.07938    
    505000   306.14586      0.01518627     10.207275      759.55631     -32.804024      726.75229    
    506000   299.94878      0.01518627     9.2002602      744.18119     -32.547196      711.634      
    507000   292.61741      0.01518627     3.4737183      725.99186     -32.677302      693.31456    
    508000   305.40598      0.01518627     7.2733902      757.72066     -36.69809       721.02257    
    509000   316.61742      0.01518627     10.864537      785.53655     -36.020114      749.51644    
    510000   295.15186      0.01518627     10.958712      732.27989     -30.543651      701.73624    
    511000   284.59817      0.01518627     7.9034256      706.0959      -28.562015      677.53389    
    512000   318.71247      0.01518627     8.308585       790.73443     -36.228137      754.5063     
    513000   313.08341      0.01518627     9.0547235      776.76856     -35.939478      740.82908    
    514000   297.06613      0.01518627     8.1170844      737.02926     -36.030332      700.99893    
    515000   291.72264      0.01518627     8.5323102      723.77191     -31.480473      692.29144    
    516000   314.54652      0.01518627     7.299232       780.39859     -31.546041      748.85255    
    517000   301.02569      0.01518627     10.070453      746.85303     -32.28426       714.56877    
    518000   292.52681      0.01518627     11.059503      725.76708     -35.657524      690.10955    
    519000   300.81269      0.01518627     4.6069649      746.32458     -38.595746      707.72884    
    520000   299.74736      0.01518627     6.0278998      743.68147     -34.215571      709.4659     
    521000   296.57296      0.01518627     8.4361305      735.80569     -38.692065      697.11363    
    522000   300.13748      0.01518627     8.4065355      744.64935     -42.132405      702.51695    
    523000   306.8148       0.01518627     7.5409938      761.21598     -42.231461      718.98452    
    524000   304.64911      0.01518627     6.7034299      755.84283     -38.987758      716.85507    
    525000   302.2082       0.01518627     6.8178191      749.78686     -38.211414      711.57545    
    526000   299.86216      0.01518627     11.995996      743.96628     -40.296258      703.67003    
    527000   307.55753      0.01518627     4.5927481      763.0587      -46.366813      716.69189    
    528000   299.07911      0.01518627     5.0130658      742.02351     -42.015148      700.00836    
    529000   304.14533      0.01518627     12.478477      754.59295     -34.853207      719.73974    
    530000   297.66183      0.01518627     16.665341      738.5072      -37.320281      701.18692    
    531000   287.32685      0.01518627     2.6529402      712.86584     -34.020237      678.8456     
    532000   301.45986      0.01518627     8.3999533      747.93023     -29.686208      718.24402    
    533000   295.36491      0.01518627     16.125576      732.80849     -25.959284      706.84921    
    534000   294.4686       0.01518627     10.513403      730.58472     -33.787279      696.79744    
    535000   306.27912      0.01518627     2.1464492      759.88693     -38.455386      721.43154    
    536000   302.72136      0.01518627     7.2306605      751.06004     -35.905947      715.1541     
    537000   295.77452      0.01518627     8.0495635      733.82474     -38.876374      694.94837    
    538000   292.98841      0.01518627     7.7969849      726.91233     -28.515289      698.39704    
    539000   302.51659      0.01518627     7.8474396      750.55201     -37.173898      713.37811    
    540000   295.32926      0.01518627     7.2672355      732.72004     -33.261219      699.45882    
    541000   296.66057      0.01518627     7.9493184      736.02305     -33.157532      702.86552    
    542000   303.37938      0.01518627     7.2254565      752.69262     -34.23883       718.45379    
    543000   304.08166      0.01518627     8.0351733      754.43498     -34.755181      719.6798     
    544000   294.14674      0.01518627     7.5478894      729.78617     -33.767732      696.01844    
    545000   294.76094      0.01518627     5.6773907      731.31002     -30.510397      700.79962    
    546000   302.49125      0.01518627     8.1604214      750.48913     -35.908095      714.58104    
    547000   304.28794      0.01518627     8.3273733      754.94676     -32.394158      722.5526     
    548000   295.50769      0.01518627     8.2391229      733.16273     -31.082536      702.0802     
    549000   295.74914      0.01518627     4.7683432      733.76177     -27.305465      706.45631    
    550000   296.88575      0.01518627     6.0092512      736.58174     -32.696881      703.88486    
    551000   318.26554      0.01518627     4.7278861      789.62557     -36.547896      753.07767    
    552000   295.1768       0.01518627     11.361837      732.34179     -36.940624      695.40116    
    553000   288.53332      0.01518627     2.6767527      715.85912     -35.088153      680.77097    
    554000   310.00473      0.01518627     6.7422367      769.13029     -36.34323       732.78706    
    555000   296.53379      0.01518627     13.443964      735.70851     -33.645344      702.06316    
    556000   298.40377      0.01518627     6.6930562      740.34797     -34.505678      705.8423     
    557000   300.3276       0.01518627     7.4483615      745.12105     -35.617179      709.50387    
    558000   310.76721      0.01518627     10.133143      771.02202     -39.795159      731.22687    
    559000   304.07867      0.01518627     7.9698763      754.42757     -37.919647      716.50792    
    560000   294.37537      0.01518627     8.7505655      730.3534      -38.586904      691.76649    
    561000   301.9702       0.01518627     7.8376392      749.1964      -38.474216      710.72218    
    562000   288.43278      0.01518627     7.615554       715.60969     -41.277266      674.33242    
    563000   290.5196       0.01518627     7.5790209      720.78713     -40.536938      680.25019    
    564000   304.61956      0.01518627     9.2611163      755.76953     -42.774767      712.99477    
    565000   303.19523      0.01518627     7.97768        752.23573     -41.229073      711.00665    
    566000   297.94434      0.01518627     6.3380181      739.20812     -39.883027      699.32509    
    567000   287.59585      0.01518627     8.1008427      713.53324     -34.079472      679.45377    
    568000   312.84712      0.01518627     8.8100307      776.18232     -33.555463      742.62686    
    569000   322.61243      0.01518627     8.6078157      800.41034     -34.741508      765.66884    
    570000   299.03547      0.01518627     7.4412562      741.91524     -36.618625      705.29662    
    571000   288.93804      0.01518627     7.5841546      716.86324     -35.155063      681.70817    
    572000   290.4206       0.01518627     7.268873       720.54152     -33.294166      687.24735    
    573000   301.0406       0.01518627     8.5550564      746.89002     -35.474552      711.41547    
    574000   307.78044      0.01518627     9.5155808      763.61176     -32.986682      730.62507    
    575000   286.8655       0.01518627     8.2573734      711.72123     -37.157997      674.56323    
    576000   293.64332      0.01518627     6.2681419      728.53717     -32.957584      695.57959    
    577000   316.63054      0.01518627     8.2005911      785.56909     -35.406837      750.16226    
    578000   305.15993      0.01518627     7.9058917      757.11019     -33.283754      723.82644    
    579000   289.6203       0.01518627     7.5851184      718.55595     -32.869576      685.68637    
    580000   293.23511      0.01518627     6.6073118      727.5244      -31.095376      696.42902    
    581000   305.70901      0.01518627     8.0666782      758.47248     -30.756616      727.71587    
    582000   310.43754      0.01518627     9.5712538      770.20409     -30.391511      739.81258    
    583000   294.03564      0.01518627     8.5047766      729.51052     -32.695838      696.81468    
    584000   296.00023      0.01518627     3.380451       734.38474     -29.937503      704.44723    
    585000   304.93562      0.01518627     12.061309      756.55369     -26.632088      729.9216     
    586000   306.43489      0.01518627     12.463955      760.2734      -29.05809       731.21531    
    587000   290.01512      0.01518627     7.1550075      719.53552     -30.105374      689.43014    
    588000   317.54216      0.01518627     3.1856743      787.83085     -30.856702      756.97414    
    589000   310.21543      0.01518627     9.0009507      769.65303     -30.192775      739.46026    
    590000   299.87019      0.01518627     17.842367      743.9862      -25.092745      718.89346    
    591000   288.58615      0.01518627     5.0434376      715.99019     -27.395286      688.5949     
    592000   311.4061       0.01518627     6.2510105      772.60711     -26.623399      745.98371    
    593000   319.9422       0.01518627     15.42022       793.78543     -24.74912       769.03631    
    594000   292.26801      0.01518627     7.0533128      725.12499     -23.455495      701.6695     
    595000   289.56765      0.01518627     5.5298633      718.42531     -29.070952      689.35436    
    596000   308.80918      0.01518627     4.4399576      766.16409     -29.688111      736.47598    
    597000   308.96579      0.01518627     9.1546737      766.55265     -35.835425      730.71723    
    598000   304.95656      0.01518627     8.726089       756.60562     -36.685741      719.91988    
    599000   286.11298      0.01518627     8.3829406      709.85418     -34.342675      675.51151    
    600000   288.98264      0.01518627     7.6522877      716.97388     -29.721935      687.25195    
    601000   302.40665      0.01518627     7.1195452      750.27924     -32.198309      718.08093    
    602000   319.54232      0.01518627     8.979625       792.79331     -28.211949      764.58136    
    603000   293.66445      0.01518627     8.3950061      728.5896      -31.751095      696.8385     
    604000   294.46717      0.01518627     7.7110968      730.58116     -31.590345      698.99082    
    605000   300.6803       0.01518627     9.6661477      745.9961      -29.455684      716.54042    
    606000   313.29803      0.01518627     9.6722281      777.30105     -29.187972      748.11308    
    607000   302.08269      0.01518627     5.2277536      749.47548     -28.199857      721.27562    
    608000   290.42152      0.01518627     10.447826      720.5438      -29.880733      690.66306    
    609000   312.34603      0.01518627     7.4090756      774.9391      -27.462684      747.47641    
    610000   308.67781      0.01518627     5.7328092      765.83816     -33.699316      732.13885    
    611000   291.87961      0.01518627     7.2756837      724.16136     -31.848917      692.31245    
    612000   303.62311      0.01518627     13.68207       753.29731     -35.036894      718.26042    
    613000   291.45446      0.01518627     8.1499194      723.10656     -32.793326      690.31324    
    614000   288.08544      0.01518627     6.3939544      714.74793     -31.412242      683.33569    
    615000   303.80314      0.01518627     12.536159      753.74396     -31.419218      722.32474    
    616000   303.3567       0.01518627     9.4062949      752.63633     -31.628717      721.00761    
    617000   296.33229      0.01518627    -1.4575358      735.20858     -34.031849      701.17673    
    618000   300.48844      0.01518627     8.7698064      745.5201      -34.494933      711.02517    
    619000   302.13385      0.01518627     9.6456915      749.60241     -35.198801      714.40361    
    620000   300.94758      0.01518627     8.3477385      746.65925     -34.940599      711.71865    
    621000   285.52415      0.01518627     0.8573081      708.39329     -31.895651      676.49764    
    622000   290.98117      0.01518627     6.4097383      721.9323      -35.593159      686.33915    
    623000   299.98455      0.01518627     13.500355      744.26995     -36.326013      707.94394    
    624000   313.32392      0.01518627     7.2956573      777.36529     -30.106369      747.25892    
    625000   289.41545      0.01518627     6.1653043      718.04771     -34.462209      683.5855     
    626000   290.87326      0.01518627     12.15714       721.66456     -27.804531      693.86003    
    627000   314.00754      0.01518627     13.929257      779.06135     -33.24853       745.81282    
    628000   310.96327      0.01518627     15.119595      771.50844     -27.478262      744.03018    
    629000   299.57417      0.01518627     5.2643476      743.25177     -31.49223       711.75954    
    630000   290.12772      0.01518627     8.7000019      719.81487     -30.86955       688.94532    
    631000   313.26159      0.01518627     8.5323702      777.21064     -27.769877      749.44076    
    632000   309.72861      0.01518627     6.6394292      768.44523     -29.11931       739.32592    
    633000   294.4148       0.01518627     5.9586464      730.45122     -29.093883      701.35734    
    634000   288.69719      0.01518627     3.7126497      716.26568     -29.888765      686.37692    
    635000   298.69695      0.01518627     8.6621843      741.07536     -30.685315      710.39004    
    636000   288.00921      0.01518627     7.2102734      714.55878     -31.966995      682.59178    
    637000   300.84644      0.01518627     9.7788927      746.40832     -30.419226      715.98909    
    638000   313.06119      0.01518627     12.07756       776.71344     -27.719514      748.99393    
    639000   305.42374      0.01518627     5.2146953      757.76472     -27.208644      730.55607    
    640000   304.56321      0.01518627     9.2848579      755.62972     -27.559658      728.07006    
    641000   311.01564      0.01518627     11.55748       771.63839     -31.943199      739.69519    
    642000   297.19571      0.01518627     4.9708237      737.35074     -32.836534      704.5142     
    643000   296.06889      0.01518627     14.103132      734.55508     -32.498999      702.05608    
    644000   313.37218      0.01518627     8.0820248      777.48501     -31.236867      746.24814    
    645000   301.61574      0.01518627     8.0646887      748.31698     -30.684737      717.63224    
    646000   291.60468      0.01518627     4.6666222      723.47925     -32.55662       690.92263    
    647000   292.22151      0.01518627     18.366546      725.00963     -34.871942      690.13769    
    648000   306.70541      0.01518627     7.9309584      760.94458     -32.328827      728.61576    
    649000   305.03573      0.01518627     7.3259909      756.80205     -33.085333      723.71672    
    650000   303.13879      0.01518627     19.957213      752.0957      -29.381771      722.71393    
    651000   306.53384      0.01518627     12.846294      760.51891     -27.309206      733.20971    
    652000   291.06923      0.01518627     5.1457391      722.15078     -31.944006      690.20677    
    653000   292.59193      0.01518627    -1.9486222      725.92864     -34.276044      691.65259    
    654000   301.9296       0.01518627     16.271916      749.09567     -32.883491      716.21217    
    655000   314.86026      0.01518627     7.5445892      781.17699     -36.179677      744.99732    
    656000   295.13641      0.01518627     3.4414192      732.24157     -30.61222       701.62935    
    657000   297.00423      0.01518627     17.204255      736.87568     -27.611526      709.26415    
    658000   314.12847      0.01518627     8.316627       779.3614      -27.378233      751.98317    
    659000   297.59882      0.01518627     7.6770412      738.35087     -27.344657      711.00622    
    660000   294.49201      0.01518627     10.763029      730.64279     -25.244346      705.39844    
    661000   305.29957      0.01518627     12.936872      757.45666     -28.785351      728.67131    
    662000   310.43751      0.01518627     8.3756841      770.20401     -35.27621       734.9278     
    663000   299.53092      0.01518627     8.3077123      743.14446     -33.345036      709.79943    
    664000   288.09112      0.01518627     8.5574516      714.76201     -31.065288      683.69673    
    665000   308.26375      0.01518627     7.3815725      764.81087     -31.025284      733.78558    
    666000   308.66166      0.01518627     9.6441845      765.7981      -31.300852      734.49724    
    667000   296.62989      0.01518627     8.3037028      735.94694     -28.676468      707.27047    
    668000   292.20714      0.01518627     6.7023398      724.97397     -28.819044      696.15493    
    669000   290.66458      0.01518627     6.0880197      721.14683     -29.710798      691.43604    
    670000   311.73545      0.01518627     8.0504663      773.42424     -28.541528      744.88271    
    671000   312.71119      0.01518627     9.6223168      775.84508     -27.871178      747.9739     
    672000   302.00908      0.01518627     10.454278      749.29284     -31.424806      717.86803    
    673000   292.09491      0.01518627     10.49229       724.69551     -32.996981      691.69853    
    674000   301.34745      0.01518627     7.7898199      747.65132     -31.919025      715.7323     
    675000   307.53727      0.01518627     1.4574353      763.00845     -32.764128      730.24432    
    676000   298.9107       0.01518627     8.8879903      741.6057      -35.66088       705.94482    
    677000   296.66525      0.01518627     9.1952939      736.03466     -26.566532      709.46812    
    678000   316.35582      0.01518627    -2.3945473      784.8875      -28.24006       756.64744    
    679000   295.2568       0.01518627     11.089563      732.54026     -24.819773      707.72049    
    680000   294.11534      0.01518627     6.5275466      729.70828     -25.528429      704.17985    
    681000   308.57146      0.01518627     5.1394388      765.57429     -28.130617      737.44367    
    682000   302.74775      0.01518627     6.9673719      751.1255      -27.951443      723.17406    
    683000   293.34519      0.01518627     14.937397      727.79751     -26.016252      701.78126    
    684000   292.73186      0.01518627     6.6755686      726.27582     -26.942097      699.33373    
    685000   305.72462      0.01518627     6.711599       758.51122     -24.298984      734.21223    
    686000   317.27693      0.01518627     11.11754       787.1728      -23.51893       763.65387    
    687000   301.42066      0.01518627     13.609716      747.83298     -23.738843      724.09414    
    688000   293.09766      0.01518627     7.0183027      727.18337     -25.019363      702.16401    
    689000   308.56566      0.01518627    -2.862522       765.55991     -24.541854      741.01805    
    690000   310.34531      0.01518627     10.964972      769.97526     -23.121181      746.85408    
    691000   296.33773      0.01518627     9.9818323      735.22207     -25.677579      709.54449    
    692000   291.5017       0.01518627     7.3578429      723.22374     -25.942435      697.28131    
    693000   298.7579       0.01518627     7.6451875      741.22658     -23.111118      718.11546    
    694000   308.74575      0.01518627     8.6769234      766.00671     -27.699034      738.30767    
    695000   290.99574      0.01518627     9.6167459      721.96846     -24.358546      697.60991    
    696000   295.19836      0.01518627     7.8443809      732.39527     -24.249507      708.14576    
    697000   306.14061      0.01518627     7.5280267      759.5433      -27.041668      732.50163    
    698000   319.01175      0.01518627     9.0338248      791.47695     -28.549335      762.92761    
    699000   307.81792      0.01518627     9.4397613      763.70476     -28.648359      735.0564     
    700000   296.8047       0.01518627     8.1699331      736.38064     -28.603096      707.77754    
    701000   299.55029      0.01518627     7.1651664      743.19254     -30.093539      713.099      
    702000   301.39434      0.01518627     8.0690536      747.76766     -28.976362      718.7913     
    703000   299.07031      0.01518627     7.7740078      742.00167     -29.812153      712.18952    
    704000   303.216        0.01518627     14.886446      752.28726     -27.047663      725.2396     
    705000   304.07472      0.01518627     8.2982991      754.41777     -29.563832      724.85393    
    706000   297.77068      0.01518627     6.0799528      738.77727     -30.208369      708.5689     
    707000   296.81703      0.01518627     15.958025      736.41124     -27.693326      708.71791    
    708000   307.8551       0.01518627     11.826535      763.79698     -31.145116      732.65187    
    709000   288.87924      0.01518627     1.9784035      716.71735     -29.54382       687.17353    
    710000   301.35955      0.01518627     0.57154781     747.68134     -29.910531      717.77081    
    711000   304.82526      0.01518627     8.8327089      756.27988     -30.860487      725.41939    
    712000   295.5227       0.01518627     11.301198      733.19996     -32.622605      700.57736    
    713000   287.74936      0.01518627     4.9392024      713.91409     -33.366105      680.54799    
    714000   301.72485      0.01518627     4.1998055      748.58767     -32.961021      715.62665    
    715000   313.4694       0.01518627     11.759109      777.72622     -34.754167      742.97205    
    716000   301.34186      0.01518627     10.766981      747.63745     -31.086323      716.55113    
    717000   295.78547      0.01518627     7.9529397      733.85189     -39.994703      693.85719    
    718000   308.81264      0.01518627     5.4551473      766.17268     -35.546802      730.62588    
    719000   307.87885      0.01518627     10.067903      763.85591     -32.213962      731.64195    
    720000   281.90865      0.01518627     10.772483      699.42313     -34.117814      665.30532    
    721000   294.4456       0.01518627     7.8884059      730.52766     -33.537226      696.99044    
    722000   308.39547      0.01518627     5.2138826      765.13767     -29.012227      736.12544    
    723000   297.70732      0.01518627     7.7444807      738.62006     -25.813259      712.8068     
    724000   301.09004      0.01518627     9.8915343      747.01269     -29.056762      717.95593    
    725000   297.53186      0.01518627     7.6215727      738.18474     -28.964577      709.22016    
    726000   288.0709       0.01518627     7.7303022      714.71183     -34.259292      680.45254    
    727000   301.08538      0.01518627     2.9009436      747.00112     -32.941557      714.05956    
    728000   304.48676      0.01518627     7.1885412      755.44005     -31.009836      724.43022    
    729000   301.59777      0.01518627     20.944258      748.27239     -27.378447      720.89394    
    730000   286.39554      0.01518627     14.468816      710.55523     -26.436184      684.11904    
    731000   294.45791      0.01518627     6.8804227      730.5582      -26.974719      703.58348    
    732000   309.7394       0.01518627    -5.0386263      768.472       -24.63766       743.83434    
    733000   302.24611      0.01518627     15.044134      749.88093     -24.713689      725.16724    
    734000   282.43682      0.01518627     7.8978071      700.73353     -25.715709      675.01782    
    735000   302.8828       0.01518627     3.1404844      751.46058     -25.38448       726.0761     
    736000   306.90771      0.01518627     10.640465      761.44648     -29.218955      732.22753    
    737000   301.96274      0.01518627     7.6794327      749.17788     -29.394986      719.78289    
    738000   300.10362      0.01518627     6.4926284      744.56536     -28.943617      715.62175    
    739000   315.43068      0.01518627     8.9795182      782.5922      -34.375843      748.21636    
    740000   297.58739      0.01518627     8.349506       738.32251     -34.160746      704.16176    
    741000   299.68034      0.01518627     11.610074      743.51519     -32.59846       710.91673    
    742000   309.51142      0.01518627     10.2158        767.90635     -29.067578      738.83877    
    743000   306.04563      0.01518627     7.2210958      759.30766     -31.015683      728.29197    
    744000   301.959        0.01518627     4.1123357      749.16859     -28.087211      721.08138    
    745000   303.4661       0.01518627     9.491445       752.90775     -32.528127      720.37962    
    746000   295.63645      0.01518627     10.410644      733.48218     -31.130368      702.35181    
    747000   299.47691      0.01518627     12.426248      743.01048     -33.688731      709.32175    
    748000   311.03392      0.01518627     6.9358136      771.68373     -33.209487      738.47424    
    749000   309.8592       0.01518627     7.5566115      768.76922     -30.896271      737.87294    
    750000   295.68382      0.01518627     8.2325263      733.59972     -29.192517      704.4072     
    751000   294.85514      0.01518627     9.7465911      731.54374     -23.635635      707.9081     
    752000   314.3281       0.01518627     8.295668       779.85669     -25.840339      754.01635    
    753000   309.59842      0.01518627     7.968092       768.12221     -24.731518      743.39069    
    754000   289.47566      0.01518627     7.6700011      718.19709     -26.629317      691.56777    
    755000   286.53781      0.01518627     8.3434177      710.90821     -25.760579      685.14763    
    756000   312.26313      0.01518627     8.6083509      774.73344     -27.213807      747.51963    
    757000   306.5231       0.01518627     8.6414132      760.49226     -23.859238      736.63303    
    758000   305.32794      0.01518627     7.886441       757.52704     -25.093181      732.43386    
    759000   289.78592      0.01518627     8.2903664      718.96685     -21.940974      697.02588    
    760000   305.12861      0.01518627     7.4658724      757.0325      -23.75708       733.27542    
    761000   298.85503      0.01518627     6.9246511      741.46758     -25.452758      716.01482    
    762000   295.5968       0.01518627     8.164625       733.3838      -24.287033      709.09677    
    763000   297.26234      0.01518627     9.844679       737.51606     -28.799362      708.7167     
    764000   306.45781      0.01518627     5.110154       760.33028     -28.968174      731.36211    
    765000   297.71332      0.01518627     8.7913345      738.63496     -30.148501      708.48646    
    766000   286.7939       0.01518627     12.118342      711.54358     -28.033046      683.51053    
    767000   299.42841      0.01518627     4.0638945      742.89015     -29.892219      712.99793    
    768000   309.30342      0.01518627     8.9168301      767.3903      -28.606648      738.78365    
    769000   289.28062      0.01518627     7.8357267      717.7132      -27.531326      690.18187    
    770000   316.15148      0.01518627     8.81868        784.38055     -23.622359      760.75819    
    771000   305.82826      0.01518627     8.0625764      758.76833     -23.749512      735.01882    
    772000   288.56181      0.01518627     8.0201627      715.92981     -19.310331      696.61948    
    773000   296.77904      0.01518627     7.4149823      736.31698     -20.982577      715.3344     
    774000   309.77474      0.01518627     8.2676193      768.55967     -21.288888      747.27078    
    775000   295.72502      0.01518627     7.7634192      733.70192     -27.312778      706.38914    
    776000   285.03418      0.01518627     8.484768       707.17765     -22.317636      684.86002    
    777000   315.2478       0.01518627     8.91496        782.13847     -24.415951      757.72252    
    778000   303.38807      0.01518627     9.3015284      752.71416     -25.212509      727.50165    
    779000   298.9119       0.01518627     6.870528       741.60866     -25.789678      715.81898    
    780000   302.84475      0.01518627     8.1154718      751.36617     -25.262897      726.10327    
    781000   309.17461      0.01518627     10.372181      767.07072     -20.413734      746.65698    
    782000   294.8159       0.01518627     9.9633508      731.44638     -20.455273      710.99111    
    783000   290.38044      0.01518627     7.377623       720.44186     -20.459576      699.98229    
    784000   305.82684      0.01518627     3.321399       758.76483     -24.772799      733.99203    
    785000   311.51661      0.01518627     8.7573056      772.8813      -26.831042      746.05026    
    786000   301.37774      0.01518627     8.7006768      747.72649     -22.75296       724.97353    
    787000   281.62488      0.01518627     1.4247649      698.7191      -25.22191       673.49719    
    788000   305.20686      0.01518627     7.8342384      757.22664     -22.376375      734.85026    
    789000   300.38037      0.01518627     9.8888671      745.25197     -21.077788      724.17418    
    790000   300.06546      0.01518627     7.9757261      744.47067     -22.530142      721.94053    
    791000   304.59194      0.01518627     8.9081893      755.70099     -24.893466      730.80752    
    792000   295.65683      0.01518627     7.8647788      733.53274     -22.540743      710.992      
    793000   294.39252      0.01518627     11.288602      730.39595     -24.630868      705.76508    
    794000   300.22543      0.01518627     4.2504126      744.86757     -28.605483      716.26209    
    795000   311.91968      0.01518627     8.2065567      773.88132     -29.641979      744.23934    
    796000   291.12076      0.01518627     7.4465488      722.27864     -27.367196      694.91144    
    797000   292.89647      0.01518627     7.6947893      726.68423     -24.476275      702.20795    
    798000   302.3543       0.01518627     7.2180657      750.14936     -25.670928      724.47843    
    799000   304.96841      0.01518627     10.34885       756.63503     -19.834843      736.80019    
    800000   292.0285       0.01518627     7.7940673      724.53075     -28.823171      695.70758    
    801000   306.43486      0.01518627     8.7198483      760.27334     -31.798711      728.47463    
    802000   314.02765      0.01518627     8.5663648      779.11125     -31.546426      747.56482    
    803000   296.53002      0.01518627     5.5301586      735.69915     -27.537041      708.1621     
    804000   292.96547      0.01518627    -0.26097427     726.85539     -26.244935      700.61046    
    805000   294.45711      0.01518627     8.7544461      730.55622     -25.91836       704.63786    
    806000   302.14959      0.01518627     10.010139      749.64147     -26.77282       722.86865    
    807000   311.21923      0.01518627     11.402039      772.14348     -29.049892      743.09359    
    808000   298.98573      0.01518627     4.9611893      741.79184     -25.841758      715.95009    
    809000   287.11202      0.01518627     13.124339      712.33285     -27.559813      684.77303    
    810000   290.91664      0.01518627     8.7952893      721.7722      -26.030449      695.74175    
    811000   303.92096      0.01518627     12.206258      754.03629     -19.593236      734.44305    
    812000   306.04537      0.01518627    -4.2463584      759.30699     -22.010012      737.29698    
    813000   295.3074       0.01518627     4.6418002      732.66579     -20.22044       712.44535    
    814000   288.85261      0.01518627     17.878125      716.65128     -21.112889      695.53839    
    815000   305.24529      0.01518627     9.1761724      757.32198     -18.273591      739.04839    
    816000   305.55659      0.01518627     5.9539232      758.09433     -21.678735      736.41559    
    817000   286.3833       0.01518627     8.0113206      710.52485     -20.190265      690.33459    
    818000   294.90053      0.01518627     15.964406      731.65635     -16.108466      715.54789    
    819000   312.10844      0.01518627     7.7996361      774.34965     -20.328266      754.02138    
    820000   308.11377      0.01518627     6.9032745      764.43875     -23.617076      740.82167    
    821000   294.78922      0.01518627     6.6380299      731.38018     -25.761112      705.61907    
    822000   297.19614      0.01518627     10.680256      737.35181     -29.082322      708.26949    
    823000   313.70177      0.01518627     11.299266      778.30273     -26.60418       751.69855    
    824000   310.73433      0.01518627     8.185426       770.94043     -27.31601       743.62442    
    825000   292.96773      0.01518627     5.1079265      726.86101     -24.254953      702.60606    
    826000   304.43557      0.01518627     12.391311      755.31304     -27.992675      727.32037    
    827000   312.94531      0.01518627     11.28532       776.42594     -27.05784       749.3681     
    828000   298.64398      0.01518627     8.0157253      740.94394     -26.834658      714.10929    
    829000   306.05788      0.01518627     8.4206703      759.33803     -28.928882      730.40915    
    830000   298.37399      0.01518627     8.4504248      740.2741      -25.91276       714.36134    
    831000   303.80398      0.01518627     8.0327662      753.74605     -20.48309       733.26296    
    832000   290.14429      0.01518627     7.443795       719.85597     -24.687297      695.16868    
    833000   293.781        0.01518627     7.4632061      728.87877     -25.386179      703.49259    
    834000   295.58123      0.01518627     8.9538837      733.34518     -26.397714      706.94747    
    835000   302.57752      0.01518627     10.589337      750.70318     -23.223757      727.47942    
    836000   297.22942      0.01518627     6.791062       737.43439     -26.676891      710.7575     
    837000   293.07075      0.01518627     6.7258034      727.11661     -24.419091      702.69752    
    838000   283.16376      0.01518627     8.9215208      702.5371      -27.130273      675.40683    
    839000   296.17534      0.01518627     8.2672301      734.81919     -23.687682      711.13151    
    840000   303.086        0.01518627     6.737052       751.96471     -20.944654      731.02006    
    841000   304.09642      0.01518627     7.879928       754.4716      -22.642931      731.82867    
    842000   290.16111      0.01518627     6.3075491      719.89771     -23.23542       696.66229    
    843000   301.8258       0.01518627     11.411243      748.83812     -27.871014      720.96711    
    844000   308.12655      0.01518627     4.7286776      764.47047     -28.97861       735.49186    
    845000   302.56704      0.01518627     7.3263282      750.67717     -27.101195      723.57597    
    846000   292.04108      0.01518627     9.1776166      724.56198     -29.0125        695.54948    
    847000   296.28258      0.01518627     10.070906      735.08526     -30.928107      704.15715    
    848000   316.53915      0.01518627     9.127742       785.34235     -25.947787      759.39456    
    849000   302.52125      0.01518627     6.8295638      750.56356     -27.299006      723.26455    
    850000   293.3301       0.01518627     8.0284047      727.76007     -22.345393      705.41468    
    851000   299.72497      0.01518627     8.4132977      743.6259      -22.26763       721.35827    
    852000   308.34896      0.01518627     7.6448963      765.02226     -30.530044      734.49222    
    853000   303.65105      0.01518627     9.8081002      753.36663     -27.820011      725.54662    
    854000   284.41431      0.01518627     7.4817245      705.63975     -28.427709      677.21204    
    855000   299.31155      0.01518627     6.7991511      742.6002      -30.915695      711.6845     
    856000   311.73773      0.01518627     8.3743954      773.4299      -27.344517      746.08538    
    857000   291.18425      0.01518627     7.75754        722.43615     -24.55398       697.88217    
    858000   297.3671       0.01518627     4.9369843      737.77598     -24.533109      713.24287    
    859000   302.44034      0.01518627     7.20857        750.36283     -25.409599      724.95323    
    860000   306.1179       0.01518627     14.025832      759.48696     -24.940772      734.54619    
    861000   301.01429      0.01518627     10.816479      746.82476     -24.089772      722.73499    
    862000   299.8086       0.01518627     4.7225313      743.83339     -20.306264      723.52713    
    863000   302.85252      0.01518627     13.657569      751.38544     -25.041966      726.34347    
    864000   294.61746      0.01518627     7.8003364      730.95405     -24.216365      706.73768    
    865000   309.78237      0.01518627     5.1074777      768.57861     -19.731399      748.84721    
    866000   286.24346      0.01518627     12.599567      710.17792     -22.766014      687.41191    
    867000   285.86277      0.01518627     11.036426      709.2334      -22.938886      686.29452    
    868000   288.06389      0.01518627     6.1940998      714.69445     -23.390777      691.30367    
    869000   318.08634      0.01518627     8.2257973      789.18099     -20.653848      768.52714    
    870000   294.82171      0.01518627     9.6484723      731.4608      -22.063487      709.39731    
    871000   294.95886      0.01518627     5.8894996      731.80106     -25.577373      706.22368    
    872000   315.71643      0.01518627     8.5113156      783.30117     -33.744338      749.55683    
    873000   309.73363      0.01518627     8.5293701      768.45768     -32.944451      735.51323    
    874000   294.34179      0.01518627     7.8672381      730.27009     -26.989775      703.28032    
    875000   293.88241      0.01518627     8.1071559      729.13037     -28.383413      700.74696    
    876000   318.11316      0.01518627     8.4349306      789.24752     -28.294266      760.95325    
    877000   308.13272      0.01518627     7.7079167      764.48577     -28.946471      735.5393     
    878000   295.44232      0.01518627     6.1634497      733.00053     -29.056417      703.94412    
    879000   289.91181      0.01518627     9.3842038      719.27919     -28.727596      690.55159    
    880000   310.85966      0.01518627     8.5034517      771.25139     -24.52053       746.73086    
    881000   302.49168      0.01518627     4.4566243      750.49019     -27.301786      723.1884     
    882000   290.37544      0.01518627     8.3922152      720.42948     -24.518367      695.91112    
    883000   297.23912      0.01518627     13.072004      737.45846     -23.597995      713.86046    
    884000   298.99238      0.01518627     5.6799505      741.80834     -21.913769      719.89457    
    885000   298.16112      0.01518627     7.4607281      739.74596     -19.164582      720.58137    
    886000   310.31388      0.01518627     11.065215      769.89728     -23.296371      746.60091    
    887000   308.40772      0.01518627     8.1949895      765.16805     -24.687387      740.48066    
    888000   295.62738      0.01518627     5.5618646      733.45968     -21.366571      712.09311    
    889000   293.3486       0.01518627     8.1426112      727.80597     -18.926478      708.8795     
    890000   296.19002      0.01518627     9.0520758      734.85561     -20.690304      714.1653     
    891000   319.49149      0.01518627     8.5451515      792.66718     -21.570263      771.09692    
    892000   306.60625      0.01518627     6.9267067      760.69855     -22.132358      738.56619    
    893000   281.16957      0.01518627     7.7254072      697.58946     -21.392533      676.19693    
    894000   296.95908      0.01518627     10.800892      736.76366     -20.399705      716.36395    
    895000   308.45125      0.01518627     9.7438653      765.27605     -19.175221      746.10082    
    896000   300.88102      0.01518627     8.5330886      746.49411     -15.988765      730.50534    
    897000   298.30859      0.01518627     9.0424883      740.11183     -15.884428      724.2274     
    898000   301.56027      0.01518627     8.6110691      748.17935     -20.492925      727.68642    
    899000   289.05473      0.01518627     9.8857809      717.15276     -22.808078      694.34468    
    900000   297.85258      0.01518627     9.4270975      738.98046     -22.861555      716.11891    
    901000   298.66231      0.01518627     7.5979463      740.98943     -26.550186      714.43925    
    902000   302.29156      0.01518627     10.779545      749.9937      -27.535659      722.45804    
    903000   296.16665      0.01518627     8.4631187      734.79762     -24.855689      709.94193    
    904000   298.29802      0.01518627     6.7665243      740.08562     -22.767777      717.31784    
    905000   304.67739      0.01518627     8.2298415      755.913       -23.211228      732.70178    
    906000   302.80155      0.01518627     8.2212052      751.25899     -26.732826      724.52616    
    907000   291.67675      0.01518627     9.2977189      723.65805     -26.411533      697.24651    
    908000   305.82094      0.01518627     9.1213144      758.75017     -27.927989      730.82219    
    909000   308.84227      0.01518627     11.066347      766.24619     -28.759127      737.48706    
    910000   292.06067      0.01518627     8.7048247      724.61057     -25.140785      699.46979    
    911000   296.08597      0.01518627     7.8100381      734.59744     -25.473554      709.12389    
    912000   309.77009      0.01518627     8.1611318      768.54813     -25.108228      743.4399     
    913000   299.26597      0.01518627     9.190186       742.48713     -22.837769      719.64936    
    914000   300.28389      0.01518627     7.1038851      745.01262     -27.526167      717.48645    
    915000   298.07508      0.01518627     8.8667547      739.5325      -22.186958      717.34554    
    916000   311.31575      0.01518627     8.2588946      772.38296     -24.109747      748.27321    
    917000   307.79763      0.01518627     8.0576647      763.65441     -26.1441        737.51031    
    918000   289.56676      0.01518627     7.2456895      718.42311     -24.916849      693.50626    
    919000   297.28821      0.01518627     9.1668029      737.58026     -23.690839      713.88942    
    920000   319.9299       0.01518627     10.154675      793.7549      -24.920566      768.83433    
    921000   296.10257      0.01518627     5.2520264      734.63864     -22.103718      712.53492    
    922000   287.77678      0.01518627     11.543889      713.98213     -23.6015        690.38063    
    923000   298.41353      0.01518627     14.047051      740.37219     -21.863931      718.50826    
    924000   309.79314      0.01518627     4.9579709      768.60531     -25.807564      742.79775    
    925000   285.24825      0.01518627     9.7933676      707.70877     -25.669336      682.03943    
    926000   303.33992      0.01518627     10.697398      752.59471     -26.308898      726.28581    
    927000   308.81906      0.01518627     8.4604681      766.18861     -28.152269      738.03634    
    928000   298.12864      0.01518627     4.3206395      739.66537     -27.814307      711.85106    
    929000   296.90437      0.01518627     7.5166216      736.62793     -28.202763      708.42517    
    930000   308.82742      0.01518627     9.549043       766.20934     -22.588043      743.62129    
    931000   309.69826      0.01518627    -0.395631       768.36993     -19.338748      749.03118    
    932000   296.74542      0.01518627     7.7887654      736.23356     -22.041411      714.19215    
    933000   292.22832      0.01518627     9.1430626      725.0265      -19.823604      705.2029     
    934000   298.53375      0.01518627     8.3032207      740.67047     -22.716524      717.95395    
    935000   318.02691      0.01518627     7.5098495      789.03354     -21.127863      767.90567    
    936000   303.10198      0.01518627    -0.3360358      752.00437     -21.774829      730.22954    
    937000   296.84532      0.01518627     15.066678      736.48142     -20.734283      715.74714    
    938000   300.64573      0.01518627     17.366171      745.91034     -21.668341      724.242      
    939000   291.22931      0.01518627    -0.77600084     722.54795     -19.369559      703.17839    
    940000   300.45607      0.01518627     2.4350825      745.4398      -22.251025      723.18878    
    941000   292.49399      0.01518627     14.975099      725.68564     -23.301985      702.38366    
    942000   294.43579      0.01518627     22.740635      730.50331     -21.26819       709.23512    
    943000   300.43309      0.01518627     3.456333       745.38277     -23.830362      721.55241    
    944000   290.11571      0.01518627     9.7196998      719.78509     -24.790358      694.99473    
    945000   302.09183      0.01518627     9.4102194      749.49816     -24.717136      724.78103    
    946000   297.66051      0.01518627    -0.55633806     738.50394     -25.700126      712.80382    
    947000   306.99684      0.01518627     10.918026      761.66761     -27.459919      734.2077     
    948000   300.82266      0.01518627     9.5610088      746.34931     -23.457082      722.89223    
    949000   311.43485      0.01518627     17.818906      772.67844     -29.758286      742.92015    
    950000   296.71346      0.01518627     0.64105391     736.15428     -25.192864      710.96142    
    951000   296.39945      0.01518627     14.85601       735.37521     -25.95421       709.421      
    952000   310.60443      0.01518627     13.584041      770.61814     -26.855177      743.76297    
    953000   295.93486      0.01518627     7.7539643      734.22254     -26.491988      707.73055    
    954000   293.17213      0.01518627     7.3415287      727.36814     -18.908141      708.46       
    955000   300.86963      0.01518627     8.1265017      746.46585     -22.041301      724.42455    
    956000   316.88222      0.01518627     12.96932       786.19353     -19.341758      766.85177    
    957000   291.49361      0.01518627     3.9247148      723.20369     -20.6944        702.50929    
    958000   298.36073      0.01518627     8.7647288      740.2412      -22.414354      717.82685    
    959000   308.25829      0.01518627     12.722612      764.7973      -20.684823      744.11248    
    960000   290.71368      0.01518627     6.3167248      721.26865     -20.908788      700.35986    
    961000   289.08857      0.01518627    -1.6266473      717.23671     -20.888445      696.34826    
    962000   300.34912      0.01518627     6.8937637      745.17444     -21.884474      723.28996    
    963000   295.52212      0.01518627     11.745915      733.19853     -18.762242      714.43629    
    964000   304.92824      0.01518627     11.719565      756.53536     -22.189241      734.34612    
    965000   316.91125      0.01518627     8.3478913      786.26555     -17.536458      768.72909    
    966000   313.73839      0.01518627     6.5962718      778.39359     -21.028707      757.36489    
    967000   303.59563      0.01518627     7.9545021      753.22913     -21.061581      732.16755    
    968000   302.12798      0.01518627     9.1767493      749.58785     -23.77439       725.81346    
    969000   288.79668      0.01518627     7.8173946      716.51253     -20.69033       695.8222     
    970000   302.19667      0.01518627     8.1100392      749.75827     -21.510773      728.2475     
    971000   292.90305      0.01518627     7.826824       726.70054     -22.420356      704.28018    
    972000   301.31494      0.01518627     10.06388       747.57066     -20.530943      727.03972    
    973000   298.24246      0.01518627     5.2633583      739.94777     -22.571646      717.37612    
    974000   293.62229      0.01518627     4.7746661      728.48498     -22.71373       705.77125    
    975000   298.95899      0.01518627     6.3851971      741.7255      -22.691399      719.0341     
    976000   299.88441      0.01518627     15.834596      744.0215      -21.714292      722.30721    
    977000   299.41958      0.01518627     8.4626204      742.86822     -23.540686      719.32753    
    978000   306.15821      0.01518627     1.1509151      759.58697     -28.805587      730.78138    
    979000   294.5876       0.01518627     9.0101122      730.87995     -28.726384      702.15356    
    980000   306.76654      0.01518627     11.008046      761.09624     -31.339669      729.75657    
    981000   305.88234      0.01518627     5.1298668      758.90251     -28.544297      730.35821    
    982000   286.7039       0.01518627     8.4792005      711.32027     -25.772125      685.54814    
    983000   292.41863      0.01518627     5.9076332      725.49867     -27.638253      697.86042    
    984000   324.26431      0.01518627     11.991791      804.50869     -31.188926      773.31976    
    985000   292.67713      0.01518627     7.6341136      726.14002     -31.06527       695.07475    
    986000   298.64371      0.01518627     7.9051244      740.94328     -27.853261      713.09002    
    987000   306.23536      0.01518627     7.7311359      759.77837     -27.740116      732.03825    
    988000   298.82057      0.01518627     8.6409659      741.38206     -29.28085       712.10121    
    989000   297.92394      0.01518627     7.0220272      739.15751     -29.764101      709.39341    
    990000   299.08763      0.01518627     8.3426822      742.04466     -26.700405      715.34426    
    991000   292.67097      0.01518627     11.377135      726.12474     -28.903834      697.22091    
    992000   293.88615      0.01518627     8.2657671      729.13963     -25.807132      703.3325     
    993000   307.19196      0.01518627     5.8952088      762.15173     -25.206622      736.9451     
    994000   297.77156      0.01518627     8.3154153      738.77946     -24.010372      714.76908    
    995000   298.51693      0.01518627     10.513609      740.62874     -25.591952      715.03679    
    996000   306.08397      0.01518627     7.7882167      759.40276     -27.717401      731.68536    
    997000   287.33152      0.01518627     7.4339781      712.87743     -23.483134      689.3943     
    998000   301.72526      0.01518627     2.9129544      748.58868     -23.590704      724.99797    
    999000   309.08944      0.01518627     4.869299       766.85942     -27.512817      739.3466     
   1000000   314.98655      0.01518627     11.307351      781.4903      -26.075834      755.41447    
   1001000   289.75702      0.01518627     8.204249       718.89516     -28.005955      690.88921    
   1002000   287.31537      0.01518627     4.2188701      712.83737     -29.40651       683.43085    
   1003000   317.28636      0.01518627     5.4494764      787.1962      -26.300765      760.89544    
   1004000   304.69089      0.01518627     11.974664      755.94651     -23.765525      732.18098    
   1005000   293.40501      0.01518627     10.267822      727.94593     -31.25861       696.68732    
   1006000   301.32735      0.01518627     2.1931105      747.60146     -30.396388      717.20507    
   1007000   300.66881      0.01518627     14.627859      745.96761     -29.02742       716.94019    
   1008000   286.16134      0.01518627     5.3983502      709.97416     -26.06916       683.905      
   1009000   290.41913      0.01518627     2.5089436      720.53787     -22.93755       697.60032    
   1010000   307.36315      0.01518627     9.4272048      762.57644     -20.701887      741.87455    
   1011000   316.44529      0.01518627     14.495598      785.10948     -24.882243      760.22723    
   1012000   298.87257      0.01518627     7.6766229      741.51108     -30.516138      710.99495    
   1013000   294.57448      0.01518627     5.7127052      730.84741     -31.319349      699.52806    
   1014000   297.93805      0.01518627     7.5718271      739.19251     -33.307661      705.88485    
   1015000   317.46027      0.01518627     15.811867      787.62769     -31.10683       756.52086    
   1016000   294.57794      0.01518627     9.5379131      730.85599     -27.169888      703.6861     
   1017000   298.48497      0.01518627    -2.2095896      740.54945     -29.111561      711.43789    
   1018000   296.92545      0.01518627     12.154078      736.68023     -28.76719       707.91304    
   1019000   291.1621       0.01518627     10.091923      722.3812      -24.423883      697.95732    
   1020000   291.37941      0.01518627     6.220504       722.92036     -26.768493      696.15187    
   1021000   309.58575      0.01518627     6.9860762      768.09077     -23.254351      744.83642    
   1022000   308.93212      0.01518627     11.644184      766.46909     -23.356882      743.11221    
   1023000   288.754        0.01518627     10.429497      716.40663     -27.184019      689.22261    
   1024000   288.67834      0.01518627     7.5257408      716.21892     -29.621516      686.5974     
   1025000   302.81981      0.01518627     7.7486511      751.3043      -27.335432      723.96887    
   1026000   312.81745      0.01518627     10.835392      776.10873     -27.757822      748.35091    
   1027000   303.43744      0.01518627     10.642153      752.83665     -26.998732      725.83792    
   1028000   290.46948      0.01518627     4.2931077      720.66278     -30.825549      689.83723    
   1029000   289.98717      0.01518627     7.959153       719.46616     -29.839202      689.62696    
   1030000   300.98957      0.01518627     9.2266432      746.76343     -26.845618      719.91781    
   1031000   294.82695      0.01518627     14.374165      731.47379     -26.055177      705.41862    
   1032000   290.86397      0.01518627     6.7932426      721.64154     -27.501924      694.13961    
   1033000   304.8884       0.01518627     7.7161614      756.43652     -28.750282      727.68623    
   1034000   301.97037      0.01518627     8.1409546      749.19681     -29.775632      719.42118    
   1035000   304.85063      0.01518627     8.8041843      756.34283     -32.889663      723.45316    
   1036000   287.42983      0.01518627     5.4912681      713.12134     -33.195118      679.92622    
   1037000   299.11378      0.01518627     7.9407065      742.10953     -30.808535      711.301      
   1038000   290.48814      0.01518627     9.1246497      720.70909     -27.092572      693.61652    
   1039000   298.58493      0.01518627     8.1600076      740.79745     -29.17863       711.61882    
   1040000   303.06952      0.01518627     8.2788683      751.92384     -26.764593      725.15925    
   1041000   291.79905      0.01518627     7.7944425      723.96148     -28.705555      695.25593    
   1042000   311.56195      0.01518627     7.3697626      772.99378     -30.620937      742.37284    
   1043000   294.19886      0.01518627     8.4092331      729.91547     -23.605906      706.30957    
   1044000   296.03745      0.01518627     9.4562996      734.47708     -21.989069      712.48801    
   1045000   299.791        0.01518627     7.7510191      743.78973     -21.524877      722.26485    
   1046000   304.20156      0.01518627     7.8960049      754.73246     -23.280224      731.45223    
   1047000   299.84882      0.01518627     7.7905484      743.93318     -23.692885      720.24029    
   1048000   297.17716      0.01518627     8.4734475      737.30473     -23.984893      713.31984    
   1049000   311.37326      0.01518627     8.6494404      772.52563     -24.226219      748.29942    
   1050000   295.13273      0.01518627     8.4783172      732.23243     -23.957849      708.27458    
   1051000   295.62505      0.01518627     7.6200872      733.4539      -26.49988       706.95402    
   1052000   297.11988      0.01518627     7.3600571      737.1626      -29.84544       707.31716    
   1053000   301.87683      0.01518627     8.9668495      748.96473     -24.711162      724.25357    
   1054000   299.63002      0.01518627     7.1793775      743.39034     -30.812238      712.5781     
   1055000   292.57885      0.01518627     10.127868      725.8962      -27.996409      697.89979    
   1056000   313.34047      0.01518627     10.711261      777.40635     -24.644096      752.76225    
   1057000   298.7726       0.01518627     8.3279241      741.26306     -20.631768      720.63129    
   1058000   290.45805      0.01518627     7.5089893      720.63442     -24.726321      695.9081     
   1059000   301.90562      0.01518627     8.2289656      749.03617     -23.600226      725.43594    
   1060000   314.4308       0.01518627     8.9965847      780.11147     -21.109993      759.00148    
   1061000   288.00324      0.01518627     7.6694313      714.54397     -23.904203      690.63977    
   1062000   291.21855      0.01518627     7.3188858      722.52126     -24.859851      697.66141    
   1063000   310.34764      0.01518627     7.9730968      769.98106     -22.727225      747.25383    
   1064000   312.11482      0.01518627     9.5621663      774.36548     -20.817631      753.54785    
   1065000   299.09977      0.01518627     10.524501      742.07478     -24.161042      717.91374    
   1066000   280.51633      0.01518627     5.0723788      695.96875     -25.339796      670.62895    
   1067000   305.71257      0.01518627     6.5976608      758.48131     -30.289696      728.19162    
   1068000   298.30528      0.01518627     12.357036      740.10363     -26.423122      713.6805     
   1069000   299.78603      0.01518627    -0.95164696     743.77741     -26.997787      716.77962    
   1070000   295.28129      0.01518627     4.4105002      732.60102     -29.552841      703.04818    
   1071000   311.25207      0.01518627     9.7065864      772.22496     -24.036447      748.18851    
   1072000   303.43218      0.01518627     9.1418422      752.8236      -25.112259      727.71134    
   1073000   293.95794      0.01518627     7.5483833      729.31775     -28.3047        701.01305    
   1074000   301.10504      0.01518627     8.2395424      747.04991     -32.231062      714.81885    
   1075000   312.91882      0.01518627     13.785156      776.36023     -29.921532      746.4387     
   1076000   295.48623      0.01518627     9.507958       733.10947     -28.997521      704.11195    
   1077000   296.07426      0.01518627     8.591241       734.5684      -33.163938      701.40446    
   1078000   300.98318      0.01518627     8.8838199      746.74757     -31.502341      715.24522    
   1079000   304.22702      0.01518627     5.049068       754.79562     -34.345865      720.44975    
   1080000   312.91441      0.01518627     9.8790093      776.34928     -29.252397      747.09688    
   1081000   302.83387      0.01518627     11.446587      751.33919     -32.846039      718.49315    
   1082000   288.92615      0.01518627     6.2956255      716.83374     -33.306116      683.52762    
   1083000   298.71104      0.01518627     7.9201532      741.11032     -34.633766      706.47656    
   1084000   306.95541      0.01518627     7.6865706      761.56483     -33.88885       727.67598    
   1085000   286.72085      0.01518627     10.400199      711.36233     -31.22802       680.13431    
   1086000   295.8039       0.01518627     7.8863008      733.89763     -34.510049      699.38758    
   1087000   309.87277      0.01518627     8.3774185      768.80287     -38.798287      730.00459    
   1088000   302.55461      0.01518627     7.6773209      750.64633     -39.968727      710.6776     
   1089000   305.82553      0.01518627     7.0483778      758.76157     -38.17105       720.59052    
   1090000   305.47805      0.01518627     9.9591801      757.89946     -36.883707      721.01576    
   1091000   305.29566      0.01518627     12.20376       757.44694     -32.047746      725.3992     
   1092000   304.32906      0.01518627     8.66474        755.04878     -29.165833      725.88295    
   1093000   300.74156      0.01518627     7.679713       746.1481      -30.628076      715.52003    
   1094000   309.86661      0.01518627     7.6926019      768.78761     -31.631285      737.15632    
   1095000   283.56791      0.01518627     12.881648      703.5398      -27.890776      675.64902    
   1096000   289.01769      0.01518627     6.3286255      717.06084     -32.019278      685.04157    
   1097000   301.52795      0.01518627     4.9927986      748.09915     -28.319227      719.77993    
   1098000   320.63291      0.01518627     3.698044       795.49909     -30.913116      764.58597    
   1099000   302.52076      0.01518627     12.229046      750.56235     -29.013172      721.54917    
   1100000   287.16258      0.01518627     12.459819      712.45827     -30.79243       681.66584    
   1101000   305.90636      0.01518627     2.791609       758.96212     -28.296517      730.6656     
   1102000   312.07587      0.01518627     12.246946      774.26884     -31.01636       743.25248    
   1103000   291.83531      0.01518627     23.260098      724.05145     -31.088309      692.96314    
   1104000   284.07198      0.01518627     5.4283442      704.79042     -34.635974      670.15444    
   1105000   308.90011      0.01518627     0.68817206     766.3897      -27.592541      738.79716    
   1106000   306.95963      0.01518627     10.916183      761.5753      -29.2268        732.3485     
   1107000   303.57972      0.01518627     11.169773      753.18965     -28.904868      724.28478    
   1108000   303.0746       0.01518627    -4.5411612      751.93643     -31.33992       720.59651    
   1109000   305.23203      0.01518627     13.318493      757.28907     -29.273481      728.01559    
   1110000   302.84546      0.01518627     12.31434       751.36794     -28.389362      722.97857    
   1111000   292.11237      0.01518627     10.036467      724.73884     -25.769338      698.9695     
   1112000   300.91439      0.01518627     6.6748839      746.5769      -30.133518      716.44338    
   1113000   303.24319      0.01518627     6.6706007      752.35473     -29.10455       723.25018    
   1114000   305.38974      0.01518627     13.742128      757.68037     -28.64569       729.03468    
   1115000   300.41271      0.01518627     8.7023873      745.33223     -34.602568      710.72966    
   1116000   299.66803      0.01518627     6.4728552      743.48465     -32.897764      710.58689    
   1117000   305.26431      0.01518627     9.1587369      757.36916     -32.439687      724.92947    
   1118000   311.31212      0.01518627     9.4237668      772.37395     -32.007322      740.36663    
   1119000   311.58683      0.01518627     9.5403375      773.05552     -27.178063      745.87746    
   1120000   291.20457      0.01518627     8.601352       722.48658     -26.993057      695.49352    
   1121000   291.55873      0.01518627     8.3105798      723.36525     -27.785788      695.57947    
   1122000   307.52045      0.01518627     8.6885791      762.96673     -24.100473      738.86625    
   1123000   294.5087       0.01518627     4.6900099      730.68419     -28.102866      702.58133    
   1124000   286.23488      0.01518627     5.7369874      710.15662     -30.898889      679.25774    
   1125000   292.81392      0.01518627     7.5690794      726.4794      -26.236326      700.24307    
   1126000   307.03399      0.01518627     9.8641986      761.75979     -25.87465       735.88514    
   1127000   308.45498      0.01518627     8.7596446      765.28531     -26.425258      738.86005    
   1128000   301.32865      0.01518627     8.5417374      747.60468     -29.005055      718.59962    
   1129000   283.47911      0.01518627     6.9962775      703.31948     -28.99541       674.32407    
   1130000   288.13538      0.01518627     7.8211157      714.87181     -27.654521      687.21729    
   1131000   316.55844      0.01518627     10.416874      785.39022     -29.313857      756.07636    
   1132000   301.84422      0.01518627     7.1478872      748.88383     -30.634109      718.24972    
   1133000   307.04528      0.01518627     7.1166644      761.7878      -33.830659      727.95714    
   1134000   303.49098      0.01518627     8.206331       752.9695      -25.937969      727.03153    
   1135000   292.90877      0.01518627     10.793938      726.71472     -26.269772      700.44495    
   1136000   307.35314      0.01518627     4.6686197      762.55161     -29.249886      733.30173    
   1137000   300.76512      0.01518627     7.8131833      746.20656     -29.948761      716.2578     
   1138000   284.91814      0.01518627     8.9361391      706.88975     -29.303329      677.58642    
   1139000   300.95998      0.01518627     11.704964      746.69        -28.381865      718.30814    
   1140000   306.26019      0.01518627     7.8422749      759.83997     -26.396705      733.44326    
   1141000   289.67524      0.01518627     7.2456144      718.69226     -23.459907      695.23236    
   1142000   300.88662      0.01518627     7.6792991      746.508       -24.92796       721.58004    
   1143000   309.13412      0.01518627     10.179517      766.97026     -20.163796      746.80647    
   1144000   303.62727      0.01518627     8.625485       753.30762     -21.824991      731.48262    
   1145000   288.40837      0.01518627     6.3999651      715.54912     -21.74547       693.80365    
   1146000   304.52049      0.01518627     8.7608997      755.52372     -21.234835      734.28888    
   1147000   306.25746      0.01518627     16.713092      759.8332      -21.566431      738.26677    
   1148000   301.79871      0.01518627     3.1354761      748.77093     -23.854976      724.91595    
   1149000   297.6897       0.01518627     3.9727632      738.57635     -25.547625      713.02872    
   1150000   279.1854       0.01518627     13.847597      692.66667     -24.11275       668.55392    
   1151000   301.31592      0.01518627     11.811747      747.57309     -23.537115      724.03598    
   1152000   301.67103      0.01518627     23.375793      748.45414     -25.641308      722.81283    
   1153000   298.42994      0.01518627     5.3757947      740.41292     -24.264628      716.14829    
   1154000   300.28303      0.01518627     8.023321       745.01048     -24.631733      720.37874    
   1155000   305.98656      0.01518627     13.86151       759.16108     -27.230669      731.93041    
   1156000   308.11527      0.01518627    -1.3027244      764.44248     -28.578198      735.86429    
   1157000   291.5397       0.01518627     7.0674314      723.31803     -19.379327      703.93871    
   1158000   307.13117      0.01518627     17.034102      762.00091     -23.067536      738.93337    
   1159000   313.0936       0.01518627     2.4954537      776.79384     -21.305098      755.48875    
   1160000   287.15742      0.01518627     7.5232631      712.44546     -27.148179      685.29728    
   1161000   290.10978      0.01518627     11.342043      719.77037     -23.627209      696.14316    
   1162000   300.85479      0.01518627     8.6566385      746.42904     -23.088616      723.34042    
   1163000   306.58444      0.01518627     8.7524428      760.64444     -20.828109      739.81634    
   1164000   303.26891      0.01518627     7.6857757      752.41852     -22.028814      730.3897     
   1165000   288.07639      0.01518627     8.4036465      714.72545     -22.985092      691.74036    
   1166000   299.63004      0.01518627     7.9932567      743.39038     -24.641215      718.74916    
   1167000   308.28397      0.01518627     10.547455      764.86104     -28.633207      736.22783    
   1168000   298.86432      0.01518627     8.8034266      741.49061     -29.132579      712.35803    
   1169000   296.44554      0.01518627     5.9627031      735.48956     -20.855297      714.63427    
   1170000   295.84162      0.01518627     8.6808905      733.99122     -19.248889      714.74233    
   1171000   296.38933      0.01518627     7.8302996      735.35011     -22.553567      712.79654    
   1172000   293.24286      0.01518627     7.8721911      727.54363     -22.892977      704.65065    
   1173000   310.97833      0.01518627     9.1274618      771.5458      -26.517369      745.02844    
   1174000   291.96321      0.01518627     7.1694675      724.36877     -22.139652      702.22912    
   1175000   292.78452      0.01518627     8.5204616      726.40648     -23.776883      702.62959    
   1176000   296.99013      0.01518627     8.8206174      736.8407      -18.37709       718.46361    
   1177000   306.33674      0.01518627     7.9003391      760.02989     -20.136596      739.89329    
   1178000   294.86835      0.01518627     5.3511331      731.57651     -22.854411      708.7221     
   1179000   299.22291      0.01518627     11.329315      742.38029     -20.072375      722.30792    
   1180000   280.96431      0.01518627     8.3526956      697.08019     -22.201421      674.87877    
   1181000   301.65421      0.01518627     8.6651333      748.4124      -25.512078      722.90032    
   1182000   314.65745      0.01518627     5.7905604      780.67382     -23.026428      757.64739    
   1183000   291.3261       0.01518627     7.2799085      722.78809     -24.623664      698.16443    
   1184000   297.85927      0.01518627     15.526186      738.99706     -25.416477      713.58059    
   1185000   313.66094      0.01518627     8.6722149      778.20144     -22.76232       755.43912    
   1186000   307.50408      0.01518627     7.4657187      762.92609     -24.361573      738.56452    
   1187000   285.03868      0.01518627     7.714673       707.18883     -21.924637      685.26419    
   1188000   291.91436      0.01518627     8.3717795      724.24758     -24.561216      699.68637    
   1189000   308.02265      0.01518627     8.3636287      764.21268     -20.936594      743.27609    
   1190000   317.88763      0.01518627     7.4359418      788.68796     -21.052793      767.63517    
   1191000   286.08106      0.01518627     6.986928       709.775       -24.022365      685.75263    
   1192000   296.81831      0.01518627     10.609323      736.4144      -17.746506      718.66789    
   1193000   312.99881      0.01518627     8.6801515      776.55868     -22.477468      754.08121    
   1194000   299.39661      0.01518627     8.2472676      742.81123     -25.163992      717.64724    
   1195000   298.5924       0.01518627     8.4448572      740.81596     -26.255102      714.56086    
   1196000   298.6626       0.01518627     8.771864       740.99015     -26.098121      714.89203    
   1197000   304.03596      0.01518627     7.8056716      754.3216      -29.199404      725.12219    
   1198000   313.77883      0.01518627     8.7543576      778.49393     -30.070554      748.42337    
   1199000   300.71155      0.01518627     10.629187      746.07365     -29.131298      716.94235    
   1200000   276.34061      0.01518627     7.3348234      685.60867     -29.862444      655.74623    
   1201000   286.1477       0.01518627     6.9560212      709.94033     -29.763238      680.17709    
   1202000   310.80582      0.01518627     9.2715858      771.11781     -25.526438      745.59137    
   1203000   305.74558      0.01518627     8.4356179      758.56321     -27.07831       731.4849     
   1204000   294.70489      0.01518627     8.9782517      731.17095     -27.972925      703.19802    
   1205000   293.3822       0.01518627     6.4128655      727.88933     -26.09294       701.79639    
   1206000   312.99813      0.01518627     9.8790345      776.55698     -26.622622      749.93436    
   1207000   300.14172      0.01518627     9.3521707      744.65988     -27.050924      717.60896    
   1208000   296.07029      0.01518627     8.5751936      734.55856     -22.398455      712.1601     
   1209000   295.04967      0.01518627     2.8531665      732.02635     -23.175314      708.85104    
   1210000   301.26841      0.01518627     4.0491406      747.45523     -24.724194      722.73103    
   1211000   297.04658      0.01518627     9.4256828      736.98075     -23.520269      713.46048    
   1212000   298.03176      0.01518627     12.497639      739.42501     -27.866173      711.55884    
   1213000   300.74177      0.01518627     4.8659974      746.14861     -29.885059      716.26355    
   1214000   294.38302      0.01518627     6.0967497      730.3724      -30.003029      700.36937    
   1215000   287.6986       0.01518627     10.323562      713.78815     -25.856373      687.93178    
   1216000   282.12958      0.01518627     6.9178434      699.97127     -25.106449      674.86482    
   1217000   299.58414      0.01518627     4.5908591      743.27652     -24.01971       719.25681    
   1218000   312.24579      0.01518627     4.5374061      774.69042     -24.16258       750.52784    
   1219000   306.70267      0.01518627     10.75086       760.93779     -22.955876      737.98191    
   1220000   294.21182      0.01518627     10.539503      729.94764     -24.724786      705.22286    
   1221000   277.54716      0.01518627     10.666164      688.60215     -28.64704       659.95511    
   1222000   309.03356      0.01518627     6.5307179      766.72077     -24.675805      742.04497    
   1223000   310.85396      0.01518627     17.814356      771.23725     -29.666874      741.57038    
   1224000   282.8497       0.01518627     13.434999      701.75791     -29.296541      672.46137    
   1225000   293.06112      0.01518627     2.3570861      727.09272     -30.428123      696.6646     
   1226000   310.59439      0.01518627     7.2002527      770.59323     -28.266008      742.32723    
   1227000   303.01373      0.01518627     18.314547      751.78541     -25.895221      725.89019    
   1228000   295.8894       0.01518627     6.2637033      734.10975     -27.470382      706.63937    
   1229000   314.08057      0.01518627     9.4473497      779.24256     -24.411848      754.83071    
   1230000   298.16247      0.01518627     10.627429      739.74931     -26.095545      713.65376    
   1231000   303.15623      0.01518627     11.200709      752.13897     -30.874582      721.26439    
   1232000   289.54897      0.01518627     2.2687466      718.37897     -30.026182      688.35278    
   1233000   294.73764      0.01518627     8.041238       731.25222     -28.300681      702.95154    
   1234000   313.80006      0.01518627     7.5272332      778.54661     -31.324266      747.22234    
   1235000   293.13638      0.01518627     9.2266967      727.27944     -26.688415      700.59103    
   1236000   293.28347      0.01518627     8.3148532      727.64438     -28.643959      699.00043    
   1237000   297.94249      0.01518627     2.5416035      739.20352     -21.54102       717.6625     
   1238000   315.33353      0.01518627     10.905542      782.35118     -23.642859      758.70832    
   1239000   305.61037      0.01518627     8.6879775      758.22774     -22.854739      735.373      
   1240000   295.66437      0.01518627     4.5659586      733.55146     -20.203752      713.34771    
   1241000   300.51123      0.01518627     8.9129846      745.57665     -18.816962      726.75969    
   1242000   296.59326      0.01518627     8.3385145      735.85606     -18.640612      717.21545    
   1243000   295.65075      0.01518627     8.7177625      733.51766     -16.477847      717.03981    
   1244000   292.38222      0.01518627     6.1075166      725.40834     -18.967604      706.44074    
   1245000   299.84975      0.01518627     8.0980247      743.93548     -19.330911      724.60457    
   1246000   305.70675      0.01518627     7.9909392      758.46688     -15.79244       742.67444    
   1247000   291.80344      0.01518627     7.1511218      723.97238     -23.274703      700.69768    
   1248000   289.14272      0.01518627     10.25555       717.37105     -24.120016      693.25103    
   1249000   306.46293      0.01518627     8.5659575      760.34299     -23.87097       736.47202    
   1250000   302.30238      0.01518627     4.1927933      750.02054     -23.100753      726.91979    
   1251000   285.41807      0.01518627     10.495467      708.13009     -25.311514      682.81857    
   1252000   289.95297      0.01518627     13.139045      719.38132     -23.655694      695.72562    
   1253000   316.9412       0.01518627     7.6327774      786.33986     -20.713287      765.62657    
   1254000   302.61388      0.01518627     6.3441697      750.79337     -21.122523      729.67084    
   1255000   288.90986      0.01518627     4.9945738      716.79333     -23.254663      693.53866    
   1256000   288.02756      0.01518627     8.1241604      714.60432     -26.637881      687.96644    
   1257000   298.77916      0.01518627     6.0214074      741.27934     -23.755846      717.52349    
   1258000   305.1834       0.01518627     11.526832      757.16842     -23.861749      733.30667    
   1259000   299.36849      0.01518627     2.8304674      742.74147     -20.817028      721.92444    
   1260000   302.09417      0.01518627     7.620555       749.50396     -19.595103      729.90886    
   1261000   298.91807      0.01518627     7.7963898      741.62397     -18.863913      722.76005    
   1262000   287.63138      0.01518627     11.732587      713.62137     -17.367486      696.25389    
   1263000   305.45241      0.01518627     12.521637      757.83584     -19.750197      738.08564    
   1264000   316.22795      0.01518627     2.4786246      784.57026     -19.113945      765.45631    
   1265000   302.60488      0.01518627     9.0192236      750.77105     -20.262848      730.5082     
   1266000   297.78262      0.01518627     8.679905       738.8069      -22.208668      716.59823    
   1267000   297.08984      0.01518627     1.5186906      737.08809     -19.877847      717.21025    
   1268000   312.97376      0.01518627     7.750777       776.49653     -24.369615      752.12691    
   1269000   299.15629      0.01518627     10.933148      742.21501     -22.455216      719.75979    
   1270000   299.3421       0.01518627     9.3485373      742.67599     -24.365516      718.31047    
   1271000   303.28007      0.01518627     3.0601587      752.4462      -21.897649      730.54855    
   1272000   302.65014      0.01518627     6.7063087      750.88335     -24.589367      726.29398    
   1273000   291.12821      0.01518627     13.065354      722.29711     -24.070639      698.22647    
   1274000   301.13849      0.01518627     12.080004      747.13289     -18.850955      728.28193    
   1275000   309.72792      0.01518627     5.8648254      768.44351     -19.569263      748.87424    
   1276000   302.11692      0.01518627     7.4548421      749.56041     -23.017275      726.54313    
   1277000   293.73153      0.01518627     6.8370845      728.75602     -19.800785      708.95524    
   1278000   299.00283      0.01518627     11.257313      741.83426     -21.983542      719.85072    
   1279000   309.12517      0.01518627     6.4067679      766.94807     -23.867618      743.08045    
   1280000   309.01217      0.01518627    -3.6808991      766.66771     -22.872046      743.79567    
   1281000   293.77973      0.01518627     7.5153396      728.8756      -26.046331      702.82927    
   1282000   292.10816      0.01518627     8.7951465      724.7284      -25.155128      699.57327    
   1283000   303.98007      0.01518627     7.3280488      754.18294     -25.062564      729.12038    
   1284000   301.17068      0.01518627     1.1723697      747.21277     -27.104893      720.10788    
   1285000   283.56339      0.01518627     10.020394      703.52859     -30.918396      672.6102     
   1286000   298.20312      0.01518627     11.562848      739.85016     -30.702348      709.14782    
   1287000   317.67408      0.01518627     6.1180894      788.15816     -29.652251      758.50591    
   1288000   300.45009      0.01518627    -1.6773622      745.42495     -24.819534      720.60542    
   1289000   290.5098       0.01518627     10.726305      720.76283     -23.556235      697.20659    
   1290000   307.20967      0.01518627     10.062296      762.19566     -27.184599      735.01106    
   1291000   300.55475      0.01518627     0.75620637     745.68462     -25.037854      720.64677    
   1292000   292.82524      0.01518627     9.1769392      726.50748     -24.839489      701.66799    
   1293000   303.79374      0.01518627     10.862432      753.72064     -28.336705      725.38393    
   1294000   314.71144      0.01518627     12.372316      780.80776     -28.488543      752.31922    
   1295000   307.06442      0.01518627     6.8302348      761.8353      -27.896922      733.93838    
   1296000   285.87512      0.01518627     5.0241324      709.26405     -27.754921      681.50913    
   1297000   307.9975       0.01518627     8.575714       764.15029     -27.719933      736.43036    
   1298000   307.79923      0.01518627     7.6753614      763.65837     -28.8686        734.78977    
   1299000   291.26913      0.01518627     3.7984097      722.64674     -22.384537      700.2622     
   1300000   290.0965       0.01518627     8.6221893      719.73741     -23.065791      696.67162    
   1301000   309.13913      0.01518627     9.03441        766.98271     -20.124695      746.85802    
   1302000   308.77752      0.01518627     6.4487547      766.08553     -20.67206       745.41347    
   1303000   289.43467      0.01518627     7.7163409      718.09538     -20.697817      697.39757    
   1304000   296.37171      0.01518627     10.081442      735.30638     -24.937648      710.36873    
   1305000   303.26714      0.01518627     9.3013599      752.41413     -21.697204      730.71692    
   1306000   312.28145      0.01518627     8.460394       774.77889     -20.617222      754.16167    
   1307000   290.12201      0.01518627     7.1732324      719.8007      -20.069587      699.73111    
   1308000   292.82622      0.01518627     8.7789996      726.50993     -20.524184      705.98574    
   1309000   307.45778      0.01518627     4.6651099      762.81123     -20.96701       741.84422    
   1310000   308.52697      0.01518627     10.417172      765.46391     -23.617729      741.84618    
   1311000   300.86194      0.01518627     9.174242       746.44676     -23.924569      722.52219    
   1312000   285.31765      0.01518627     8.0909007      707.88095     -25.278224      682.60273    
   1313000   296.53468      0.01518627     6.7822635      735.71071     -28.437955      707.27276    
   1314000   305.19938      0.01518627     7.5666592      757.20807     -24.671424      732.53665    
   1315000   305.1631       0.01518627     8.040581       757.11806     -24.984198      732.13386    
   1316000   297.16002      0.01518627     7.9208211      737.2622      -25.31487       711.94733    
   1317000   286.78599      0.01518627     8.2299233      711.52395     -22.06738       689.45657    
   1318000   310.06596      0.01518627     8.0669399      769.28219     -21.95376       747.32843    
   1319000   302.87329      0.01518627     9.3933484      751.43697     -19.130143      732.30683    
   1320000   298.56812      0.01518627     7.0911803      740.75573     -21.520702      719.23503    
   1321000   289.44847      0.01518627     8.4998211      718.12964     -20.653732      697.47591    
   1322000   295.66955      0.01518627     10.540405      733.56431     -19.867204      713.6971     
   1323000   307.66922      0.01518627     9.1990392      763.33582     -16.516215      746.8196     
   1324000   295.0672       0.01518627     6.6435777      732.06985     -19.375082      712.69477    
   1325000   294.80375      0.01518627     8.804337       731.41623     -19.18849       712.22774    
   1326000   303.67266      0.01518627     9.2204564      753.42024     -23.029216      730.39102    
   1327000   305.50495      0.01518627     7.9943381      757.9662      -23.437537      734.52866    
   1328000   299.01151      0.01518627     7.7463934      741.8558      -22.880282      718.97552    
   1329000   288.02374      0.01518627     9.304794       714.59484     -20.461594      694.13325    
   1330000   301.01105      0.01518627     8.9574133      746.8167      -20.637255      726.17945    
   1331000   309.42565      0.01518627    -0.65572226     767.69358     -21.443622      746.24995    
   1332000   297.75295      0.01518627     3.9991966      738.73329     -20.796594      717.93669    
   1333000   294.47668      0.01518627     8.4656884      730.60476     -24.262898      706.34186    
   1334000   303.74493      0.01518627     11.428392      753.59955     -21.923108      731.67645    
   1335000   304.02971      0.01518627     7.6297789      754.3061      -21.863723      732.44238    
   1336000   305.69519      0.01518627     6.0981119      758.4382      -26.048529      732.38968    
   1337000   280.4615       0.01518627     8.8913606      695.83272     -24.441345      671.39137    
   1338000   289.36343      0.01518627     9.7614753      717.91865     -25.98238       691.93627    
   1339000   310.58628      0.01518627     10.424757      770.57313     -26.311406      744.26172    
   1340000   298.77847      0.01518627     4.449551       741.27762     -25.318604      715.95902    
   1341000   291.7312       0.01518627     8.3377825      723.79314     -21.748055      702.04509    
   1342000   308.24259      0.01518627     10.29536       764.75836     -24.80832       739.95004    
   1343000   310.34235      0.01518627     8.3921058      769.96793     -22.760249      747.20768    
   1344000   281.33827      0.01518627     7.6262946      698.00799     -22.60164       675.40635    
   1345000   297.47979      0.01518627     7.8128038      738.05557     -21.76583       716.28974    
   1346000   314.0874       0.01518627     8.1337259      779.25949     -22.991694      756.26779    
   1347000   307.65599      0.01518627     8.9248445      763.30299     -24.333293      738.9697     
   1348000   300.2562       0.01518627     8.0912117      744.94391     -19.579156      725.36476    
   1349000   294.48686      0.01518627     8.8822716      730.63001     -19.971257      710.65875    
   1350000   299.92238      0.01518627     10.365857      744.1157      -19.180296      724.9354     
   1351000   309.8774       0.01518627     9.0552127      768.81437     -22.439132      746.37524    
   1352000   293.32282      0.01518627     8.6616502      727.74201     -20.363017      707.37899    
   1353000   288.24061      0.01518627     13.444281      715.13291     -21.856944      693.27596    
   1354000   301.74355      0.01518627     6.5935352      748.63407     -24.475652      724.15842    
   1355000   306.90981      0.01518627     8.5519743      761.45171     -25.1131        736.33861    
   1356000   303.24105      0.01518627     9.7091551      752.34941     -28.113354      724.23606    
   1357000   305.34997      0.01518627     8.8847519      757.5817      -22.00208       735.57962    
   1358000   281.36337      0.01518627     7.8184384      698.07027     -25.748777      672.3215     
   1359000   291.63651      0.01518627     4.9813811      723.55821     -22.21414       701.34407    
   1360000   312.32696      0.01518627     10.575766      774.89179     -22.6449        752.24689    
   1361000   287.57133      0.01518627     10.504878      713.47239     -21.924272      691.54812    
   1362000   287.17164      0.01518627     8.6712125      712.48077     -23.80324       688.67753    
   1363000   306.68693      0.01518627     8.6528234      760.89871     -22.017279      738.88144    
   1364000   301.77292      0.01518627     8.1991562      748.70694     -26.331517      722.37542    
   1365000   279.90067      0.01518627     6.4959598      694.44128     -22.654654      671.78663    
   1366000   299.40331      0.01518627     8.5123762      742.82786     -21.602008      721.22585    
   1367000   295.17363      0.01518627     12.022917      732.33391     -18.620382      713.71353    
   1368000   304.12469      0.01518627     6.6491895      754.54173     -18.097802      736.44393    
   1369000   304.90765      0.01518627     7.8915941      756.48429     -23.143148      733.34114    
   1370000   288.49361      0.01518627     8.0003348      715.76059     -24.740096      691.02049    
   1371000   297.71251      0.01518627     10.564607      738.63295     -30.437422      708.19553    
   1372000   300.11782      0.01518627     8.6171433      744.60059     -28.541716      716.05887    
   1373000   310.36254      0.01518627     11.069314      770.01802     -24.725853      745.29216    
   1374000   288.69586      0.01518627     6.7399529      716.26239     -20.952716      695.30967    
   1375000   290.5351       0.01518627     7.8028031      720.8256      -18.011637      702.81396    
   1376000   317.97874      0.01518627     8.528494       788.91401     -18.194169      770.71985    
   1377000   300.30984      0.01518627     7.6918001      745.07699     -20.292731      724.78426    
   1378000   296.62128      0.01518627     8.4673706      735.92558     -22.577839      713.34774    
   1379000   306.58542      0.01518627     7.8355373      760.64687     -19.884508      740.76236    
   1380000   303.12639      0.01518627     8.3120013      752.06494     -22.62533       729.43961    
   1381000   299.39311      0.01518627     7.7555278      742.80257     -24.643833      718.15874    
   1382000   277.23803      0.01518627     6.9898737      687.8352      -25.323093      662.51211    
   1383000   299.53726      0.01518627     8.8601485      743.1602      -23.890505      719.2697     
   1384000   302.86353      0.01518627     10.758686      751.41277     -23.206264      728.2065     
   1385000   306.89865      0.01518627     9.4732745      761.42401     -21.999513      739.4245     
   1386000   295.60866      0.01518627     7.8548185      733.41323     -21.091317      712.32191    
   1387000   293.04337      0.01518627     8.7860111      727.04868     -21.218278      705.8304     
   1388000   305.90879      0.01518627     8.9074219      758.96815     -18.047717      740.92043    
   1389000   293.99132      0.01518627     7.4191518      729.40057     -20.98027       708.4203     
   1390000   287.12427      0.01518627     6.1577456      712.36323     -22.302826      690.0604     
   1391000   297.15152      0.01518627     9.1548942      737.24112     -16.206063      721.03506    
   1392000   297.95822      0.01518627     4.0438858      739.24255     -18.746359      720.49619    
   1393000   303.77663      0.01518627     8.8883716      753.67819     -17.61975       736.05844    
   1394000   305.27156      0.01518627     10.26014       757.38715     -17.936625      739.45053    
   1395000   302.20993      0.01518627     8.7023171      749.79118     -21.465504      728.32567    
   1396000   292.00811      0.01518627     7.1026523      724.48018     -20.283788      704.19639    
   1397000   300.21237      0.01518627     9.5873112      744.83517     -18.069945      726.76523    
   1398000   315.03837      0.01518627     8.8150724      781.61888     -20.145499      761.47338    
   1399000   297.18887      0.01518627     5.6893461      737.33378     -18.534773      718.79901    
   1400000   289.56519      0.01518627     4.4787066      718.41921     -22.437002      695.98221    
   1401000   297.248        0.01518627     9.754624       737.48048     -21.136258      716.34422    
   1402000   310.85712      0.01518627     11.163807      771.24509     -18.893621      752.35147    
   1403000   297.72653      0.01518627     3.8503574      738.66774     -20.108921      718.55882    
   1404000   308.05534      0.01518627     13.675991      764.29378     -21.161026      743.13276    
   1405000   298.79498      0.01518627     10.773031      741.31857     -19.197785      722.12078    
   1406000   298.44252      0.01518627    -1.1896847      740.44413     -19.36889       721.07524    
   1407000   293.98483      0.01518627     8.7456025      729.38446     -22.79618       706.58828    
   1408000   304.8088       0.01518627     12.748151      756.23903     -22.982954      733.25607    
   1409000   302.19576      0.01518627     2.550259       749.75601     -20.857066      728.89894    
   1410000   296.96669      0.01518627     3.631432       736.78255     -25.765827      711.01673    
   1411000   305.15805      0.01518627     9.9848219      757.10553     -24.369986      732.73554    
   1412000   294.8905       0.01518627     16.852434      731.63145     -21.384851      710.2466     
   1413000   299.97004      0.01518627    -1.2675751      744.23393     -23.278925      720.95501    
   1414000   297.06123      0.01518627     5.5680798      737.01709     -24.540003      712.47709    
   1415000   302.1568       0.01518627     8.9541323      749.65936     -21.645095      728.01427    
   1416000   310.86698      0.01518627    -4.9047988      771.26955     -20.6286        750.64095    
   1417000   293.58339      0.01518627     1.9874798      728.38848     -22.37849       706.00999    
   1418000   297.98253      0.01518627     9.1487462      739.30287     -22.883202      716.41967    
   1419000   311.69164      0.01518627     11.912763      773.31556     -24.166058      749.1495     
   1420000   300.47707      0.01518627     4.2513743      745.49189     -28.297787      717.19411    
   1421000   279.44904      0.01518627     7.7130039      693.32076     -28.208633      665.11213    
   1422000   305.17163      0.01518627     8.3101453      757.13921     -25.980442      731.15877    
   1423000   299.17707      0.01518627     7.9234461      742.26657     -25.481177      716.78539    
   1424000   299.92252      0.01518627     6.7177947      744.11604     -24.766855      719.34918    
   1425000   285.03788      0.01518627     6.7576183      707.18683     -26.272074      680.91476    
   1426000   300.76046      0.01518627     7.9581957      746.19498     -27.30813       718.88685    
   1427000   310.18693      0.01518627     9.7510888      769.58232     -28.803298      740.77902    
   1428000   312.56164      0.01518627     7.3510235      775.47406     -27.784048      747.69001    
   1429000   286.14253      0.01518627     5.2323753      709.92751     -30.738527      679.18899    
   1430000   301.31268      0.01518627     8.5093434      747.56506     -28.03238       719.53268    
   1431000   313.38547      0.01518627     11.385514      777.51799     -30.268239      747.24975    
   1432000   298.03744      0.01518627     11.455254      739.4391      -27.242024      712.19707    
   1433000   302.11408      0.01518627     3.6819237      749.55337     -24.386768      725.1666     
   1434000   296.43599      0.01518627     6.4816131      735.46586     -22.868103      712.59775    
   1435000   316.15787      0.01518627     14.187502      784.39639     -24.278628      760.11776    
   1436000   301.04496      0.01518627     6.8660989      746.90086     -24.394304      722.50655    
   1437000   291.28489      0.01518627     7.7114958      722.68585     -26.288765      696.39708    
   1438000   307.98198      0.01518627     10.067775      764.11178     -32.148691      731.96309    
   1439000   310.76878      0.01518627     8.648614       771.0259      -29.131668      741.89423    
   1440000   294.55429      0.01518627     7.8179258      730.79732     -25.516126      705.28119    
   1441000   301.59938      0.01518627     15.289191      748.27638     -25.228728      723.04765    
   1442000   311.32634      0.01518627     5.3418626      772.40924     -21.414899      750.99434    
   1443000   290.76065      0.01518627     5.9320035      721.38518     -23.506412      697.87877    
   1444000   291.0634       0.01518627     7.6285         722.13631     -22.775866      699.36044    
   1445000   289.50676      0.01518627     11.685805      718.27426     -22.274441      695.99982    
   1446000   312.3091       0.01518627     8.4064005      774.84748     -19.486608      755.36087    
   1447000   302.78752      0.01518627     7.1891667      751.22417     -23.225081      727.99909    
   1448000   295.295        0.01518627     7.7752246      732.63504     -24.067716      708.56732    
   1449000   287.07827      0.01518627     7.6559162      712.24909     -22.355202      689.89389    
   1450000   307.6469       0.01518627     7.1377958      763.28045     -23.619951      739.6605     
   1451000   302.51252      0.01518627     4.8485807      750.5419      -27.522442      723.01945    
   1452000   293.33523      0.01518627     8.5994623      727.77279     -26.515728      701.25706    
   1453000   308.21915      0.01518627     9.974084       764.70021     -24.328255      740.37196    
   1454000   305.53337      0.01518627     7.0898066      758.03671     -23.136497      734.90022    
   1455000   296.16023      0.01518627     6.5470849      734.78168     -24.93012       709.85156    
   1456000   297.83691      0.01518627     9.0987684      738.94157     -24.812621      714.12895    
   1457000   301.71867      0.01518627     8.3912785      748.57235     -19.98258       728.58977    
   1458000   295.74318      0.01518627     7.6116478      733.74699     -21.87462       711.87237    
   1459000   308.67472      0.01518627     8.3245563      765.83049     -24.735792      741.0947     
   1460000   307.49651      0.01518627     8.292129       762.90731     -19.827713      743.0796     
   1461000   306.36244      0.01518627     8.4341643      760.09367     -23.496144      736.59752    
   1462000   291.6773       0.01518627     8.6593377      723.65941     -24.148543      699.51087    
   1463000   285.4914       0.01518627     5.0271074      708.31202     -21.120004      687.19202    
   1464000   300.6291       0.01518627     2.2362145      745.86909     -20.952851      724.91624    
   1465000   306.29506      0.01518627     7.9240276      759.92648     -25.340299      734.58618    
   1466000   296.82196      0.01518627     8.3693309      736.42348     -25.108718      711.31476    
   1467000   304.51627      0.01518627     8.3724219      755.51325     -24.962448      730.5508     
   1468000   305.37226      0.01518627     8.7908575      757.637       -27.511649      730.12535    
   1469000   308.08546      0.01518627     8.2672848      764.36853     -26.565207      737.80332    
   1470000   280.83464      0.01518627     4.1648257      696.75848     -25.386959      671.37153    
   1471000   292.38039      0.01518627     9.0017169      725.40382     -23.88962       701.5142     
   1472000   305.67424      0.01518627     12.829925      758.38621     -24.743906      733.6423     
   1473000   310.85282      0.01518627     10.329744      771.23442     -22.098117      749.1363     
   1474000   297.30638      0.01518627     5.9080057      737.62532     -26.45252       711.1728     
   1475000   283.88814      0.01518627     8.4448304      704.33429     -24.297692      680.0366     
   1476000   299.19222      0.01518627     8.1372279      742.30416     -21.735028      720.56913    
   1477000   315.48521      0.01518627     8.6852089      782.72749     -24.985627      757.74186    
   1478000   308.31633      0.01518627     7.5599903      764.9413      -21.200073      743.74123    
   1479000   288.04734      0.01518627     5.9402737      714.6534      -24.79318       689.86022    
   1480000   289.17312      0.01518627     7.6661077      717.44649     -24.057571      693.38892    
   1481000   291.40093      0.01518627     7.9783569      722.97375     -20.620223      702.35352    
   1482000   305.04884      0.01518627     10.293889      756.83459     -19.115584      737.71901    
   1483000   296.65949      0.01518627     4.101326       736.02037     -21.898008      714.12236    
   1484000   297.15649      0.01518627     7.2158779      737.25344     -22.028912      715.22453    
   1485000   305.32683      0.01518627     8.8971309      757.52427     -20.458966      737.0653     
   1486000   307.48145      0.01518627     6.0097242      762.86995     -17.317287      745.55267    
   1487000   302.36647      0.01518627     9.7192011      750.17955     -19.068931      731.11062    
   1488000   286.78732      0.01518627     9.9793581      711.52724     -21.943318      689.58392    
   1489000   297.02076      0.01518627     4.3111207      736.9167      -21.93452       714.98218    
   1490000   308.66773      0.01518627     8.8751964      765.81315     -26.290975      739.52217    
   1491000   295.84973      0.01518627     14.468962      734.01133     -25.8565        708.15483    
   1492000   288.13829      0.01518627     6.2510504      714.87904     -28.925736      685.9533     
   1493000   307.36813      0.01518627     3.4120809      762.58879     -29.29922       733.28957    
   1494000   303.59083      0.01518627     11.146071      753.21721     -24.64853       728.56868    
   1495000   295.8111       0.01518627     2.4476202      733.91549     -24.172726      709.74277    
   1496000   295.20202      0.01518627     3.5358732      732.40434     -25.013068      707.39128    
   1497000   303.37633      0.01518627     27.9876        752.68504     -26.597239      726.0878     
   1498000   298.26362      0.01518627     8.8991032      740.00027     -26.621428      713.37884    
   1499000   302.4723       0.01518627     2.265748       750.44211     -24.539572      725.90254    
   1500000   303.06401      0.01518627     9.5468772      751.91016     -26.158587      725.75158    
   1501000   293.14946      0.01518627     14.420159      727.31189     -23.767283      703.54461    
   1502000   294.48412      0.01518627     5.065358       730.62321     -22.558984      708.06423    
   1503000   300.12371      0.01518627    -1.344617       744.61519     -20.476292      724.1389     
   1504000   311.18835      0.01518627     9.6610488      772.06689     -24.894879      747.17201    
   1505000   286.75043      0.01518627     12.337471      711.43572     -21.781316      689.6544     
   1506000   297.12073      0.01518627     6.6024275      737.16472     -22.028394      715.13633    
   1507000   309.99518      0.01518627     7.5618421      769.10658     -21.216789      747.8898     
   1508000   315.79756      0.01518627     6.8146932      783.50246     -18.597862      764.9046     
   1509000   303.21879      0.01518627     11.35909       752.29418     -19.45954       732.83464    
   1510000   296.63746      0.01518627     14.266744      735.96571     -20.896607      715.06911    
   1511000   300.14633      0.01518627     4.1121339      744.67132     -20.911857      723.75946    
   1512000   303.89094      0.01518627     7.2175668      753.96179     -19.90405       734.05774    
   1513000   315.40875      0.01518627     10.375567      782.5378      -19.676849      762.86095    
   1514000   289.15334      0.01518627     10.170922      717.39741     -20.786571      696.61084    
   1515000   284.86232      0.01518627    -1.7785442      706.75127     -23.579932      683.17134    
   1516000   311.17303      0.01518627     10.849612      772.02887     -21.87493       750.15394    
   1517000   304.83847      0.01518627     12.029003      756.31266     -22.052753      734.2599     
   1518000   285.20592      0.01518627     5.4257522      707.60374     -21.109703      686.49404    
   1519000   298.46072      0.01518627    -0.50729831     740.48926     -25.315091      715.17417    
   1520000   312.29054      0.01518627     10.483496      774.80143     -23.519992      751.28144    
   1521000   309.06919      0.01518627     13.012672      766.80917     -24.300226      742.50895    
   1522000   285.80868      0.01518627     7.9612129      709.09921     -27.218131      681.88108    
   1523000   304.94908      0.01518627     6.75883        756.58708     -23.600876      732.9862     
   1524000   309.88994      0.01518627     6.4279102      768.84548     -26.627467      742.21801    
   1525000   298.64742      0.01518627     9.8902455      740.95248     -24.05074       716.90174    
   1526000   297.97226      0.01518627     9.4662517      739.2774      -22.576338      716.70106    
   1527000   302.63843      0.01518627     9.2236288      750.85428     -21.219049      729.63523    
   1528000   298.43594      0.01518627     2.9599208      740.4278      -24.383831      716.04397    
   1529000   300.35128      0.01518627     8.6613072      745.1798      -26.697698      718.4821     
   1530000   305.14903      0.01518627     10.049532      757.08317     -23.879618      733.20355    
   1531000   292.89237      0.01518627     10.211223      726.67404     -27.094484      699.57956    
   1532000   299.70891      0.01518627     5.8001086      743.58606     -25.503536      718.08252    
   1533000   312.27235      0.01518627     7.2301588      774.75631     -28.424745      746.33156    
   1534000   295.99747      0.01518627     9.0469021      734.37789     -27.670873      706.70702    
   1535000   295.69786      0.01518627     6.9079848      733.63455     -21.071234      712.56332    
   1536000   314.2721       0.01518627     9.1985597      779.71774     -25.937403      753.78034    
   1537000   296.50586      0.01518627     6.9176503      735.63922     -22.774003      712.86522    
   1538000   293.18273      0.01518627     8.5001061      727.39444     -23.787581      703.60686    
   1539000   301.34578      0.01518627     13.83722       747.64718     -23.925759      723.72142    
   1540000   314.19063      0.01518627    -0.29015996     779.51562     -22.305003      757.21062    
   1541000   297.51043      0.01518627     7.1399022      738.13158     -22.911545      715.22004    
   1542000   287.5352       0.01518627     12.057522      713.38275     -24.712178      688.67057    
   1543000   304.921        0.01518627     9.5254528      756.5174      -23.358162      733.15924    
   1544000   306.01999      0.01518627     6.6183974      759.24403     -26.023194      733.22084    
   1545000   303.08111      0.01518627     3.6263504      751.95258     -22.195329      729.75725    
   1546000   281.81988      0.01518627     6.1470082      699.20288     -26.455308      672.74758    
   1547000   307.6023       0.01518627     9.6512281      763.16979     -28.637783      734.53201    
   1548000   311.9219       0.01518627     7.3023068      773.88684     -25.265728      748.62111    
   1549000   302.21481      0.01518627     5.2044332      749.80328     -29.817603      719.98568    
   1550000   287.11966      0.01518627     7.4265794      712.35179     -28.897878      683.45391    
   1551000   291.91862      0.01518627     12.764108      724.25814     -29.354159      694.90398    
   1552000   327.87423      0.01518627     10.035422      813.46501     -26.404226      787.06079    
   1553000   309.43277      0.01518627     7.9051967      767.71124     -24.493646      743.21759    
   1554000   283.72727      0.01518627     7.3645875      703.93519     -22.632682      681.30251    
   1555000   302.32347      0.01518627     10.049468      750.07286     -26.479566      723.59329    
   1556000   317.21207      0.01518627     8.5348847      787.01189     -26.00391       761.00798    
   1557000   286.91451      0.01518627     7.9004473      711.84282     -24.382429      687.46039    
   1558000   285.61649      0.01518627     6.2201793      708.62238     -25.10842       683.51396    
   1559000   305.71265      0.01518627     7.5906591      758.48152     -23.010613      735.47091    
   1560000   314.07906      0.01518627     8.3505002      779.2388      -24.56297       754.67583    
   1561000   302.71698      0.01518627     10.293309      751.04918     -26.164932      724.88425    
   1562000   284.5565       0.01518627     7.3636894      705.99252     -28.990319      677.0022     
   1563000   298.61578      0.01518627     5.1944524      740.87397     -22.814144      718.05983    
   1564000   305.99061      0.01518627     7.6523051      759.17115     -25.054785      734.11636    
   1565000   297.38204      0.01518627     11.931765      737.81304     -21.388932      716.42411    
   1566000   287.10813      0.01518627     9.4273988      712.32317     -23.190542      689.13263    
   1567000   287.01175      0.01518627     5.2412043      712.08406     -22.818447      689.26561    
   1568000   311.85517      0.01518627     6.469711       773.72127     -20.098095      753.62318    
   1569000   306.31695      0.01518627     9.9275695      759.98079     -21.678547      738.30224    
   1570000   295.69315      0.01518627     8.6919521      733.62285     -23.923635      709.69922    
   1571000   289.18727      0.01518627     8.0553715      717.48159     -21.124354      696.35724    
   1572000   310.56449      0.01518627     5.8408866      770.51906     -20.701766      749.81729    
   1573000   309.17715      0.01518627     10.711173      767.07704     -20.41979       746.65725    
   1574000   289.73573      0.01518627     11.139578      718.84232     -22.985889      695.85643    
   1575000   291.62201      0.01518627     5.4084986      723.52225     -20.230859      703.29139    
   1576000   310.70589      0.01518627     10.086713      770.86989     -21.706425      749.16346    
   1577000   300.80165      0.01518627     9.5458763      746.29719     -23.104503      723.19269    
   1578000   294.98288      0.01518627     4.7923648      731.86066     -25.990699      705.86996    
   1579000   301.66353      0.01518627     9.0223736      748.43554     -25.926697      722.50884    
   1580000   293.92657      0.01518627     10.773677      729.23992     -26.501287      702.73864    
   1581000   295.42989      0.01518627     10.132077      732.9697      -23.501151      709.46855    
   1582000   287.22884      0.01518627     5.5371665      712.62267     -24.902422      687.72025    
   1583000   304.56651      0.01518627     7.1156046      755.6379      -23.315186      732.32271    
   1584000   301.80878      0.01518627     17.574482      748.79591     -19.508108      729.28781    
   1585000   290.76834      0.01518627     6.0424719      721.40426     -18.585822      702.81844    
   1586000   302.02753      0.01518627     3.839898       749.33863     -17.384849      731.95378    
   1587000   309.73492      0.01518627     11.924948      768.46088     -18.148027      750.31285    
   1588000   291.98887      0.01518627     15.704443      724.43244     -19.60862       704.82382    
   1589000   291.756        0.01518627     11.138604      723.85467     -21.045175      702.8095     
   1590000   298.97158      0.01518627     9.6662825      741.75673     -25.257086      716.49965    
   1591000   301.00192      0.01518627     8.3040744      746.79405     -25.834422      720.95963    
   1592000   310.04297      0.01518627     8.3062088      769.22516     -32.764801      736.46036    
   1593000   310.38554      0.01518627     8.4552939      770.07507     -29.611786      740.46328    
   1594000   304.45993      0.01518627     8.5941546      755.37347     -29.60683       725.76664    
   1595000   294.03479      0.01518627     7.7388003      729.50841     -26.606085      702.90233    
   1596000   296.87127      0.01518627     11.105261      736.54579     -32.350027      704.19577    
   1597000   306.13594      0.01518627     8.086895       759.53171     -33.18247       726.34924    
   1598000   291.21821      0.01518627     7.2102552      722.5204      -31.647136      690.87327    
   1599000   300.70498      0.01518627     12.851338      746.05734     -27.69505       718.36229    
   1600000   313.47516      0.01518627     8.0613317      777.74051     -24.619146      753.12136    
   1601000   287.59838      0.01518627     4.6719955      713.5395      -20.649101      692.8904     
   1602000   294.95913      0.01518627     10.541572      731.80174     -19.525037      712.2767     
   1603000   316.42489      0.01518627     6.6808644      785.05887     -24.72767       760.3312     
   1604000   302.208        0.01518627     7.8423307      749.78637     -25.822615      723.96375    
   1605000   293.99392      0.01518627     5.0777897      729.40702     -23.362061      706.04496    
   1606000   291.89502      0.01518627    -0.19440983     724.1996      -29.181904      695.0177     
   1607000   312.47759      0.01518627     10.5732        775.26551     -27.847906      747.41761    
   1608000   292.77134      0.01518627     6.830492       726.37376     -26.129006      700.24476    
   1609000   323.02083      0.01518627     2.6347517      801.42359     -30.996481      770.42711    
   1610000   302.01911      0.01518627     10.372487      749.31774     -27.595904      721.72184    
   1611000   296.20473      0.01518627     8.3453535      734.8921      -21.430671      713.46143    
   1612000   299.47124      0.01518627     7.9076146      742.9964      -21.926288      721.07011    
   1613000   307.11789      0.01518627     6.6593242      761.96795     -18.642578      743.32537    
   1614000   312.99417      0.01518627     8.7767762      776.54717     -20.517588      756.02959    
   1615000   306.36197      0.01518627     10.472404      760.09249     -21.299838      738.79265    
   1616000   295.55969      0.01518627     9.3224254      733.29174     -25.959915      707.33182    
   1617000   283.14288      0.01518627     7.8209768      702.48529     -31.517505      670.96779    
   1618000   311.4424       0.01518627     7.0036825      772.69719     -23.129605      749.56758    
   1619000   303.81268      0.01518627     7.5303731      753.76763     -26.380367      727.38726    
   1620000   286.28836      0.01518627     7.4447404      710.28932     -28.27693       682.01239    
   1621000   303.00282      0.01518627     7.2267073      751.75834     -30.004981      721.75336    
   1622000   308.92013      0.01518627     9.1983383      766.43936     -25.413581      741.02578    
   1623000   293.17718      0.01518627     9.0782797      727.38067     -27.158399      700.22227    
   1624000   290.61115      0.01518627     7.9452362      721.01427     -26.552253      694.46201    
   1625000   316.74763      0.01518627     5.3025571      785.85961     -25.472545      760.38706    
   1626000   311.7737       0.01518627     9.9615004      773.51915     -26.125731      747.39342    
   1627000   285.3741       0.01518627     5.9610745      708.02102     -27.920611      680.10041    
   1628000   301.5971       0.01518627     7.5019609      748.27071     -29.309108      718.9616     
   1629000   307.60081      0.01518627     8.3249265      763.16609     -27.62837       735.53772    
   1630000   302.75049      0.01518627     7.7152877      751.13231     -28.325976      722.80633    
   1631000   286.85288      0.01518627     9.1626571      711.6899      -29.96518       681.72472    
   1632000   303.30777      0.01518627     12.560706      752.51494     -29.509487      723.00545    
   1633000   302.37449      0.01518627     7.1119806      750.19944     -31.754779      718.44466    
   1634000   292.22546      0.01518627     7.9540401      725.01942     -29.689773      695.32965    
   1635000   301.33313      0.01518627     8.9839358      747.6158      -30.291935      717.32387    
   1636000   312.65602      0.01518627     9.507051       775.7082      -30.540546      745.16765    
   1637000   300.32192      0.01518627     7.2687107      745.10696     -29.585074      715.52188    
   1638000   294.06075      0.01518627     5.2151112      729.57282     -25.362967      704.20985    
   1639000   295.49642      0.01518627     9.7631241      733.13476     -25.230207      707.90455    
   1640000   314.81337      0.01518627     4.0460826      781.06066     -30.932497      750.12816    
   1641000   298.78987      0.01518627     2.394876       741.30591     -28.137849      713.16806    
   1642000   284.79569      0.01518627     7.7898201      706.58596     -26.648128      679.93784    
   1643000   295.65709      0.01518627     10.617369      733.53339     -27.334471      706.19892    
   1644000   304.89045      0.01518627     7.2704548      756.44162     -23.926845      732.51477    
   1645000   305.04228      0.01518627     7.0526981      756.8183      -22.306084      734.51221    
   1646000   303.51289      0.01518627     0.70292396     753.02384     -23.6287        729.39514    
   1647000   288.78122      0.01518627     7.3196179      716.47418     -26.959542      689.51463    
   1648000   301.39614      0.01518627     10.659269      747.77213     -25.077052      722.69508    
   1649000   313.90802      0.01518627     8.457919       778.81446     -26.80025       752.01421    
   1650000   302.6131       0.01518627     5.1065225      750.79145     -33.196359      717.59509    
   1651000   291.73572      0.01518627     7.448625       723.80437     -29.409805      694.39457    
   1652000   297.0889       0.01518627     9.3603191      737.08574     -30.834811      706.25093    
   1653000   326.24994      0.01518627     10.566984      809.43509     -25.733213      783.70188    
   1654000   296.71255      0.01518627     1.8220148      736.152       -29.044208      707.1078     
   1655000   291.11249      0.01518627     10.929084      722.25812     -29.47931       692.77881    
   1656000   298.84617      0.01518627     9.2390811      741.44559     -27.372218      714.07337    
   1657000   300.82602      0.01518627     5.9162277      746.35764     -18.537261      727.82038    
   1658000   298.76767      0.01518627     11.475888      741.25082     -29.001988      712.24883    
   1659000   299.70722      0.01518627     7.5095395      743.58188     -25.759471      717.82241    
   1660000   298.03408      0.01518627     4.5937867      739.43076     -25.541997      713.88876    
   1661000   296.31445      0.01518627     8.0487761      735.16433     -27.594753      707.56958    
   1662000   296.86241      0.01518627     14.523549      736.52381     -28.641921      707.88189    
   1663000   301.59244      0.01518627     13.487084      748.25916     -27.721793      720.53737    
   1664000   306.22105      0.01518627     9.0558833      759.74286     -25.289456      734.45341    
   1665000   307.22157      0.01518627     7.2142022      762.22519     -20.287487      741.9377     
   1666000   287.9057       0.01518627     8.1194381      714.30199     -24.087419      690.21457    
   1667000   294.33172      0.01518627     16.889695      730.24511     -22.310478      707.93463    
   1668000   304.78911      0.01518627     6.8684651      756.19019     -25.180206      731.00998    
   1669000   290.05509      0.01518627     5.5273995      719.63468     -23.840064      695.79462    
   1670000   294.92019      0.01518627     15.359159      731.70511     -22.481066      709.22404    
   1671000   312.42611      0.01518627     8.4999867      775.13779     -24.113063      751.02473    
   1672000   297.49506      0.01518627     5.3466265      738.09345     -22.004115      716.08933    
   1673000   294.06455      0.01518627     9.2048612      729.58226     -24.770159      704.8121     
   1674000   298.55762      0.01518627     10.993463      740.7297      -26.009654      714.72004    
   1675000   308.57513      0.01518627     7.5854264      765.5834      -27.647227      737.93618    
   1676000   291.97342      0.01518627     1.7748706      724.3941      -29.238809      695.15529    
   1677000   288.40402      0.01518627     18.687541      715.53833     -25.053029      690.48531    
   1678000   312.43759      0.01518627     17.362651      775.16628     -29.909802      745.25647    
   1679000   295.94336      0.01518627     4.25725        734.24362     -24.976889      709.26674    
   1680000   295.91158      0.01518627     2.7393305      734.16479     -24.801514      709.36328    
   1681000   305.76395      0.01518627     23.158164      758.60879     -25.592829      733.01596    
   1682000   295.90449      0.01518627     4.6033545      734.14721     -23.016445      711.13076    
   1683000   284.66054      0.01518627     16.40759       706.25064     -22.971945      683.27869    
   1684000   317.0846       0.01518627     10.06349       786.69564     -24.911971      761.78366    
   1685000   298.15549      0.01518627     3.0965263      739.73199     -23.7795        715.95249    
   1686000   289.4033       0.01518627     24.805697      718.01757     -28.755633      689.26194    
   1687000   307.59636      0.01518627     11.350279      763.15506     -25.869318      737.28574    
   1688000   306.63718      0.01518627     3.7670963      760.7753      -30.123812      730.65149    
   1689000   304.2299       0.01518627    -3.5967337      754.80276     -29.519678      725.28309    
   1690000   287.18634      0.01518627     9.8353246      712.51724     -29.192162      683.32507    
   1691000   313.39722      0.01518627     12.392918      777.54714     -29.637199      747.90995    
   1692000   312.33227      0.01518627     1.5293204      774.90498     -28.642621      746.26236    
   1693000   299.71241      0.01518627     6.8396818      743.59474     -19.201737      724.39301    
   1694000   288.20166      0.01518627     12.59515       715.03626     -26.062277      688.97398    
   1695000   297.61581      0.01518627     9.7872169      738.39303     -23.518044      714.87499    
   1696000   301.48347      0.01518627     6.7705837      747.98879     -23.796125      724.19267    
   1697000   297.10357      0.01518627     3.4211553      737.12215     -22.91056       714.21159    
   1698000   283.2379       0.01518627     7.413469       702.72105     -22.755705      679.96534    
   1699000   300.15277      0.01518627     11.93008       744.68731     -25.261469      719.42584    
   1700000   321.23897      0.01518627     1.6520367      797.00273     -28.606847      768.39589    
   1701000   290.78008      0.01518627     2.8622303      721.4334      -28.560477      692.87292    
   1702000   296.85765      0.01518627     12.614658      736.51201     -27.387532      709.12448    
   1703000   303.92786      0.01518627     8.6203986      754.0534      -31.277846      722.77555    
   1704000   314.92332      0.01518627     7.4645073      781.33343     -24.029023      757.30441    
   1705000   295.57157      0.01518627     6.7893098      733.32122     -24.84097       708.48025    
   1706000   294.92099      0.01518627     10.038193      731.7071      -21.506976      710.20013    
   1707000   300.53857      0.01518627     8.1582881      745.64449     -28.959091      716.68539    
   1708000   302.43694      0.01518627     4.9566632      750.35437     -34.122602      716.23177    
   1709000   296.11275      0.01518627     9.2804685      734.66388     -33.401859      701.26203    
   1710000   298.97741      0.01518627     10.011204      741.7712      -31.667471      710.10373    
   1711000   304.58271      0.01518627     6.142252       755.67811     -30.014807      725.6633     
   1712000   291.75395      0.01518627     4.3735655      723.8496      -26.668823      697.18078    
   1713000   300.55528      0.01518627     12.279418      745.68593     -25.817083      719.86885    
   1714000   299.07891      0.01518627     1.0633791      742.02303     -29.601223      712.42181    
   1715000   299.05755      0.01518627     8.9000856      741.97002     -25.728387      716.24164    
   1716000   300.64         0.01518627     11.911352      745.89613     -24.226227      721.6699     
   1717000   293.53312      0.01518627     17.157472      728.26376     -24.966551      703.29721    
   1718000   310.97667      0.01518627     15.793771      771.5417      -21.196937      750.34476    
   1719000   303.86548      0.01518627     3.0432827      753.89863     -27.41086       726.48777    
   1720000   295.879        0.01518627     7.4143289      734.08395     -24.917532      709.16641    
   1721000   299.88735      0.01518627     10.102432      744.02879     -23.974419      720.05437    
   1722000   304.34093      0.01518627     5.9239613      755.07824     -28.408251      726.66999    
   1723000   303.34904      0.01518627     7.1860946      752.61733     -27.721585      724.89574    
   1724000   303.56196      0.01518627     9.3456014      753.1456      -25.662034      727.48356    
   1725000   296.44892      0.01518627     7.0681486      735.49793     -27.842825      707.65511    
   1726000   291.09183      0.01518627     8.1125755      722.20685     -27.888334      694.31852    
   1727000   293.14772      0.01518627     6.8688902      727.30758     -28.459865      698.84772    
   1728000   301.25957      0.01518627     9.4606855      747.4333      -27.60621       719.82709    
   1729000   306.97905      0.01518627     8.1640825      761.62349     -29.105342      732.51815    
   1730000   288.83308      0.01518627     7.2558587      716.60283     -29.035738      687.56709    
   1731000   302.54243      0.01518627     12.689267      750.6161      -30.046785      720.56931    
   1732000   314.25145      0.01518627     7.9631905      779.66651     -29.098069      750.56845    
   1733000   317.50855      0.01518627     7.4862278      787.74746     -34.928764      752.8187     
   1734000   296.17803      0.01518627     7.2838475      734.82586     -33.855533      700.97033    
   1735000   304.68691      0.01518627     16.166113      755.93663     -29.671252      726.26538    
   1736000   309.36764      0.01518627     4.5384517      767.54963     -28.046259      739.50338    
   1737000   310.11423      0.01518627     5.9206339      769.40194     -22.217594      747.18435    
   1738000   287.38037      0.01518627     8.8603753      712.99862     -23.114281      689.88434    
   1739000   302.87654      0.01518627     10.448983      751.44503     -23.690185      727.75485    
   1740000   315.09541      0.01518627     1.1190066      781.76039     -22.75864       759.00175    
   1741000   295.46433      0.01518627     9.5545461      733.05514     -22.273248      710.7819     
   1742000   297.93822      0.01518627     10.283056      739.19294     -23.896395      715.29655    
   1743000   309.59714      0.01518627     10.06757       768.11905     -22.191333      745.92772    
   1744000   296.32826      0.01518627     7.0573703      735.19859     -22.988799      712.20979    
   1745000   308.9451       0.01518627     8.5316518      766.50132     -18.945393      747.55593    
   1746000   300.92547      0.01518627     5.2469396      746.60439     -21.2994        725.30499    
   1747000   302.91164      0.01518627     13.528548      751.53213     -23.492555      728.03958    
   1748000   290.71095      0.01518627     8.7465032      721.26189     -25.000445      696.26144    
   1749000   297.73091      0.01518627     5.1158849      738.67858     -25.351436      713.32715    
   1750000   311.72191      0.01518627     6.6801048      773.39064     -24.660398      748.73024    
   1751000   295.45337      0.01518627     9.9527441      733.02796     -26.106398      706.92157    
   1752000   293.45932      0.01518627     6.2536785      728.08067     -26.037845      702.04283    
   1753000   324.08368      0.01518627     7.2297078      804.06054     -27.847214      776.21333    
   1754000   302.78233      0.01518627     9.2778278      751.21132     -27.929828      723.28149    
   1755000   284.89177      0.01518627     9.3945343      706.82435     -27.830063      678.99428    
   1756000   293.21639      0.01518627     7.8057738      727.47796     -26.777188      700.70077    
   1757000   294.93702      0.01518627     7.0584994      731.74687     -28.268512      703.47836    
   1758000   302.69624      0.01518627     8.0856253      750.99773     -30.127252      720.87047    
   1759000   291.66237      0.01518627     6.7670672      723.62238     -30.615262      693.00712    
   1760000   299.42848      0.01518627     7.8083061      742.89031     -33.562761      709.32755    
   1761000   306.23148      0.01518627     9.0149843      759.76875     -31.618501      728.15025    
   1762000   320.11849      0.01518627     8.6855569      794.22279     -27.050557      767.17224    
   1763000   280.23227      0.01518627     9.1334981      695.26398     -31.150359      664.11362    
   1764000   299.30953      0.01518627     7.1420051      742.5952      -33.178648      709.41655    
   1765000   306.49541      0.01518627     7.3914911      760.42357     -30.05243       730.37114    
   1766000   300.05626      0.01518627     10.41073       744.44786     -30.609955      713.8379     
   1767000   282.83835      0.01518627     6.6360042      701.72974     -26.516427      675.21332    
   1768000   312.92246      0.01518627     6.5866661      776.36924     -27.976284      748.39296    
   1769000   304.39582      0.01518627     9.7008379      755.21441     -28.680598      726.53381    
   1770000   295.75655      0.01518627     8.2536423      733.78015     -29.635232      704.14491    
   1771000   293.94483      0.01518627     8.3473667      729.28522     -32.12064       697.16458    
   1772000   314.76548      0.01518627     9.1290709      780.94184     -33.465563      747.47628    
   1773000   304.52091      0.01518627     8.2860891      755.52477     -33.419187      722.10559    
   1774000   293.77985      0.01518627     8.7434596      728.8759      -33.604084      695.27182    
   1775000   304.6307       0.01518627     9.8931993      755.79717     -31.985301      723.81187    
   1776000   299.79197      0.01518627     10.232932      743.79214     -30.12289       713.66925    
   1777000   298.6951       0.01518627     2.1266552      741.07078     -31.336454      709.73433    
   1778000   297.48585      0.01518627     11.701586      738.0706      -33.82528       704.24532    
   1779000   299.90603      0.01518627     6.1475346      744.07513     -34.570311      709.50482    
   1780000   299.11623      0.01518627     7.3618011      742.11561     -29.36978       712.74583    
   1781000   296.4883       0.01518627     7.2023666      735.59565     -28.292976      707.30268    
   1782000   301.43471      0.01518627     14.855974      747.86781     -30.318728      717.54909    
   1783000   299.59753      0.01518627     6.3449814      743.30972     -31.966908      711.34281    
   1784000   282.95114      0.01518627     1.2415174      702.00958     -24.34112       677.66846    
   1785000   299.44527      0.01518627    -20.208889      742.93196     -26.039518      716.89245    
   1786000   318.06395      0.01518627     4.2259424      789.12543     -21.440788      767.68464    
   1787000   290.5491       0.01518627     13.397638      720.86032     -22.882331      697.97799    
   1788000   292.76722      0.01518627    -8.0884718      726.36354     -22.667569      703.69597    
   1789000   313.72868      0.01518627     3.3758724      778.3695      -23.406336      754.96317    
   1790000   314.11338      0.01518627     26.2866        779.32395     -22.017525      757.30643    
   1791000   293.7515       0.01518627     7.0847015      728.80558     -18.346144      710.45943    
   1792000   318.66194      0.01518627     0.71704882     790.60905     -19.170533      771.43851    
   1793000   322.72858      0.01518627     1.2634935      800.69849     -19.829534      780.86896    
   1794000   302.717        0.01518627     10.457834      751.04922     -17.151472      733.89775    
   1795000   296.0487       0.01518627     15.924163      734.50497     -16.711719      717.79325    
   1796000   297.1025       0.01518627     4.1240077      737.11949     -18.268432      718.85106    
   1797000   310.45355      0.01518627     6.2213463      770.24383     -23.205059      747.03877    
   1798000   310.38277      0.01518627     11.087386      770.0682      -20.57315       749.49505    
   1799000   308.29806      0.01518627     11.774484      764.896       -19.940091      744.95591    
   1800000   292.4545       0.01518627     6.6262667      725.58767     -18.329622      707.25805    
   1801000   296.6908       0.01518627     5.4544564      736.09805     -23.245704      712.85234    
   1802000   312.84705      0.01518627     11.294855      776.18215     -21.145467      755.03669    
   1803000   298.16181      0.01518627     10.559592      739.74768     -23.120027      716.62765    
   1804000   298.46046      0.01518627     3.4462403      740.48863     -22.988074      717.50055    
   1805000   306.63288      0.01518627     6.719108       760.76463     -27.070714      733.69392    
   1806000   298.25196      0.01518627     10.339097      739.97132     -29.776359      710.19497    
   1807000   298.5011       0.01518627     10.703458      740.58945     -27.145543      713.4439     
   1808000   297.90552      0.01518627     8.0702541      739.1118      -27.755519      711.35628    
   1809000   297.16533      0.01518627     7.9665941      737.27537     -22.590257      714.68512    
   1810000   300.10318      0.01518627     8.1589312      744.56427     -21.379217      723.18505    
   1811000   311.35745      0.01518627     9.9507009      772.48643     -23.18419       749.30224    
   1812000   305.21409      0.01518627     7.6660384      757.24456     -24.647399      732.59716    
   1813000   284.83052      0.01518627     8.6861673      706.67236     -23.186324      683.48604    
   1814000   291.41181      0.01518627     8.8622606      723.00073     -25.03068       697.97005    
   1815000   301.37821      0.01518627     7.8358488      747.72765     -23.166833      724.56082    
   1816000   302.99465      0.01518627     5.1929509      751.73809     -29.614209      722.12388    
   1817000   296.59533      0.01518627     8.0209559      735.86119     -26.938469      708.92272    
   1818000   308.45731      0.01518627     7.9785136      765.29108     -29.655294      735.63578    
   1819000   296.92593      0.01518627     7.0345265      736.68141     -29.456099      707.22532    
   1820000   305.18685      0.01518627     6.910105       757.17699     -25.017809      732.15918    
   1821000   308.68508      0.01518627     7.4653573      765.85619     -26.799791      739.0564     
   1822000   302.05048      0.01518627     8.0803562      749.39557     -25.014567      724.381      
   1823000   309.71663      0.01518627     7.6558709      768.4155      -23.048522      745.36698    
   1824000   301.7122       0.01518627     5.402105       748.55628     -24.920659      723.63562    
   1825000   294.93109      0.01518627     6.4176133      731.73215     -20.619509      711.11264    
   1826000   286.04927      0.01518627     9.3429448      709.69612     -21.94584       687.75028    
   1827000   288.22692      0.01518627     12.608971      715.09894     -22.153415      692.94553    
   1828000   308.99078      0.01518627     8.7079206      766.61464     -23.052429      743.56221    
   1829000   293.9764       0.01518627     3.4289504      729.36355     -17.323719      712.03983    
   1830000   300.75002      0.01518627     10.204922      746.16909     -22.57379       723.5953     
   1831000   308.06876      0.01518627     7.9604546      764.32708     -23.451178      740.8759     
   1832000   290.98912      0.01518627     4.0344571      721.95204     -20.205351      701.74668    
   1833000   303.47049      0.01518627     6.8277847      752.91866     -28.2603        724.65836    
   1834000   305.45866      0.01518627     12.334573      757.85135     -29.386141      728.46521    
   1835000   293.79277      0.01518627     9.7398667      728.90796     -27.718497      701.18947    
   1836000   313.84173      0.01518627     10.995075      778.64999     -27.549198      751.10079    
   1837000   306.2863       0.01518627     8.1825604      759.90475     -24.781486      735.12326    
   1838000   289.51526      0.01518627     7.4764345      718.29535     -21.580539      696.71481    
   1839000   301.03901      0.01518627     8.1746073      746.88608     -22.311421      724.57466    
   1840000   307.90034      0.01518627     8.1786281      763.90923     -23.624402      740.28483    
   1841000   300.21804      0.01518627     8.1436071      744.84924     -22.783574      722.06566    
   1842000   306.65473      0.01518627     9.9953053      760.81884     -21.283645      739.53519    
   1843000   308.23628      0.01518627     8.5348865      764.7427      -20.945999      743.7967     
   1844000   292.20766      0.01518627     8.1815593      724.97525     -21.62651       703.34874    
   1845000   293.42339      0.01518627     7.0872884      727.99153     -28.407013      699.58451    
   1846000   323.52088      0.01518627     9.0483776      802.66422     -26.96199       775.70223    
   1847000   308.28432      0.01518627     7.7056646      764.8619      -26.895287      737.96661    
   1848000   297.97766      0.01518627     7.3442743      739.2908      -30.819564      708.47124    
   1849000   295.35237      0.01518627     6.1616363      732.77737     -31.621018      701.15635    
   1850000   303.94305      0.01518627     12.179887      754.09108     -32.561134      721.52995    
   1851000   301.35155      0.01518627     8.2515455      747.66149     -26.003934      721.65756    
   1852000   300.00853      0.01518627     6.5332624      744.32942     -21.666483      722.66294    
   1853000   313.015        0.01518627     9.4119254      776.59884     -21.685831      754.91301    
   1854000   297.51403      0.01518627     8.4534116      738.14051     -21.21078       716.92973    
   1855000   299.63372      0.01518627     8.0109951      743.39952     -23.513249      719.88628    
   1856000   324.75002      0.01518627     11.049528      805.71374     -25.737656      779.97609    
   1857000   314.87482      0.01518627     10.434996      781.2131      -24.128128      757.08497    
   1858000   298.52701      0.01518627     14.223073      740.65374     -25.679744      714.974      
   1859000   281.16088      0.01518627     6.4304874      697.56788     -25.564162      672.00372    
   1860000   293.6023       0.01518627     6.2767727      728.4354      -31.004631      697.43077    
   1861000   312.25021      0.01518627     14.509341      774.70137     -27.262838      747.43853    
   1862000   295.88385      0.01518627     15.17797       734.096       -27.805107      706.29089    
   1863000   294.40969      0.01518627     13.068728      730.43856     -25.004689      705.43387    
   1864000   292.89766      0.01518627     11.607082      726.68717     -24.315654      702.37151    
   1865000   293.65943      0.01518627     5.7978778      728.57715     -21.788497      706.78865    
   1866000   310.46087      0.01518627     6.9598201      770.26198     -24.241523      746.02046    
   1867000   296.46511      0.01518627     9.9003803      735.53811     -25.332494      710.20562    
   1868000   300.63435      0.01518627     7.9883307      745.8821      -23.539974      722.34212    
   1869000   306.53991      0.01518627     7.7770604      760.53397     -26.40434       734.12963    
   1870000   302.88643      0.01518627     8.0353327      751.46958     -25.189051      726.28053    
   1871000   288.95939      0.01518627     6.0610408      716.91621     -32.551309      684.3649     
   1872000   294.85751      0.01518627     9.9875455      731.54961     -29.574748      701.97486    
   1873000   307.4945       0.01518627     8.7438607      762.90233     -30.328679      732.57365    
   1874000   294.88367      0.01518627     3.187251       731.61451     -27.815342      703.79917    
   1875000   290.25062      0.01518627     3.6854183      720.11978     -25.56655       694.55323    
   1876000   296.617        0.01518627     8.7365763      735.91496     -24.615238      711.29972    
   1877000   301.76491      0.01518627     8.3609893      748.68706     -19.508444      729.17861    
   1878000   311.82129      0.01518627     8.5008997      773.63722     -24.531164      749.10606    
   1879000   296.27597      0.01518627     6.4484765      735.06886     -24.96034       710.10851    
   1880000   283.58997      0.01518627     7.3927433      703.59454     -21.742286      681.85226    
   1881000   306.43855      0.01518627     10.133563      760.28248     -23.295072      736.98741    
   1882000   300.37428      0.01518627     8.2598205      745.23688     -24.466262      720.77062    
   1883000   289.49917      0.01518627     8.1662748      718.25541     -25.1672        693.08821    
   1884000   309.77078      0.01518627     8.182915       768.54985     -23.433196      745.11665    
   1885000   297.26312      0.01518627     9.0755975      737.51799     -23.231144      714.28684    
   1886000   301.46608      0.01518627     8.5977102      747.94565     -21.827735      726.11791    
   1887000   309.28312      0.01518627     7.7994792      767.33994     -22.458962      744.88098    
   1888000   295.36456      0.01518627     7.4452686      732.80763     -26.734206      706.07342    
   1889000   288.78975      0.01518627     8.7772016      716.49533     -23.011931      693.4834     
   1890000   312.86846      0.01518627     7.7618378      776.23527     -23.44683       752.78844    
   1891000   301.7375       0.01518627     5.0924074      748.61906     -22.542449      726.07661    
   1892000   287.68359      0.01518627     11.257564      713.75092     -21.748811      692.0021     
   1893000   303.37368      0.01518627     8.0402806      752.67846     -21.24806       731.4304     
   1894000   305.78452      0.01518627     4.1954791      758.65983     -21.067983      737.59184    
   1895000   297.60707      0.01518627     10.056012      738.37134     -27.262107      711.10924    
   1896000   301.53241      0.01518627     8.1736242      748.11022     -29.477643      718.63257    
   1897000   289.43382      0.01518627     4.9615582      718.09329     -29.728821      688.36447    
   1898000   296.98143      0.01518627     11.52203       736.81911     -25.816211      711.0029     
   1899000   306.8385       0.01518627     3.6435008      761.27478     -30.703633      730.57115    
   1900000   308.96848      0.01518627     2.4257281      766.55932     -24.177869      742.38145    
   1901000   303.39729      0.01518627     7.9449354      752.73703     -20.465898      732.27113    
   1902000   297.3363       0.01518627     10.798865      737.69955     -26.856056      710.84349    
   1903000   297.79805      0.01518627     13.868149      738.84516     -24.344343      714.50082    
   1904000   321.46329      0.01518627     5.2846989      797.55928     -26.628798      770.93048    
   1905000   304.4447       0.01518627     7.2978284      755.33569     -22.432183      732.90351    
   1906000   300.51858      0.01518627     7.9719392      745.59487     -23.606969      721.9879     
   1907000   295.11278      0.01518627     7.7700831      732.18293     -21.307937      710.87499    
   1908000   319.74366      0.01518627     9.1224197      793.29284     -19.479809      773.81303    
   1909000   310.11932      0.01518627     8.8108267      769.41459     -21.55542       747.85917    
   1910000   287.53492      0.01518627     8.8799759      713.38205     -22.55052       690.83153    
   1911000   285.66184      0.01518627     4.0856982      708.73491     -21.857114      686.87779    
   1912000   305.87359      0.01518627     8.7202413      758.8808      -21.777469      737.10333    
   1913000   301.66953      0.01518627     10.177813      748.45042     -15.582636      732.86778    
   1914000   300.90756      0.01518627     10.064867      746.55995     -20.861558      725.69839    
   1915000   286.00981      0.01518627     7.8368001      709.59822     -24.21108       685.38714    
   1916000   292.20961      0.01518627     7.4568001      724.9801      -25.104405      699.8757     
   1917000   304.55427      0.01518627     7.4441014      755.60754     -31.655762      723.95178    
   1918000   318.85237      0.01518627     10.045935      791.08152     -28.87777       762.20375    
   1919000   300.19692      0.01518627     9.3845554      744.79684     -27.526611      717.27023    
   1920000   295.94323      0.01518627     5.0384175      734.24331     -25.115922      709.12739    
   1921000   304.31246      0.01518627     8.2716308      755.0076      -23.59278       731.41482    
   1922000   308.94796      0.01518627     9.007155       766.50842     -23.625001      742.88341    
   1923000   309.57379      0.01518627     7.4622665      768.0611      -23.871783      744.18932    
   1924000   304.58614      0.01518627     7.4448917      755.68661     -24.664416      731.0222     
   1925000   299.69675      0.01518627     9.6165064      743.55589     -23.868349      719.68754    
   1926000   298.34895      0.01518627     8.8305901      740.21197     -27.103351      713.10862    
   1927000   303.7916       0.01518627     8.8871647      753.71533     -20.240318      733.47501    
   1928000   301.15908      0.01518627     7.2969487      747.18397     -22.754273      724.4297     
   1929000   294.63685      0.01518627     4.8547263      731.00214     -22.080958      708.92118    
   1930000   311.60141      0.01518627     8.2243154      773.09168     -22.778369      750.31331    
   1931000   299.64291      0.01518627     8.0462113      743.42232     -26.110218      717.3121     
   1932000   305.78812      0.01518627     10.491984      758.66875     -24.297672      734.37108    
   1933000   299.86793      0.01518627     8.4967341      743.98061     -19.130149      724.85046    
   1934000   308.31143      0.01518627     6.6903918      764.92915     -23.682959      741.24619    
   1935000   296.02059      0.01518627     6.2158162      734.43525     -24.095866      710.33938    
   1936000   289.38319      0.01518627     7.7126681      717.96768     -25.353114      692.61456    
   1937000   302.26644      0.01518627     8.25982        749.93137     -28.252854      721.67851    
   1938000   308.59335      0.01518627     9.9849921      765.6286      -24.910543      740.71806    
   1939000   298.62604      0.01518627     10.261774      740.89945     -23.13522       717.76423    
   1940000   292.11179      0.01518627     8.9401592      724.7374      -21.14399       703.59341    
   1941000   296.07079      0.01518627     6.2231445      734.55979     -27.120548      707.43924    
   1942000   309.88282      0.01518627     8.4791311      768.82783     -27.085656      741.74217    
   1943000   306.39347      0.01518627     8.2322526      760.17064     -30.207918      729.96272    
   1944000   294.39167      0.01518627     7.8245079      730.39386     -31.585685      698.80817    
   1945000   296.57861      0.01518627     8.1414343      735.81971     -36.1622        699.65751    
   1946000   324.48877      0.01518627     8.8627562      805.06557     -32.806426      772.25915    
   1947000   296.11078      0.01518627     9.451818       734.65902     -31.367527      703.29149    
   1948000   297.3425       0.01518627     8.1573511      737.71493     -28.741885      708.97305    
   1949000   310.20235      0.01518627     8.0716485      769.62059     -33.930027      735.69056    
   1950000   307.76093      0.01518627     7.8809323      763.56335     -29.054018      734.50933    
   1951000   294.26927      0.01518627     10.558685      730.09018     -27.153929      702.93625    
   1952000   286.15421      0.01518627     8.6648045      709.95649     -30.254625      679.70187    
   1953000   311.88187      0.01518627     7.5473045      773.78751     -33.189363      740.59815    
   1954000   302.67317      0.01518627     8.3727094      750.94048     -29.642554      721.29792    
   1955000   292.31319      0.01518627     7.6442525      725.23708     -32.820873      692.4162     
   1956000   300.94186      0.01518627     9.0732434      746.64505     -29.399466      717.24558    
   1957000   301.31582      0.01518627     7.2283705      747.57286     -29.638747      717.93411    
   1958000   311.32256      0.01518627     9.7833413      772.39985     -25.962872      746.43698    
   1959000   310.41788      0.01518627     10.3314        770.15532     -25.85896       744.29636    
   1960000   296.74673      0.01518627     7.1239213      736.23681     -20.584524      715.65229    
   1961000   296.23944      0.01518627     8.5276828      734.9782      -22.341117      712.63709    
   1962000   314.52096      0.01518627     8.5251155      780.33518     -27.244458      753.09072    
   1963000   296.44234      0.01518627     7.5744688      735.48161     -26.652236      708.82938    
   1964000   293.59524      0.01518627     7.5278851      728.41788     -19.415708      709.00218    
   1965000   306.7321       0.01518627     10.255854      761.0108      -20.436262      740.57454    
   1966000   306.41857      0.01518627     10.015939      760.23292     -18.119199      742.11372    
   1967000   297.8571       0.01518627    -0.41327329     738.99167     -25.023085      713.96859    
   1968000   304.89831      0.01518627     8.8981987      756.46112     -22.848135      733.61299    
   1969000   306.95327      0.01518627     14.08762       761.55953     -17.756133      743.8034     
   1970000   302.189        0.01518627     9.5561066      749.73923     -22.744417      726.99481    
   1971000   299.94928      0.01518627     6.0193634      744.18244     -16.588528      727.59391    
   1972000   302.27488      0.01518627     3.8377661      749.95231     -17.191726      732.76058    
   1973000   294.87703      0.01518627     8.5505688      731.59804     -21.134369      710.46367    
   1974000   294.03232      0.01518627     10.059924      729.50229     -22.133562      707.36873    
   1975000   306.50634      0.01518627     9.913344       760.45067     -25.964112      734.48656    
   1976000   299.08123      0.01518627     3.5221551      742.02879     -26.318882      715.7099     
   1977000   299.07862      0.01518627     6.6059072      742.02231     -24.30489       717.71742    
   1978000   290.8784       0.01518627     9.9254007      721.67733     -29.00765       692.66968    
   1979000   307.46942      0.01518627     7.4999351      762.8401      -31.612373      731.22773    
   1980000   305.95851      0.01518627     7.1382718      759.09149     -33.004776      726.08672    
   1981000   292.28576      0.01518627     7.8150635      725.16902     -26.69359       698.47543    
   1982000   305.27237      0.01518627     8.7779351      757.38916     -30.050811      727.33835    
   1983000   317.87108      0.01518627     8.8877976      788.64692     -28.302072      760.34485    
   1984000   299.36166      0.01518627     8.012035       742.72452     -27.915893      714.80863    
   1985000   290.79536      0.01518627     7.7594337      721.47131     -28.657002      692.81431    
   1986000   300.43142      0.01518627     7.3847371      745.37865     -25.739331      719.63931    
   1987000   311.50256      0.01518627     8.4980754      772.84644     -27.282264      745.56418    
   1988000   298.95031      0.01518627     12.270507      741.70396     -23.877688      717.82627    
   1989000   273.39332      0.01518627     10.346836      678.29637     -27.420659      650.87571    
   1990000   283.15748      0.01518627     7.4634774      702.52151     -23.517632      679.00388    
   1991000   307.91242      0.01518627     8.9624302      763.9392      -26.079615      737.85958    
   1992000   312.33449      0.01518627     8.4724916      774.91049     -28.034891      746.8756     
   1993000   291.01008      0.01518627     7.8648747      722.00404     -33.636857      688.36718    
   1994000   275.52712      0.01518627     6.9242906      683.59038     -30.884382      652.706      
   1995000   302.62649      0.01518627     8.0729891      750.82466     -32.011993      718.81267    
   1996000   311.13908      0.01518627     9.2129549      771.94465     -30.419465      741.52518    
   1997000   303.33279      0.01518627     8.9344955      752.577       -32.148427      720.42858    
   1998000   304.78211      0.01518627     7.8397958      756.17283     -28.24461       727.92822    
   1999000   298.71858      0.01518627     7.0212053      741.12903     -30.330008      710.79902    
   2000000   301.3687       0.01518627     10.06894       747.70405     -28.542121      719.16193    
   2001000   309.94415      0.01518627     17.038942      768.97997     -24.632761      744.34721    
   2002000   304.05449      0.01518627     8.2872245      754.36757     -25.248086      729.11948    
   2003000   276.00126      0.01518627     2.789461       684.76674     -22.224614      662.54213    
   2004000   299.82694      0.01518627     4.9404523      743.87891     -25.354379      718.52453    
   2005000   319.07617      0.01518627     9.372815       791.63678     -23.949199      767.68758    
   2006000   300.87428      0.01518627     9.8156208      746.47739     -27.391912      719.08548    
   2007000   296.33186      0.01518627     12.190493      735.20751     -25.376511      709.831      
   2008000   295.9214       0.01518627     8.3263199      734.18916     -26.792748      707.39641    
   2009000   303.81616      0.01518627    -3.6956972      753.77628     -27.741424      726.03485    
   2010000   302.04469      0.01518627     13.002199      749.3812      -32.753138      716.62806    
   2011000   289.82824      0.01518627     10.60797       719.07184     -23.009933      696.06191    
   2012000   301.0011       0.01518627     0.37525375     746.79202     -27.414264      719.37776    
   2013000   304.94189      0.01518627     8.7540565      756.56923     -21.679943      734.88928    
   2014000   280.34643      0.01518627     14.961532      695.54723     -21.577326      673.9699     
   2015000   289.13882      0.01518627     12.161264      717.36137     -22.109801      695.25157    
   2016000   303.83199      0.01518627     5.03788        753.81555     -21.247721      732.56783    
   2017000   302.51636      0.01518627     7.9928802      750.55144     -17.55788       732.99356    
   2018000   302.21317      0.01518627     15.85275       749.7992      -24.201907      725.59729    
   2019000   292.51896      0.01518627     11.032466      725.74761     -24.053908      701.6937     
   2020000   291.70486      0.01518627    -2.7022728      723.72779     -22.272265      701.45553    
   2021000   313.71322      0.01518627    -9.8442585      778.33115     -22.940935      755.39022    
   2022000   305.63371      0.01518627     18.558101      758.28566     -27.310569      730.97509    
   2023000   287.46883      0.01518627    -2.0441708      713.21808     -25.650803      687.56728    
   2024000   294.44709      0.01518627    -0.099005735    730.53135     -24.32491       706.20644    
   2025000   305.46165      0.01518627     8.1155168      757.85877     -22.336195      735.52257    
   2026000   299.42171      0.01518627     25.291405      742.87352     -18.917666      723.95586    
   2027000   303.76565      0.01518627     7.6457659      753.65094     -20.347218      733.30372    
   2028000   290.71022      0.01518627     0.37114549     721.26006     -21.420894      699.83916    
   2029000   307.53885      0.01518627     4.917699       763.01236     -22.118737      740.89362    
   2030000   311.24231      0.01518627     7.2300534      772.20074     -22.673444      749.5273     
   2031000   313.89473      0.01518627     32.711311      778.78147     -21.189356      757.59212    
   2032000   290.10974      0.01518627     7.9537399      719.77026     -22.887177      696.88308    
   2033000   292.79249      0.01518627    -14.412625      726.42624     -21.625767      704.80047    
   2034000   294.72485      0.01518627     9.8064491      731.22048     -23.580881      707.6396     
   2035000   299.21578      0.01518627     11.827373      742.36261     -23.202277      719.16033    
   2036000   300.20543      0.01518627     6.935469       744.81795     -25.729005      719.08894    
   2037000   314.74165      0.01518627    -5.4514206      780.88271     -21.284247      759.59846    
   2038000   309.56157      0.01518627     19.239664      768.03079     -23.15769       744.8731     
   2039000   300.96782      0.01518627     31.796875      746.70945     -26.698547      720.01091    
   2040000   294.24005      0.01518627     9.8379253      730.01768     -25.421245      704.59644    
   2041000   307.76632      0.01518627     0.8591246      763.57673     -24.301787      739.27495    
   2042000   306.34696      0.01518627     27.746551      760.05525     -22.034972      738.02028    
   2043000   297.8769       0.01518627     11.185482      739.04081     -24.525542      714.51527    
   2044000   292.41047      0.01518627    -4.6667186      725.47844     -26.98458       698.49386    
   2045000   298.67508      0.01518627    -4.3931218      741.02109     -27.525045      713.49605    
   2046000   305.73684      0.01518627     7.9443469      758.54152     -27.744053      730.79747    
   2047000   294.00196      0.01518627     16.238573      729.42696     -25.444811      703.98215    
   2048000   298.56857      0.01518627     6.1877957      740.75684     -29.489913      711.26693    
   2049000   295.08229      0.01518627     5.0705467      732.1073      -30.287418      701.81988    
   2050000   299.93712      0.01518627     9.3090025      744.15227     -25.962695      718.18958    
   2051000   301.08923      0.01518627     8.1710607      747.01068     -28.134668      718.87601    
   2052000   291.10822      0.01518627     7.9356467      722.24751     -21.663986      700.58353    
   2053000   307.5779       0.01518627     10.43128       763.10925     -21.453868      741.65538    
   2054000   304.74203      0.01518627     8.7659306      756.07338     -23.861021      732.21236    
   2055000   282.55422      0.01518627     9.8442373      701.02481     -22.55673       678.46808    
   2056000   308.73538      0.01518627     6.1324961      765.98099     -21.941839      744.03915    
   2057000   313.41064      0.01518627     10.027322      777.58043     -23.248404      754.33203    
   2058000   286.78052      0.01518627     7.5017831      711.51037     -25.658968      685.8514     
   2059000   282.76422      0.01518627     7.9788069      701.54581     -25.82662       675.71919    
   2060000   311.33379      0.01518627     13.247375      772.42772     -30.314943      742.11278    
   2061000   307.80882      0.01518627     2.7898849      763.68216     -28.097638      735.58452    
   2062000   269.57261      0.01518627     11.50295       668.81707     -23.694046      645.12302    
   2063000   296.25462      0.01518627     9.9012304      735.01587     -25.002992      710.01288    
   2064000   298.6583       0.01518627     9.213219       740.97947     -24.786634      716.19284    
   2065000   301.52905      0.01518627     6.168715       748.10189     -27.237555      720.86434    
   2066000   287.86964      0.01518627     9.7312207      714.21252     -26.691548      687.52097    
   2067000   301.00268      0.01518627     10.457825      746.79596     -23.715238      723.08072    
   2068000   302.64344      0.01518627     4.1306362      750.86672     -21.001029      729.86569    
   2069000   294.4023       0.01518627     6.7026345      730.42023     -23.94717       706.47306    
   2070000   311.22935      0.01518627     15.312033      772.1686      -22.472432      749.69617    
   2071000   302.14783      0.01518627     4.0691882      749.63711     -28.350479      721.28663    
   2072000   292.52013      0.01518627     9.4739911      725.75051     -27.220782      698.52973    
   2073000   311.12493      0.01518627     13.332774      771.90952     -26.560565      745.34896    
   2074000   305.61906      0.01518627     5.5368009      758.24931     -25.985687      732.26363    
   2075000   298.98484      0.01518627     16.469492      741.78963     -26.092341      715.69729    
   2076000   308.77565      0.01518627     17.619987      766.08091     -27.874917      738.20599    
   2077000   299.48588      0.01518627     5.5289368      743.03272     -30.364265      712.66846    
   2078000   295.24906      0.01518627     9.3123676      732.52106     -33.560951      698.96011    
   2079000   295.99508      0.01518627     14.678537      734.37194     -31.534809      702.83713    
   2080000   305.56561      0.01518627     9.773657       758.11671     -29.482164      728.63455    
   2081000   307.66653      0.01518627     5.5623668      763.32914     -32.297226      731.03192    
   2082000   297.168        0.01518627     6.6035416      737.28201     -31.89408       705.38793    
   2083000   288.8584       0.01518627     12.923393      716.66566     -28.27886       688.3868     
   2084000   308.96143      0.01518627     10.906483      766.54183     -29.48318       737.05864    
   2085000   299.87586      0.01518627    -2.7333966      744.00027     -32.968688      711.03158    
   2086000   300.54016      0.01518627     3.1670109      745.64843     -30.954937      714.69349    
   2087000   290.25572      0.01518627     6.1248896      720.13245     -28.00147       692.13097    
   2088000   284.92349      0.01518627     11.727974      706.90304     -27.596671      679.30637    
   2089000   301.69377      0.01518627     9.08152        748.51056     -33.008009      715.50255    
   2090000   311.83772      0.01518627     4.6915762      773.67798     -36.884609      736.79337    
   2091000   296.89016      0.01518627     5.7067509      736.59266     -37.524592      699.06807    
   2092000   294.54885      0.01518627     13.728561      730.78382     -39.124308      691.65951    
   2093000   313.18071      0.01518627     6.5712001      777.00998     -37.808881      739.2011     
   2094000   302.27419      0.01518627     1.8350957      749.95059     -36.923499      713.02709    
   2095000   284.95494      0.01518627     7.0029589      706.98107     -39.425042      667.55603    
   2096000   294.2323       0.01518627     11.380461      729.99845     -30.450075      699.54838    
   2097000   308.59901      0.01518627     11.982327      765.64266     -24.113733      741.52892    
   2098000   306.61876      0.01518627     10.244586      760.72959     -29.756876      730.97271    
   2099000   294.69661      0.01518627     4.5766698      731.1504      -31.011166      700.13924    
   2100000   295.56266      0.01518627     8.555642       733.29912     -30.359287      702.93983    
   2101000   297.0079       0.01518627     10.769932      736.88479     -30.062892      706.82189    
   2102000   314.28265      0.01518627     8.1477262      779.74393     -25.771859      753.97207    
   2103000   296.91652      0.01518627     7.7733233      736.65807     -27.235792      709.42228    
   2104000   298.23084      0.01518627     8.2864328      739.91892     -24.502277      715.41665    
   2105000   297.62849      0.01518627     7.0133127      738.42448     -26.29588       712.1286     
   2106000   296.02507      0.01518627     13.512342      734.44635     -24.260452      710.1859     
   2107000   308.43132      0.01518627     6.7451591      765.22662     -25.433365      739.79325    
   2108000   304.48402      0.01518627     5.6418786      755.43325     -25.086808      730.34644    
   2109000   290.71884      0.01518627     8.8346185      721.28146     -25.131725      696.14974    
   2110000   294.22744      0.01518627     13.175965      729.98639     -25.299235      704.68716    
   2111000   295.09214      0.01518627     14.983999      732.13174     -24.616253      707.51549    
   2112000   308.9899       0.01518627     6.8226794      766.61245     -27.662052      738.9504     
   2113000   295.26493      0.01518627     4.3358007      732.56044     -26.310676      706.24977    
   2114000   286.44788      0.01518627     17.063016      710.68508     -26.381081      684.304      
   2115000   302.75354      0.01518627     13.885164      751.13989     -28.660239      722.47965    
   2116000   297.7697       0.01518627     4.018655       738.77483     -22.422869      716.35196    
   2117000   292.52255      0.01518627     5.8678026      725.75651     -23.13582       702.62069    
   2118000   309.54023      0.01518627     11.936585      767.97785     -25.177964      742.79989    
   2119000   307.79438      0.01518627     2.5640907      763.64635     -27.186716      736.45963    
   2120000   292.84117      0.01518627     0.89396796     726.54702     -26.392161      700.15486    
   2121000   292.16519      0.01518627     10.643892      724.86989     -26.095447      698.77444    
   2122000   314.25358      0.01518627     6.2512241      779.6718      -26.839015      752.83279    
   2123000   299.49187      0.01518627    -1.851625       743.04758     -27.81611       715.23147    
   2124000   300.78186      0.01518627     15.612316      746.24808     -23.305747      722.94234    
   2125000   302.49         0.01518627     7.6713698      750.48602     -27.119707      723.36631    
   2126000   278.83708      0.01518627     7.2385561      691.80249     -25.721776      666.08072    
   2127000   295.11088      0.01518627     6.6465509      732.17822     -32.395505      699.78271    
   2128000   296.75585      0.01518627     12.314513      736.25944     -26.795348      709.46409    
   2129000   304.82785      0.01518627     4.4548685      756.2863      -26.661788      729.62451    
   2130000   310.4157       0.01518627     4.5855903      770.1499      -25.435828      744.71407    
   2131000   286.93805      0.01518627     13.266474      711.9012      -23.280237      688.62096    
   2132000   303.60692      0.01518627     10.859765      753.25715     -21.098015      732.15913    
   2133000   312.38299      0.01518627     7.9875979      775.03081     -23.220124      751.81068    
   2134000   302.78774      0.01518627     4.9032329      751.22474     -23.071133      728.15361    
   2135000   302.76768      0.01518627     10.116623      751.17496     -24.453511      726.72145    
   2136000   300.11611      0.01518627     10.263417      744.59634     -25.366945      719.22939    
   2137000   289.74515      0.01518627    -0.027435514    718.86571     -27.00317       691.86254    
   2138000   296.96942      0.01518627     7.4088554      736.78932     -24.319551      712.46976    
   2139000   308.4576       0.01518627     17.952069      765.29181     -26.033737      739.25808    
   2140000   305.71209      0.01518627     8.2759226      758.48012     -26.174631      732.30549    
   2141000   296.5399       0.01518627     2.6490617      735.72367     -30.67807       705.0456     
   2142000   286.30079      0.01518627     11.251002      710.32015     -29.19299       681.12716    
   2143000   301.03315      0.01518627     9.1449034      746.87155     -29.491018      717.38053    
   2144000   309.40289      0.01518627     9.9444873      767.63709     -25.643882      741.99321    
   2145000   300.35506      0.01518627     8.484185       745.18919     -26.944887      718.2443     
   2146000   281.1838       0.01518627     9.1530139      697.62477     -27.111362      670.51341    
   2147000   298.00586      0.01518627     7.1884787      739.36076     -27.511248      711.84951    
   2148000   314.59306      0.01518627     5.4698629      780.51406     -27.482018      753.03204    
   2149000   304.64285      0.01518627     11.27756       755.82732     -25.394835      730.43248    
   2150000   276.20059      0.01518627     2.8766009      685.26129     -25.670404      659.59088    
   2151000   300.30516      0.01518627     6.8677668      745.06539     -28.733487      716.3319     
   2152000   311.67206      0.01518627     8.4945383      773.26697     -29.845739      743.42123    
   2153000   294.99765      0.01518627     17.669502      731.89731     -25.612986      706.28432    
   2154000   284.89488      0.01518627     7.0052134      706.83204     -29.192971      677.63907    
   2155000   309.38735      0.01518627     5.5446799      767.59855     -28.648594      738.94995    
   2156000   316.78272      0.01518627     11.031625      785.94665     -25.843324      760.10333    
   2157000   302.11463      0.01518627     10.186631      749.55472     -31.431542      718.12318    
   2158000   288.83949      0.01518627     7.061384       716.61874     -28.962005      687.65673    
   2159000   307.41437      0.01518627     4.4453717      762.70353     -31.410118      731.29341    
   2160000   310.34666      0.01518627     11.574143      769.97863     -34.728101      735.25053    
   2161000   300.15913      0.01518627     12.020907      744.70306     -29.399149      715.30391    
   2162000   282.60514      0.01518627     9.2446792      701.15115     -33.522224      667.62893    
   2163000   293.52312      0.01518627     7.4026616      728.23895     -30.33539       697.90356    
   2164000   311.50292      0.01518627     8.2132363      772.84732     -31.505988      741.34133    
   2165000   299.21724      0.01518627     6.7920486      742.36622     -29.272672      713.09354    
   2166000   291.03631      0.01518627     3.864323       722.0691      -32.657826      689.41128    
   2167000   306.19688      0.01518627     8.30852        759.68289     -33.605881      726.07701    
   2168000   317.67884      0.01518627     11.238897      788.16995     -29.318727      758.85122    
   2169000   299.21904      0.01518627     6.4667872      742.37069     -33.107976      709.26272    
   2170000   283.4735       0.01518627     8.0844018      703.30557     -31.439301      671.86627    
   2171000   310.80985      0.01518627     12.615559      771.12781     -27.745895      743.38191    
   2172000   308.11541      0.01518627     8.2765727      764.44283     -29.48584       734.95699    
   2173000   298.92175      0.01518627     8.0528355      741.6331      -29.08239       712.55071    
   2174000   285.37473      0.01518627     7.4876701      708.02257     -28.039558      679.98301    
   2175000   309.02458      0.01518627     8.0974457      766.69851     -24.996988      741.70152    
   2176000   312.49307      0.01518627     8.1374646      775.30392     -25.776379      749.52754    
   2177000   296.33463      0.01518627     8.6694846      735.21439     -23.237122      711.97727    
   2178000   297.20959      0.01518627     8.0808031      737.38519     -32.285475      705.09972    
   2179000   306.16693      0.01518627     9.011784       759.60861     -32.951092      726.65751    
   2180000   295.69233      0.01518627     7.8630642      733.62081     -31.055445      702.56537    
   2181000   296.84918      0.01518627     7.2009596      736.491       -28.39691       708.09409    
   2182000   302.36095      0.01518627     7.7798089      750.16585     -24.626024      725.53983    
   2183000   310.83725      0.01518627     4.7846311      771.19578     -30.085381      741.1104     
   2184000   304.85894      0.01518627     11.261255      756.36343     -31.024001      725.33943    
   2185000   281.25079      0.01518627     1.6272019      697.79096     -28.59293       669.19803    
   2186000   297.71996      0.01518627    -0.5653724      738.65144     -26.144454      712.50698    
   2187000   311.37383      0.01518627     0.10569379     772.52704     -26.173248      746.35379    
   2188000   316.24903      0.01518627     11.573108      784.62257     -27.422813      757.19976    
   2189000   292.69015      0.01518627     11.234033      726.17234     -29.180093      696.99225    
   2190000   292.63538      0.01518627     6.5953987      726.03644     -26.217619      699.81882    
   2191000   310.69935      0.01518627     2.9313908      770.85366     -26.881145      743.97251    
   2192000   307.08918      0.01518627     3.1803623      761.89672     -28.526295      733.37042    
   2193000   303.43506      0.01518627     13.729077      752.83074     -27.040093      725.79064    
   2194000   280.64317      0.01518627     14.668507      696.28343     -30.774016      665.50941    
   2195000   304.97835      0.01518627     3.6751812      756.65968     -30.371007      726.28867    
   2196000   308.39182      0.01518627     7.1977779      765.12862     -29.96269       735.16593    
   2197000   303.38597      0.01518627     19.319606      752.70896     -30.503342      722.20562    
   2198000   303.67837      0.01518627     14.28088       753.4344      -28.488663      724.94573    
   2199000   299.68368      0.01518627     5.7576936      743.52346     -30.596143      712.92732    
   2200000   296.46394      0.01518627     5.0043212      735.5352      -32.514032      703.02117    
   2201000   302.60819      0.01518627     2.084421       750.77927     -31.727268      719.052      
   2202000   301.02246      0.01518627     10.373536      746.84502     -25.266273      721.57874    
   2203000   315.6276       0.01518627     10.779066      783.08079     -24.504792      758.576      
   2204000   294.88589      0.01518627     9.7474627      731.62003     -28.360542      703.25949    
   2205000   295.15173      0.01518627     8.0988903      732.27958     -31.983229      700.29635    
   2206000   314.8835       0.01518627     2.2414888      781.23464     -30.852204      750.38244    
   2207000   304.16673      0.01518627     11.791642      754.64605     -28.559072      726.08697    
   2208000   290.32807      0.01518627     8.8459472      720.31195     -26.252701      694.05925    
   2209000   299.34103      0.01518627     4.2505519      742.67335     -23.896243      718.7771     
   2210000   309.0024       0.01518627     10.134994      766.64346     -28.605763      738.0377     
   2211000   305.99699      0.01518627     8.4996503      759.18696     -24.022422      735.16454    
   2212000   297.05669      0.01518627     6.762628       737.00583     -24.671746      712.33409    
   2213000   298.48381      0.01518627     7.5949212      740.54655     -32.31678       708.22977    
   2214000   297.58138      0.01518627     6.6209408      738.30762     -27.684549      710.62307    
   2215000   298.02659      0.01518627     7.7646063      739.4122      -34.365974      705.04622    
   2216000   300.82841      0.01518627     10.176998      746.36358     -26.580337      719.78324    
   2217000   302.76895      0.01518627     8.1938677      751.17811     -24.789334      726.38878    
   2218000   298.08531      0.01518627     6.3899327      739.55786     -25.896105      713.66176    
   2219000   294.91873      0.01518627     7.0654898      731.70149     -23.44194       708.25955    
   2220000   299.80698      0.01518627     9.4553382      743.82938     -24.11333       719.71605    
   2221000   311.193        0.01518627     7.6294199      772.07841     -26.140921      745.93749    
   2222000   298.75217      0.01518627     6.0022329      741.21237     -28.765097      712.44727    
   2223000   296.54176      0.01518627     10.380985      735.72827     -26.406348      709.32192    
   2224000   308.3442       0.01518627     7.0033007      765.01045     -29.429216      735.58124    
   2225000   290.80525      0.01518627    -2.5846966      721.49584     -26.38762       695.10822    
   2226000   302.64588      0.01518627     10.73947       750.87278     -27.104032      723.76875    
   2227000   317.99289      0.01518627     15.440902      788.94913     -28.385025      760.5641     
   2228000   297.48798      0.01518627     6.1246205      738.07587     -25.640847      712.43503    
   2229000   289.83662      0.01518627     3.4369846      719.09264     -26.569268      692.52337    
   2230000   297.0797       0.01518627     13.88905       737.06293     -25.782545      711.28039    
   2231000   297.72999      0.01518627     27.830673      738.67632     -23.75258       714.92374    
   2232000   305.77384      0.01518627     4.9193775      758.63334     -23.093765      735.53957    
   2233000   306.41578      0.01518627     7.4710438      760.22599     -22.750865      737.47513    
   2234000   294.83523      0.01518627     10.004541      731.49433     -26.981491      704.51284    
   2235000   301.31461      0.01518627     16.049122      747.56985     -24.743575      722.82628    
   2236000   317.94107      0.01518627     0.36456616     788.82055     -23.304934      765.51562    
   2237000   298.41986      0.01518627     2.546537       740.38789     -25.406453      714.98143    
   2238000   291.23368      0.01518627     14.169191      722.55878     -29.515697      693.04308    
   2239000   295.67391      0.01518627     11.453093      733.57511     -28.880772      704.69434    
   2240000   311.96046      0.01518627     2.5015135      773.9825      -28.312028      745.67047    
   2241000   293.97957      0.01518627     4.2275648      729.37141     -26.544422      702.82698    
   2242000   283.4481       0.01518627     10.106282      703.24254     -25.700174      677.54237    
   2243000   299.37492      0.01518627     10.047501      742.75742     -24.076217      718.68121    
   2244000   325.45722      0.01518627     2.6381069      807.46834     -22.887838      784.58051    
   2245000   296.20099      0.01518627     6.9907544      734.88282     -24.381112      710.50171    
   2246000   292.88814      0.01518627     9.7100018      726.66355     -24.039517      702.62403    
   2247000   310.90178      0.01518627     8.8623275      771.35589     -22.998856      748.35704    
   2248000   307.56053      0.01518627     6.9297068      763.06615     -27.054138      736.01202    
   2249000   289.33312      0.01518627     7.0845045      717.84345     -27.303073      690.54038    
   2250000   294.62675      0.01518627     9.8032351      730.9771      -25.752113      705.22499    
   2251000   311.8309       0.01518627     8.8254805      773.66106     -30.046554      743.6145     
   2252000   301.00922      0.01518627     8.0519674      746.81216     -27.712516      719.09965    
   2253000   287.64016      0.01518627     6.3956861      713.64318     -30.357174      683.286      
   2254000   281.61823      0.01518627     7.0245671      698.70259     -31.870583      666.83201    
   2255000   306.64044      0.01518627     8.6484729      760.7834      -24.776154      736.00724    
   2256000   305.76924      0.01518627     8.4020375      758.62191     -30.522801      728.09911    
   2257000   301.6688       0.01518627     9.0632428      748.4486      -26.024354      722.42425    
   2258000   297.88215      0.01518627     7.53095        739.05382     -27.601317      711.4525     
   2259000   297.59438      0.01518627     9.172138       738.33986     -28.210154      710.12971    
   2260000   292.17737      0.01518627     8.6811583      724.90011     -25.746011      699.1541     
   2261000   299.60642      0.01518627     9.1230307      743.33179     -27.262359      716.06943    
   2262000   295.77353      0.01518627     8.1413014      733.82229     -22.612267      711.21002    
   2263000   298.39597      0.01518627     7.5614842      740.32863     -23.839992      716.48864    
   2264000   305.97646      0.01518627     11.267781      759.13603     -22.827284      736.30875    
   2265000   310.02239      0.01518627     7.7512214      769.17409     -22.651634      746.52245    
   2266000   304.64498      0.01518627     6.3326817      755.8326      -26.257205      729.57539    
   2267000   300.7068       0.01518627     8.9344421      746.06186     -23.052303      723.00955    
   2268000   299.85443      0.01518627     10.314404      743.9471      -22.043767      721.90334    
   2269000   305.98105      0.01518627     8.2107648      759.14743     -23.704997      735.44243    
   2270000   295.32578      0.01518627     6.5804023      732.7114      -24.536459      708.17494    
   2271000   306.99057      0.01518627     8.3508848      761.65206     -22.052553      739.59951    
   2272000   301.13481      0.01518627     13.596726      747.12376     -24.456547      722.66721    
   2273000   302.00433      0.01518627     10.929335      749.28106     -24.819202      724.46186    
   2274000   305.53209      0.01518627     8.3421133      758.03354     -26.172222      731.86132    
   2275000   299.51992      0.01518627     7.0335784      743.11718     -23.655554      719.46162    
   2276000   301.27933      0.01518627     8.7030618      747.48232     -23.956428      723.52589    
   2277000   301.54984      0.01518627     7.9237475      748.15346     -26.127327      722.02613    
   2278000   290.23676      0.01518627     8.1350674      720.08539     -22.827309      697.25808    
   2279000   296.48694      0.01518627     9.6155789      735.59226     -27.914787      707.67748    
   2280000   319.38921      0.01518627     7.8327199      792.41344     -25.69092       766.72252    
   2281000   293.88945      0.01518627     8.9397236      729.14783     -27.678571      701.46926    
   2282000   295.18977      0.01518627     7.5639502      732.37396     -25.446669      706.92729    
   2283000   309.63592      0.01518627     9.247011       768.21525     -25.628959      742.58629    
   2284000   311.16519      0.01518627     8.4507186      772.00941     -29.101219      742.90819    
   2285000   280.63606      0.01518627     7.7786681      696.26581     -27.294023      668.97179    
   2286000   286.04049      0.01518627     7.7072761      709.67433     -32.63949       677.03484    
   2287000   299.67926      0.01518627     4.9800217      743.5125      -26.505948      717.00655    
   2288000   310.14031      0.01518627     8.3722656      769.46666     -26.278261      743.1884     
   2289000   297.61705      0.01518627     10.902886      738.39611     -28.103273      710.29284    
   2290000   289.89101      0.01518627     8.9133417      719.22759     -27.045493      692.1821     
   2291000   305.4205       0.01518627     6.2357454      757.75667     -29.536109      728.22056    
   2292000   308.07559      0.01518627     7.6887017      764.34402     -22.908556      741.43547    
   2293000   300.71859      0.01518627     7.4912922      746.09111     -22.522429      723.56868    
   2294000   298.2519       0.01518627     7.9297606      739.97117     -24.828132      715.14304    
   2295000   302.05666      0.01518627     12.606186      749.41091     -27.823578      721.58733    
   2296000   309.59436      0.01518627     8.3813287      768.11214     -29.624007      738.48814    
   2297000   289.23401      0.01518627     11.070072      717.59755     -31.812894      685.78465    
   2298000   292.41287      0.01518627     7.9859086      725.4844      -32.235496      693.2489     
   2299000   308.96688      0.01518627     8.5258555      766.55535     -22.85555       743.6998     
   2300000   303.49052      0.01518627     8.7251301      752.96836     -25.432756      727.5356     
   2301000   295.93253      0.01518627     8.1140996      734.21677     -25.973038      708.24373    
   2302000   310.49396      0.01518627     8.2847007      770.34408     -22.032018      748.31206    
   2303000   310.51075      0.01518627     8.4051331      770.38573     -26.0813        744.30443    
   2304000   285.92669      0.01518627     7.6717003      709.392       -26.986013      682.40599    
   2305000   296.69333      0.01518627     7.5088564      736.10432     -25.737186      710.36713    
   2306000   314.40125      0.01518627     8.5522392      780.03816     -25.441512      754.59665    
   2307000   298.57817      0.01518627     8.9531041      740.78067     -27.068165      713.71251    
   2308000   276.49949      0.01518627     8.5402054      686.00286     -24.469005      661.53385    
   2309000   312.81338      0.01518627     6.4509369      776.09861     -24.369355      751.72925    
   2310000   308.4043       0.01518627     14.910554      765.15958     -25.598336      739.56124    
   2311000   297.15687      0.01518627     7.2812517      737.25439     -27.214587      710.0398     
   2312000   299.86194      0.01518627     7.0235513      743.96573     -27.042153      716.92358    
   2313000   307.17285      0.01518627     10.137425      762.1043      -23.609957      738.49434    
   2314000   298.4716       0.01518627     7.9406025      740.51626     -25.942275      714.57398    
   2315000   295.48022      0.01518627     6.2755146      733.09456     -21.242151      711.85241    
   2316000   301.76057      0.01518627     8.5428051      748.67629     -19.546401      729.12988    
   2317000   290.64772      0.01518627     8.5069729      721.105       -22.195993      698.909      
   2318000   292.81286      0.01518627     8.6491604      726.47677     -22.677705      703.79906    
   2319000   321.00767      0.01518627     10.280656      796.42887     -21.589362      774.83951    
   2320000   298.03298      0.01518627     8.1658207      739.42803     -23.245713      716.18232    
   2321000   279.22828      0.01518627     6.3254134      692.77307     -24.807081      667.96599    
   2322000   298.46334      0.01518627     8.5442794      740.49577     -24.094596      716.40117    
   2323000   306.27835      0.01518627     9.1257191      759.88502     -26.265032      733.61998    
   2324000   298.20831      0.01518627     8.6015882      739.86304     -25.791763      714.07128    
   2325000   290.68489      0.01518627     8.0877881      721.19722     -21.427934      699.76928    
   2326000   290.65506      0.01518627     7.1237123      721.12321     -19.344826      701.77838    
   2327000   310.53918      0.01518627     8.1237979      770.45626     -25.771833      744.68442    
   2328000   296.48116      0.01518627     8.7854162      735.57794     -24.478442      711.0995     
   2329000   294.38852      0.01518627     8.1959505      730.38602     -21.320485      709.06554    
   2330000   308.80831      0.01518627     7.9803652      766.16192     -23.271529      742.89039    
   2331000   306.78076      0.01518627     8.1587821      761.13152     -28.770595      732.36093    
   2332000   298.25208      0.01518627     9.6036657      739.97162     -23.496321      716.4753     
   2333000   294.08466      0.01518627     7.6409509      729.63216     -24.164756      705.4674     
   2334000   307.1965       0.01518627     7.139272       762.16299     -23.841071      738.32192    
   2335000   306.02693      0.01518627     8.3535046      759.26125     -28.556383      730.70487    
   2336000   300.63192      0.01518627     8.881874       745.87607     -24.739723      721.13635    
   2337000   293.47002      0.01518627     7.9517972      728.10721     -25.108792      702.99842    
   2338000   294.82638      0.01518627     7.1367132      731.47238     -22.132285      709.34009    
   2339000   303.52203      0.01518627     9.2213929      753.04651     -19.773467      733.27304    
   2340000   314.32858      0.01518627     7.7374678      779.85788     -23.295165      756.56271    
   2341000   287.80371      0.01518627     3.9137361      714.04894     -22.578769      691.47017    
   2342000   307.36129      0.01518627     9.5977827      762.57184     -33.022494      729.54935    
   2343000   311.10894      0.01518627     7.9398838      771.86987     -30.298269      741.5716     
   2344000   301.40132      0.01518627     8.0208723      747.78499     -29.293823      718.49117    
   2345000   296.57345      0.01518627     6.8096768      735.8069      -27.850809      707.95609    
   2346000   300.69694      0.01518627     12.275232      746.0374      -26.205933      719.83146    
   2347000   305.63455      0.01518627     8.1674475      758.28773     -28.085826      730.20191    
   2348000   297.96496      0.01518627     8.5659676      739.25927     -25.26797       713.9913     
   2349000   302.33024      0.01518627     0.68705939     750.08967     -23.452486      726.63718    
   2350000   297.27022      0.01518627     7.4823892      737.53561     -21.643046      715.89257    
   2351000   304.35661      0.01518627     8.243026       755.11713     -24.367231      730.7499     
   2352000   308.85738      0.01518627     10.321769      766.28368     -23.043899      743.23978    
   2353000   302.59851      0.01518627     8.4778304      750.75523     -25.252012      725.50322    
   2354000   306.00303      0.01518627     7.6173856      759.20196     -25.5424        733.65956    
   2355000   292.48542      0.01518627     8.4129202      725.66439     -26.208518      699.45587    
   2356000   304.68265      0.01518627     9.0609395      755.92606     -21.093029      734.83303    
   2357000   299.70529      0.01518627     7.3229668      743.57708     -23.887435      719.68965    
   2358000   299.47246      0.01518627     8.8785645      742.99943     -24.636946      718.36249    
   2359000   314.50144      0.01518627     8.8619528      780.28675     -23.030755      757.256      
   2360000   301.94625      0.01518627     4.034197       749.13696     -29.377093      719.75987    
   2361000   285.13284      0.01518627     10.057727      707.42242     -31.189135      676.23329    
   2362000   300.49987      0.01518627     12.457411      745.54845     -27.201862      718.34659    
   2363000   314.07774      0.01518627     7.8124925      779.23554     -28.306125      750.92942    
   2364000   300.87114      0.01518627     4.8841445      746.4696      -22.69205       723.77755    
   2365000   294.1529       0.01518627     10.044043      729.80146     -23.923285      705.87817    
   2366000   291.1477       0.01518627     12.820096      722.34548     -26.744984      695.60049    
   2367000   309.88948      0.01518627     12.570689      768.84434     -30.413442      738.4309     
   2368000   303.04683      0.01518627     8.0290354      751.86754     -28.538375      723.32916    
   2369000   296.3364       0.01518627     3.1403709      735.21879     -27.976815      707.24197    
   2370000   290.50929      0.01518627     2.0698338      720.76155     -24.270381      696.49116    
   2371000   308.01017      0.01518627     15.034314      764.18172     -31.81243       732.36929    
   2372000   304.01272      0.01518627     13.546983      754.26394     -30.034907      724.22903    
   2373000   298.63417      0.01518627    -11.173208      740.91961     -26.645414      714.2742     
   2374000   292.87679      0.01518627     9.0584166      726.63539     -25.390111      701.24528    
   2375000   304.40503      0.01518627     8.4657729      755.23727     -27.179297      728.05798    
   2376000   307.12918      0.01518627     12.574529      761.99597     -31.231756      730.76421    
   2377000   313.04169      0.01518627     5.4699883      776.66507     -26.378544      750.28653    
   2378000   295.87517      0.01518627     7.1593462      734.07446     -25.944351      708.1301     
   2379000   303.21838      0.01518627     9.1949846      752.29317     -26.914523      725.37865    
   2380000   305.8245       0.01518627     13.211003      758.75902     -26.727514      732.03151    
   2381000   301.08703      0.01518627     8.9614466      747.00523     -26.388429      720.6168     
   2382000   301.25577      0.01518627     6.6379152      747.42388     -27.320227      720.10365    
   2383000   308.32559      0.01518627     9.0944697      764.9643      -28.528653      736.43565    
   2384000   317.89515      0.01518627     9.3087912      788.70664     -31.502953      757.20369    
   2385000   295.47214      0.01518627     4.766343       733.07452     -30.751819      702.3227     
   2386000   285.49011      0.01518627     6.5430841      708.30882     -33.80519       674.50363    
   2387000   310.46031      0.01518627     10.991277      770.26058     -29.35684       740.90374    
   2388000   307.09127      0.01518627     6.0789225      761.9019      -29.910333      731.99157    
   2389000   283.22549      0.01518627     8.8584758      702.69026     -24.858583      677.83167    
   2390000   306.46528      0.01518627     8.3217439      760.34881     -23.63264       736.71617    
   2391000   325.14545      0.01518627     8.6111806      806.69483     -25.771153      780.92368    
   2392000   295.10463      0.01518627     9.0857302      732.16273     -27.759746      704.40299    
   2393000   286.24123      0.01518627     8.0832703      710.17239     -25.353069      684.81932    
   2394000   306.46918      0.01518627     7.1742848      760.35849     -29.66163       730.69686    
   2395000   312.08393      0.01518627     11.104103      774.28884     -28.839461      745.44938    
   2396000   290.33743      0.01518627     9.7105584      720.33515     -29.697565      690.63759    
   2397000   293.61397      0.01518627     7.4361418      728.46436     -24.495927      703.96844    
   2398000   311.7073       0.01518627     8.9216946      773.3544      -20.913885      752.44052    
   2399000   295.20796      0.01518627     8.895463       732.4191      -22.82978       709.58932    
   2400000   286.45004      0.01518627     8.2890215      710.69043     -21.463122      689.22731    
   2401000   307.68548      0.01518627     8.6366416      763.37615     -24.382249      738.9939     
   2402000   302.42182      0.01518627     8.4804917      750.31687     -26.204864      724.112      
   2403000   301.23286      0.01518627     8.4647177      747.36704     -25.57042       721.79662    
   2404000   292.00383      0.01518627     5.6799342      724.46955     -22.898733      701.57082    
   2405000   313.39712      0.01518627     8.1261732      777.5469      -25.811281      751.73562    
   2406000   306.63452      0.01518627     9.3909988      760.76871     -22.389356      738.37935    
   2407000   292.29926      0.01518627     15.58861       725.20251     -26.889559      698.31295    
   2408000   288.04908      0.01518627     9.8993441      714.6577      -24.287577      690.37012    
   2409000   295.11926      0.01518627     1.7940098      732.19903     -23.697845      708.50118    
   2410000   323.11363      0.01518627     6.8668639      801.65383     -22.767984      778.88585    
   2411000   305.57823      0.01518627     8.9319427      758.14802     -23.810913      734.3371     
   2412000   286.83216      0.01518627     10.659313      711.63849     -23.03437       688.60412    
   2413000   292.18762      0.01518627     6.7367091      724.92553     -27.774855      697.15068    
   2414000   302.7782       0.01518627     2.9834141      751.20107     -25.312071      725.889      
   2415000   308.8928       0.01518627     12.437846      766.37156     -25.590354      740.78121    
   2416000   292.89876      0.01518627     7.8226454      726.68989     -24.009358      702.68053    
   2417000   311.32058      0.01518627     4.07633        772.39493     -26.337703      746.05723    
   2418000   303.98908      0.01518627     10.981672      754.20528     -26.569717      727.63556    
   2419000   286.84628      0.01518627     10.38614       711.67352     -31.574256      680.09926    
   2420000   302.17392      0.01518627     7.3429417      749.70183     -28.543398      721.15843    
   2421000   301.1687       0.01518627     3.4215082      747.20784     -27.453849      719.75399    
   2422000   299.03434      0.01518627     8.011245       741.91244     -27.229838      714.6826     
   2423000   303.9929       0.01518627     8.9228851      754.21477     -22.160743      732.05403    
   2424000   302.19034      0.01518627     10.097641      749.74256     -28.440754      721.3018     
   2425000   292.88852      0.01518627     8.9120513      726.6645      -27.239442      699.42506    
   2426000   289.54117      0.01518627     7.6208536      718.35962     -28.048526      690.31109    
   2427000   303.74825      0.01518627     7.6516643      753.60779     -30.060562      723.54723    
   2428000   318.4703       0.01518627     5.7119711      790.13358     -32.893505      757.24008    
   2429000   299.14696      0.01518627     10.703239      742.19185     -24.899304      717.29255    
   2430000   285.18724      0.01518627     7.5260462      707.55741     -22.056813      685.5006     
   2431000   318.2294       0.01518627     4.3293063      789.53592     -23.097904      766.43802    
   2432000   305.34466      0.01518627     12.280704      757.56853     -26.862277      730.70625    
   2433000   284.18338      0.01518627     8.0247612      705.0668      -26.014755      679.05204    
   2434000   305.04834      0.01518627     3.3695293      756.83335     -27.600626      729.23272    
   2435000   309.42959      0.01518627     8.7893349      767.70335     -28.065246      739.6381     
   2436000   294.01854      0.01518627     14.080609      729.4681      -25.715008      703.75309    
   2437000   292.44069      0.01518627     7.8925305      725.55341     -21.975581      703.57783    
   2438000   298.3997       0.01518627     2.4753311      740.33789     -21.604061      718.73383    
   2439000   304.19537      0.01518627     4.2226065      754.71709     -19.654622      735.06247    
   2440000   300.44853      0.01518627     9.9353504      745.42109     -25.43304       719.98805    
   2441000   308.50008      0.01518627     9.2289103      765.3972      -29.286197      736.11101    
   2442000   297.2419       0.01518627    -1.1400291      737.46535     -26.761687      710.70367    
   2443000   310.79911      0.01518627     5.1132071      771.10115     -27.384686      743.71646    
   2444000   290.77184      0.01518627     16.645438      721.41295     -26.397631      695.01531    
   2445000   296.29747      0.01518627     11.962852      735.1222      -26.009602      709.11259    
   2446000   303.14243      0.01518627     3.1932616      752.10474     -30.013075      722.09166    
   2447000   297.90192      0.01518627     2.903937       739.10287     -34.283142      704.81973    
   2448000   302.79716      0.01518627     12.16727       751.24809     -28.240885      723.0072     
   2449000   308.04879      0.01518627     10.015423      764.27755     -26.840812      737.43674    
   2450000   297.13574      0.01518627     7.9932366      737.20197     -21.895789      715.30618    
   2451000   303.40307      0.01518627     8.9449569      752.75139     -20.490944      732.26045    
   2452000   312.65581      0.01518627     8.9279061      775.70767     -24.206149      751.50152    
   2453000   309.44161      0.01518627     8.7546961      767.73317     -25.596541      742.13663    
   2454000   290.54947      0.01518627     10.364912      720.86124     -18.319164      702.54208    
   2455000   295.87807      0.01518627     7.2640642      734.08164     -20.222915      713.85872    
   2456000   314.84998      0.01518627     6.5961039      781.15148     -21.761616      759.38986    
   2457000   309.96825      0.01518627     9.0673348      769.03978     -21.291032      747.74874    
   2458000   286.17051      0.01518627     10.290015      709.99693     -22.453196      687.54373    
   2459000   293.78978      0.01518627     7.4968599      728.90055     -24.583365      704.31718    
   2460000   302.71471      0.01518627     8.4087166      751.04354     -23.787885      727.25565    
   2461000   314.16157      0.01518627     6.9633773      779.44352     -24.438736      755.00478    
   2462000   294.55951      0.01518627     7.8948708      730.81026     -23.909801      706.90046    
   2463000   295.44539      0.01518627     7.720142       733.00816     -25.407818      707.60034    
   2464000   305.71553      0.01518627     10.304027      758.48866     -24.164888      734.32378    
   2465000   308.06286      0.01518627     6.0986008      764.31244     -22.681905      741.63054    
   2466000   281.18289      0.01518627     8.7003516      697.6225      -20.509242      677.11326    
   2467000   277.33141      0.01518627     13.392593      688.06688     -19.586489      668.48039    
   2468000   306.49987      0.01518627     12.285009      760.43461     -21.72123       738.71338    
   2469000   310.48548      0.01518627     14.266325      770.32303     -24.5246        745.79843    
   2470000   292.05252      0.01518627     7.3231917      724.59035     -24.458626      700.13172    
   2471000   288.17927      0.01518627     8.5997357      714.98071     -25.893522      689.08719    
   2472000   287.3958       0.01518627     13.717214      713.03689     -23.515862      689.52103    
   2473000   308.37248      0.01518627     10.325986      765.08062     -24.065256      741.01536    
   2474000   299.10971      0.01518627     8.3663149      742.09942     -20.219124      721.8803     
   2475000   295.28295      0.01518627     4.018485       732.60513     -22.111131      710.494      
   2476000   303.96679      0.01518627     7.0942165      754.14998     -24.649297      729.50068    
   2477000   299.86264      0.01518627     18.692406      743.96748     -23.689229      720.27825    
   2478000   301.48274      0.01518627     15.256545      747.98698     -28.073287      719.91369    
   2479000   314.9814       0.01518627     2.921492       781.47753     -23.562593      757.91494    
   2480000   306.73802      0.01518627    -0.96419567     761.02549     -26.252316      734.77317    
   2481000   294.85775      0.01518627     5.1024092      731.55021     -23.90592       707.64429    
   2482000   290.48529      0.01518627     13.011103      720.70202     -24.403062      696.29895    
   2483000   315.76749      0.01518627    -0.16186692     783.42785     -26.124322      757.30352    
   2484000   297.48695      0.01518627     4.1759535      738.07331     -23.842409      714.2309     
   2485000   294.54699      0.01518627     9.0907196      730.77921     -22.229509      708.5497     
   2486000   300.84372      0.01518627     11.760939      746.40156     -21.645812      724.75575    
   2487000   305.90363      0.01518627     5.4571885      758.95533     -20.297995      738.65733    
   2488000   309.76966      0.01518627    -2.3829547      768.54705     -19.300193      749.24686    
   2489000   294.40458      0.01518627    -1.348321       730.42587     -20.325452      710.10042    
   2490000   284.62506      0.01518627     9.0527284      706.16263     -17.059167      689.10346    
   2491000   313.93264      0.01518627     10.797942      778.87552     -23.933681      754.94184    
   2492000   308.72196      0.01518627     7.20756        765.9477      -22.115219      743.83248    
   2493000   295.20232      0.01518627     6.374039       732.40508     -24.768378      707.6367     
   2494000   298.6057       0.01518627     10.17318       740.84898     -22.026949      718.82203    
   2495000   302.51338      0.01518627     8.7962433      750.54402     -22.93365       727.61037    
   2496000   318.61313      0.01518627     10.138588      790.48797     -25.740183      764.74779    
   2497000   297.53951      0.01518627     0.18329871     738.20372     -28.235261      709.96846    
   2498000   293.07547      0.01518627     6.5074187      727.12833     -27.249212      699.87911    
   2499000   299.13088      0.01518627     9.1385234      742.15195     -28.323232      713.82872    
   2500000   305.75196      0.01518627     10.158756      758.57905     -23.806576      734.77247    
   2501000   293.65266      0.01518627     4.1404642      728.56035     -28.05353       700.50682    
   2502000   294.61502      0.01518627     12.021644      730.94798     -28.620768      702.32721    
   2503000   309.77562      0.01518627     9.3579742      768.56186     -32.420175      736.14168    
   2504000   303.31744      0.01518627     3.0681578      752.53894     -26.804392      725.73455    
   2505000   295.78083      0.01518627     8.9226949      733.8404      -29.803656      704.03674    
   2506000   300.98655      0.01518627     10.59066       746.75592     -31.510331      715.24559    
   2507000   303.36741      0.01518627     4.4609583      752.6629      -27.357706      725.30519    
   2508000   298.7396       0.01518627     8.4315945      741.18118     -28.10324       713.07794    
   2509000   301.88165      0.01518627     11.877283      748.97669     -30.292368      718.68432    
   2510000   293.2926       0.01518627     2.597439       727.66703     -26.248129      701.41891    
   2511000   302.05354      0.01518627     7.6417092      749.40316     -26.21686       723.1863     
   2512000   303.46886      0.01518627     8.3720171      752.91462     -22.043169      730.87145    
   2513000   295.19181      0.01518627     0.3762005      732.37901     -20.961401      711.41761    
   2514000   283.60552      0.01518627     12.947384      703.63312     -21.593001      682.04012    
   2515000   303.65012      0.01518627     11.194933      753.36432     -26.537919      726.8264     
   2516000   305.53456      0.01518627     5.7137629      758.03965     -25.759844      732.27981    
   2517000   288.37897      0.01518627     11.335776      715.47617     -24.888628      690.58755    
   2518000   292.50752      0.01518627     11.957034      725.71922     -28.541052      697.17816    
   2519000   308.73391      0.01518627     6.7074721      765.97734     -30.365759      735.61158    
   2520000   300.45832      0.01518627    -4.773056       745.44538     -25.558998      719.88639    
   2521000   291.75203      0.01518627     11.013117      723.84484     -31.242208      692.60263    
   2522000   306.93898      0.01518627     6.3263239      761.52406     -22.38105       739.14301    
   2523000   295.9728       0.01518627     4.7417462      734.31668     -17.447929      716.86875    
   2524000   295.07844      0.01518627    -3.7021564      732.09774     -17.698211      714.39952    
   2525000   299.64541      0.01518627     19.339118      743.42853     -22.524221      720.90431    
   2526000   314.10743      0.01518627     8.575725       779.30919     -19.125168      760.18402    
   2527000   311.54156      0.01518627     12.888395      772.94319     -19.674039      753.26915    
   2528000   309.70098      0.01518627    -7.6916815      768.37666     -20.678807      747.69785    
   2529000   295.2987       0.01518627     11.033991      732.64421     -24.661919      707.98229    
   2530000   286.62845      0.01518627     33.153988      711.1331      -25.526059      685.60704    
   2531000   298.84979      0.01518627     14.698465      741.45457     -26.74418       714.71039    
   2532000   301.01222      0.01518627     2.4723681      746.81962     -24.657064      722.16256    
   2533000   296.55727      0.01518627     8.8886262      735.76677     -26.39711       709.36966    
   2534000   297.9861       0.01518627     14.278736      739.31174     -27.843541      711.46819    
   2535000   308.69411      0.01518627     9.6154749      765.8786      -29.969747      735.90885    
   2536000   299.48599      0.01518627     2.1494501      743.033       -28.566805      714.46619    
   2537000   295.29695      0.01518627     9.4310926      732.63988     -25.954091      706.68578    
   2538000   306.44253      0.01518627     10.986753      760.29235     -29.594345      730.69801    
   2539000   308.35563      0.01518627     8.9226568      765.03883     -31.612374      733.42646    
   2540000   298.34151      0.01518627     7.2425054      740.19351     -27.108133      713.08538    
   2541000   284.02216      0.01518627     3.3663359      704.66681     -27.318306      677.34851    
   2542000   311.33489      0.01518627     2.9111195      772.43044     -27.04801       745.38243    
   2543000   312.97858      0.01518627     10.653709      776.5085      -22.346917      754.16158    
   2544000   285.3385       0.01518627     4.7856955      707.93268     -23.009722      684.92296    
   2545000   303.59007      0.01518627     3.0183861      753.21534     -26.585053      726.63028    
   2546000   307.63242      0.01518627     9.9117936      763.2445      -28.320021      734.92448    
   2547000   305.8931       0.01518627     14.233296      758.92922     -24.213253      734.71597    
   2548000   279.13089      0.01518627     5.8132562      692.53144     -27.237055      665.29439    
   2549000   302.44841      0.01518627     4.8013961      750.38284     -24.58399       725.79885    
   2550000   314.21391      0.01518627     13.837268      779.57337     -29.131186      750.44219    
   2551000   292.57394      0.01518627     10.835639      725.88402     -23.337429      702.54659    
   2552000   286.27336      0.01518627    -2.7682558      710.25211     -22.050776      688.20133    
   2553000   310.33313      0.01518627     6.9304568      769.94506     -19.972136      749.97292    
   2554000   303.19149      0.01518627     23.333065      752.22645     -22.211518      730.01493    
   2555000   292.54791      0.01518627     7.359722       725.81943     -18.793977      707.02545    
   2556000   296.29627      0.01518627     3.0560161      735.11923     -24.026804      711.09242    
   2557000   303.2002       0.01518627     3.0044482      752.24806     -25.616909      726.63115    
   2558000   301.63083      0.01518627     16.176319      748.35441     -22.697563      725.65684    
   2559000   285.99278      0.01518627    -0.94120137     709.55597     -15.588093      693.96787    
   2560000   300.90944      0.01518627     8.2866043      746.56463     -20.953288      725.61134    
   2561000   301.34172      0.01518627     16.757318      747.63711     -17.76535       729.87176    
   2562000   299.92736      0.01518627     0.61573347     744.12804     -17.664951      726.46309    
   2563000   301.22904      0.01518627     3.30362        747.35754     -19.518373      727.83917    
   2564000   307.0992       0.01518627     11.475518      761.92158     -16.495824      745.42576    
   2565000   303.04859      0.01518627     9.6402239      751.8719      -22.356905      729.51499    
   2566000   303.20776      0.01518627     6.8539856      752.26681     -25.856368      726.41044    
   2567000   310.58455      0.01518627     4.9639464      770.56883     -21.312689      749.25614    
   2568000   295.97023      0.01518627     16.154923      734.31031     -23.208444      711.10186    
   2569000   295.61838      0.01518627     5.4088521      733.43734     -21.65915       711.77819    
   2570000   295.45012      0.01518627     7.087656       733.01989     -25.446371      707.57352    
   2571000   302.89849      0.01518627     6.7436819      751.4995      -27.628206      723.8713     
   2572000   302.025        0.01518627     9.4893243      749.33235     -25.388548      723.9438     
   2573000   287.71885      0.01518627     10.267444      713.8384      -29.027716      684.81069    
   2574000   292.03888      0.01518627     7.5408498      724.5565      -26.992993      697.56351    
   2575000   317.49509      0.01518627     8.5104706      787.71407     -30.42679       757.28728    
   2576000   295.80098      0.01518627     13.66409       733.8904      -33.046429      700.84397    
   2577000   294.96678      0.01518627     7.9573853      731.82072     -29.032698      702.78802    
   2578000   317.85421      0.01518627     8.2964345      788.60507     -31.906457      756.69861    
   2579000   303.59874      0.01518627     8.4495182      753.23684     -30.53362       722.70322    
   2580000   295.22784      0.01518627     9.2220446      732.46842     -25.910278      706.55814    
   2581000   296.0096       0.01518627     4.1894144      734.40798     -23.710149      710.69783    
   2582000   313.5678       0.01518627     7.7129432      777.97036     -21.848492      756.12187    
   2583000   315.78032      0.01518627     8.3909931      783.45967     -26.820525      756.63915    
   2584000   290.71241      0.01518627     7.4972532      721.26549     -28.779485      692.48601    
   2585000   282.30144      0.01518627     7.9990643      700.39766     -27.598388      672.79928    
   2586000   304.86211      0.01518627     9.220867       756.3713      -23.665325      732.70598    
   2587000   305.88562      0.01518627     6.2590429      758.91066     -26.553067      732.35759    
   2588000   284.57487      0.01518627     5.887383       706.0381      -23.559822      682.47828    
   2589000   292.84647      0.01518627     13.970368      726.56016     -23.878817      702.68135    
   2590000   322.54523      0.01518627     7.5089796      800.2436      -23.585788      776.65781    
   2591000   311.50889      0.01518627     9.2971851      772.86213     -21.030168      751.83196    
   2592000   295.35899      0.01518627     8.3297482      732.79379     -26.174219      706.61957    
   2593000   308.0834       0.01518627     6.9456392      764.3634      -24.781806      739.58159    
   2594000   307.09716      0.01518627     8.0882064      761.91651     -29.725619      732.19089    
   2595000   295.13943      0.01518627     8.8760713      732.24906     -23.89436       708.3547     
   2596000   279.27671      0.01518627     8.6415869      692.89322     -28.780254      664.11297    
   2597000   310.4735       0.01518627     8.4274173      770.29331     -30.548891      739.74441    
   2598000   309.28569      0.01518627     4.9591842      767.34633     -28.637642      738.70869    
   2599000   263.71067      0.01518627     8.4789406      654.27344     -29.415523      624.85792    
   2600000   288.82845      0.01518627     6.1978117      716.59134     -31.425911      685.16542    
   2601000   297.31838      0.01518627     8.6644632      737.65509     -21.228081      716.42701    
   2602000   304.03467      0.01518627     13.822814      754.31839     -21.199483      733.1189     
   2603000   288.7882       0.01518627     6.890799       716.49149     -19.770227      696.72126    
   2604000   315.69943      0.01518627     7.1258142      783.259       -17.968003      765.29099    
   2605000   301.74251      0.01518627     8.2042083      748.63148     -20.27733       728.35415    
   2606000   294.11724      0.01518627     8.0418195      729.71298     -19.263295      710.44969    
   2607000   287.81053      0.01518627     7.4891786      714.06587     -23.430204      690.63566    
   2608000   307.27589      0.01518627     8.7846557      762.35995     -22.927638      739.43231    
   2609000   313.57463      0.01518627     10.105851      777.9873      -21.229669      756.75763    
   2610000   291.26829      0.01518627     8.0322691      722.64467     -20.547731      702.09694    
   2611000   306.00965      0.01518627     9.0409915      759.21837     -20.213418      739.00495    
   2612000   289.96007      0.01518627     4.4828701      719.39894     -21.245828      698.15311    
   2613000   289.47024      0.01518627     5.9213364      718.18363     -22.817483      695.36615    
   2614000   315.89461      0.01518627     11.420131      783.74324     -22.958176      760.78506    
   2615000   314.97794      0.01518627     10.067945      781.46894     -20.158021      761.31092    
   2616000   295.54294      0.01518627     7.8757216      733.25019     -21.570287      711.6799     
   2617000   292.79756      0.01518627     11.018174      726.43882     -21.655447      704.78338    
   2618000   293.47945      0.01518627     7.4238877      728.13061     -23.319593      704.81102    
   2619000   309.33005      0.01518627     6.1393724      767.45637     -22.349202      745.10717    
   2620000   313.933        0.01518627     7.8578364      778.87643     -25.326615      753.54981    
   2621000   295.14002      0.01518627     12.658603      732.25053     -21.989422      710.2611     
   2622000   301.93514      0.01518627     8.0341213      749.10941     -20.406786      728.70263    
   2623000   300.46658      0.01518627     7.9332205      745.46588     -21.353661      724.11222    
   2624000   298.50529      0.01518627     8.8543065      740.59985     -17.897806      722.70205    
   2625000   312.03578      0.01518627     4.1667229      774.16937     -17.571031      756.59834    
   2626000   297.07014      0.01518627     7.7662438      737.0392      -15.481508      721.55769    
   2627000   290.16054      0.01518627     8.428311       719.89631     -15.784086      704.11222    
   2628000   300.11628      0.01518627     8.5792402      744.59677     -19.621151      724.97561    
   2629000   307.5681       0.01518627     8.2500288      763.08494     -16.69043       746.39451    
   2630000   317.09983      0.01518627     10.497873      786.73342     -19.898845      766.83458    
   2631000   287.73371      0.01518627     9.1601059      713.87527     -24.106232      689.76904    
   2632000   282.68855      0.01518627     7.3589101      701.35809     -27.08981       674.26828    
   2633000   304.13428      0.01518627     8.2562441      754.56554     -28.832624      725.73291    
   2634000   303.34447      0.01518627     6.917502       752.606       -28.359149      724.24685    
   2635000   291.78679      0.01518627     11.489292      723.93107     -26.096089      697.83498    
   2636000   294.79963      0.01518627     7.6137595      731.40602     -20.150221      711.25579    
   2637000   303.57983      0.01518627     8.3074281      753.18992     -20.343788      732.84613    
   2638000   306.35553      0.01518627     8.5024685      760.07651     -22.463713      737.6128     
   2639000   290.90887      0.01518627     7.7899075      721.75293     -21.004464      700.74847    
   2640000   282.14965      0.01518627     8.4754378      700.02107     -22.570577      677.45049    
   2641000   279.23547      0.01518627     7.7201887      692.7909      -20.052574      672.73833    
   2642000   302.37315      0.01518627     8.0992486      750.19611     -21.651904      728.54421    
   2643000   317.71934      0.01518627     9.0497902      788.27044     -19.694883      768.57556    
   2644000   295.59284      0.01518627     11.272098      733.37399     -21.43682       711.93717    
   2645000   289.57653      0.01518627     7.4708411      718.44736     -18.678342      699.76902    
   2646000   296.48835      0.01518627     6.9721431      735.59578     -20.37427       715.22151    
   2647000   309.14811      0.01518627     11.52916       767.00497     -19.653348      747.35162    
   2648000   307.28915      0.01518627     21.594339      762.39286     -18.004497      744.38837    
   2649000   287.60088      0.01518627     7.2621691      713.5457      -18.077384      695.46832    
   2650000   309.99527      0.01518627     3.0198052      769.10681     -19.769493      749.33732    
   2651000   306.36594      0.01518627     15.449772      760.10234     -17.580881      742.52146    
   2652000   301.49003      0.01518627     14.838835      748.00508     -17.175747      730.82934    
   2653000   291.95804      0.01518627    -0.44725278     724.35594     -20.852112      703.50383    
   2654000   299.30653      0.01518627     6.9767497      742.58774     -19.740089      722.84765    
   2655000   311.96963      0.01518627     11.596826      774.00524     -19.090712      754.91453    
   2656000   289.5152       0.01518627     20.272264      718.29518     -17.690212      700.60497    
   2657000   293.17294      0.01518627     17.163572      727.37014     -18.770796      708.59934    
   2658000   288.78007      0.01518627     2.6798275      716.47132     -20.527758      695.94356    
   2659000   317.50952      0.01518627     2.9905863      787.74986     -20.04463       767.70523    
   2660000   313.75639      0.01518627     6.1382353      778.43826     -19.476606      758.96165    
   2661000   301.28747      0.01518627     20.649241      747.50252     -19.972395      727.53013    
   2662000   290.75813      0.01518627     9.1737763      721.37894     -22.371419      699.00752    
   2663000   294.59433      0.01518627     5.4299669      730.89665     -21.40752       709.48913    
   2664000   315.69659      0.01518627     2.9150817      783.25194     -24.031538      759.2204     
   2665000   308.43446      0.01518627     6.564465       765.23441     -29.893184      735.34122    
   2666000   304.47769      0.01518627     18.437928      755.41754     -29.558583      725.85895    
   2667000   292.37652      0.01518627     8.8478564      725.3942      -32.171851      693.22235    
   2668000   298.14479      0.01518627     3.8155095      739.70545     -27.971745      711.7337     
   2669000   312.68554      0.01518627     9.4967254      775.78144     -22.69804       753.0834     
   2670000   300.23037      0.01518627     9.271782       744.87982     -23.038589      721.84124    
   2671000   286.61471      0.01518627     7.374225       711.099       -24.022279      687.07672    
   2672000   295.0973       0.01518627     7.2143911      732.14454     -23.426664      708.71787    
   2673000   307.20491      0.01518627     8.2781412      762.18386     -19.596645      742.58722    
   2674000   296.07575      0.01518627     5.4349357      734.57211     -19.981833      714.59028    
   2675000   291.76169      0.01518627     7.6789769      723.86879     -21.621504      702.24728    
   2676000   308.65543      0.01518627     8.4544473      765.78264     -18.706591      747.07605    
   2677000   316.18254      0.01518627     9.8002912      784.4576      -20.978416      763.47918    
   2678000   294.43313      0.01518627     5.2912908      730.4967      -23.836138      706.66057    
   2679000   299.44613      0.01518627     9.5821891      742.9341      -25.870891      717.06321    
   2680000   298.07532      0.01518627     14.098635      739.53308     -27.577902      711.95517    
   2681000   302.63278      0.01518627     7.1971531      750.84026     -25.585964      725.2543     
   2682000   305.35586      0.01518627     7.0347691      757.59631     -26.354352      731.24195    
   2683000   296.94116      0.01518627     10.059398      736.71919     -25.746986      710.97221    
   2684000   307.65755      0.01518627     13.897656      763.30686     -27.611036      735.69582    
   2685000   307.102        0.01518627     8.2798164      761.92852     -28.668863      733.25965    
   2686000   311.31132      0.01518627     4.1978567      772.37197     -32.572947      739.79902    
   2687000   288.58338      0.01518627     9.2614529      715.98332     -30.335543      685.64777    
   2688000   292.75039      0.01518627     8.9081687      726.32178     -26.604498      699.71729    
   2689000   312.17068      0.01518627     7.431563       774.50406     -25.71686       748.7872     
   2690000   305.09559      0.01518627     4.1500148      756.95056     -28.603414      728.34715    
   2691000   283.2312       0.01518627     7.9136746      702.70441     -30.112637      672.59177    
   2692000   306.55862      0.01518627     8.914646       760.58037     -35.290611      725.28976    
   2693000   324.67076      0.01518627     7.447616       805.51711     -31.468415      774.04869    
   2694000   287.63332      0.01518627     7.6747011      713.6262      -33.884627      679.74157    
   2695000   281.53949      0.01518627     13.151971      698.50723     -31.787667      666.71956    
   2696000   316.65776      0.01518627     15.521533      785.63663     -29.07484       756.56179    
   2697000   309.61735      0.01518627     6.3001748      768.16919     -28.63799       739.5312     
   2698000   305.44514      0.01518627    -2.0592721      757.81782     -25.415842      732.40198    
   2699000   294.90027      0.01518627     9.2734671      731.65571     -23.705664      707.95005    
   2700000   292.06493      0.01518627     8.7221108      724.62113     -23.369608      701.25152    
   2701000   299.12993      0.01518627     9.1545631      742.1496      -21.74913       720.40047    
   2702000   305.89019      0.01518627     5.5471231      758.92198     -18.512076      740.40991    
   2703000   300.27639      0.01518627     10.907967      744.99399     -19.88566       725.10833    
   2704000   307.50506      0.01518627     10.478322      762.92854     -22.906348      740.02219    
   2705000   300.47739      0.01518627     5.410986       745.49269     -22.281762      723.21093    
   2706000   305.41272      0.01518627     8.0351332      757.73736     -24.263427      733.47394    
   2707000   296.71157      0.01518627     13.805561      736.14958     -23.350948      712.79863    
   2708000   310.20831      0.01518627     12.246841      769.63536     -23.797869      745.83749    
   2709000   294.00509      0.01518627     3.195623       729.43474     -24.022454      705.41228    
   2710000   302.00383      0.01518627     11.549058      749.27982     -24.378679      724.90114    
   2711000   316.14351      0.01518627     21.341011      784.36076     -28.226501      756.13426    
   2712000   296.95594      0.01518627     2.735864       736.75587     -25.603475      711.1524     
   2713000   297.52849      0.01518627    -1.5596618      738.17638     -27.623688      710.5527     
   2714000   294.20937      0.01518627     4.4496808      729.94156     -28.598212      701.34335    
   2715000   302.45025      0.01518627     10.984157      750.3874      -28.864076      721.52333    
   2716000   303.4703       0.01518627     9.4648259      752.91819     -32.546614      720.37157    
   2717000   297.91543      0.01518627     4.0135291      739.1364      -31.084863      708.05154    
   2718000   297.94839      0.01518627     9.85679        739.21818     -28.468091      710.75009    
   2719000   302.62443      0.01518627     18.009178      750.81956     -27.546534      723.27302    
   2720000   295.33495      0.01518627     4.0231658      732.73414     -28.322401      704.41174    
   2721000   298.31041      0.01518627     2.8551685      740.11635     -29.202104      710.91425    
   2722000   297.84139      0.01518627     13.961047      738.9527      -26.477643      712.47505    
   2723000   305.79076      0.01518627     8.658554       758.67529     -22.359567      736.31573    
   2724000   292.73199      0.01518627     2.7008374      726.27612     -24.892904      701.38322    
   2725000   300.99739      0.01518627     6.9200887      746.78282     -29.622157      717.16066    
   2726000   302.4326       0.01518627     9.235511       750.34363     -29.029742      721.31389    
   2727000   313.45524      0.01518627     12.551014      777.69109     -30.526787      747.1643     
   2728000   301.15091      0.01518627     2.7883557      747.1637      -27.876949      719.28675    
   2729000   285.39737      0.01518627     5.8159475      708.07873     -32.826142      675.25259    
   2730000   279.50051      0.01518627     9.1766603      693.44847     -36.120509      657.32796    
   2731000   303.86224      0.01518627     17.066878      753.89058     -27.234437      726.65615    
   2732000   313.01196      0.01518627     10.295234      776.59131     -21.881266      754.71004    
   2733000   300.42373      0.01518627     7.2517008      745.35956     -26.639614      718.71995    
   2734000   291.45544      0.01518627     7.8221104      723.10897     -25.222606      697.88637    
   2735000   310.2389       0.01518627     11.940574      769.71127     -26.601494      743.10978    
   2736000   307.80224      0.01518627     9.6179305      763.66584     -25.759369      737.90647    
   2737000   302.56019      0.01518627    -0.29663202     750.66016     -25.673559      724.9866     
   2738000   294.90189      0.01518627     7.2972041      731.65972     -26.223235      705.43649    
   2739000   318.61751      0.01518627     9.7063867      790.49883     -21.702691      768.79614    
   2740000   311.15293      0.01518627     9.0950592      771.97901     -20.963927      751.01508    
   2741000   296.47751      0.01518627     6.7798054      735.56888     -18.88223       716.68665    
   2742000   288.6181       0.01518627     7.3081987      716.06946     -20.10464       695.96482    
   2743000   305.26783      0.01518627     8.7341134      757.37791     -19.611984      737.76592    
   2744000   306.0644       0.01518627     9.0601954      759.35422     -19.09788       740.25634    
   2745000   303.29923      0.01518627     5.6753086      752.49376     -22.784531      729.70923    
   2746000   303.05341      0.01518627     7.8184729      751.88387     -23.088481      728.79539    
   2747000   300.97352      0.01518627     8.5670891      746.72359     -27.251297      719.4723     
   2748000   297.96111      0.01518627     9.4697383      739.24974     -24.420754      714.82898    
   2749000   311.57391      0.01518627     9.4340617      773.02345     -20.802964      752.22049    
   2750000   300.20972      0.01518627     8.0327822      744.82858     -26.192744      718.63584    
   2751000   300.76599      0.01518627     8.226403       746.20871     -21.262327      724.94638    
   2752000   298.34104      0.01518627     10.859191      740.19235     -22.916935      717.27542    
   2753000   297.82703      0.01518627     9.4894752      738.91707     -21.894855      717.02222    
   2754000   299.90813      0.01518627     6.2874879      744.08034     -20.31445       723.76589    
   2755000   292.77745      0.01518627     7.4801757      726.38892     -19.199532      707.18938    
   2756000   302.46834      0.01518627     10.680929      750.43229     -23.751654      726.68064    
   2757000   300.45962      0.01518627     5.4130819      745.4486      -27.980174      717.46843    
   2758000   305.37283      0.01518627     7.571848       757.63841     -27.037585      730.60082    
   2759000   294.45592      0.01518627     6.8125021      730.55325     -26.331158      704.2221     
   2760000   294.49255      0.01518627     9.0060253      730.64412     -30.417436      700.22669    
   2761000   314.77732      0.01518627     8.1218592      780.97121     -33.000484      747.97073    
   2762000   303.05899      0.01518627     8.6779033      751.89771     -28.022603      723.87511    
   2763000   278.80031      0.01518627     9.0268044      691.71124     -29.53281       662.17843    
   2764000   297.81937      0.01518627     7.4758366      738.89808     -32.468717      706.42936    
   2765000   312.23843      0.01518627     7.4053004      774.67215     -25.309424      749.36272    
   2766000   309.65838      0.01518627     9.2240248      768.27097     -24.17182       744.09915    
   2767000   291.60873      0.01518627     7.8874291      723.48929     -24.303306      699.18598    
   2768000   286.09353      0.01518627     9.0191501      709.80594     -26.899107      682.90684    
   2769000   294.51447      0.01518627     9.7057224      730.69853     -23.686828      707.0117     
   2770000   313.81724      0.01518627     9.6510915      778.58922     -23.161404      755.42782    
   2771000   294.31681      0.01518627     6.0735535      730.20812     -22.172714      708.03541    
   2772000   289.43665      0.01518627     5.7888136      718.1003      -20.573786      697.52652    
   2773000   303.71691      0.01518627     9.5617485      753.53002     -22.63072       730.8993     
   2774000   316.90279      0.01518627     7.8423229      786.24456     -21.556335      764.68823    
   2775000   302.07484      0.01518627     7.2411171      749.456       -17.596498      731.85951    
   2776000   295.95347      0.01518627     7.8170166      734.26873     -20.8522        713.41652    
   2777000   306.04281      0.01518627     8.5134628      759.30065     -16.36889       742.93175    
   2778000   303.68648      0.01518627     8.8100323      753.45453     -21.871094      731.58344    
   2779000   298.41139      0.01518627     10.256265      740.36688     -21.975614      718.39126    
   2780000   297.57312      0.01518627     9.2242432      738.28711     -25.848948      712.43816    
   2781000   292.66486      0.01518627     7.4219404      726.10957     -24.541702      701.56787    
   2782000   294.73455      0.01518627     7.1110685      731.24455     -29.264039      701.98051    
   2783000   302.02616      0.01518627     8.6949906      749.33523     -31.917618      717.41761    
   2784000   305.04321      0.01518627     8.8216482      756.82062     -28.936465      727.88416    
   2785000   296.8432       0.01518627     6.8853676      736.47617     -26.468631      710.00754    
   2786000   295.17945      0.01518627     8.7619157      732.34835     -28.012639      704.33571    
   2787000   289.5102       0.01518627     7.2148347      718.28279     -29.44348       688.83931    
   2788000   308.40212      0.01518627     7.9030855      765.15417     -31.282604      733.87156    
   2789000   299.52036      0.01518627     5.9262058      743.11828     -26.434164      716.68411    
   2790000   291.09715      0.01518627     8.726424       722.22006     -25.421139      696.79892    
   2791000   298.89134      0.01518627     10.015353      741.55765     -26.687914      714.86974    
   2792000   307.42693      0.01518627     9.4069272      762.73469     -22.115097      740.61959    
   2793000   314.48128      0.01518627     8.4351263      780.23674     -26.657152      753.57958    
   2794000   291.234        0.01518627     7.9026474      722.55957     -26.555688      696.00388    
   2795000   304.72379      0.01518627     7.561744       756.02813     -31.437033      724.5911     
   2796000   298.94021      0.01518627     7.8101469      741.67891     -25.924761      715.75415    
   2797000   304.14726      0.01518627     8.2666581      754.59774     -29.413929      725.18381    
   2798000   299.07246      0.01518627     9.2954476      742.00701     -24.49065       717.51636    
   2799000   306.63933      0.01518627     9.6935959      760.78064     -26.107533      734.67311    
   2800000   307.13862      0.01518627     6.7452909      762.01939     -25.849032      736.17036    
   2801000   303.85624      0.01518627     13.900801      753.87571     -22.882994      730.99271    
   2802000   305.45016      0.01518627     7.6711598      757.83027     -20.18169       737.64857    
   2803000   298.38032      0.01518627    -0.58778023     740.2898      -19.000407      721.28939    
   2804000   297.42941      0.01518627     9.6921939      737.93056     -23.708675      714.22189    
   2805000   306.34376      0.01518627     8.887813       760.0473      -26.261996      733.78531    
   2806000   288.20539      0.01518627     7.1614005      715.04551     -24.844009      690.2015     
   2807000   295.02325      0.01518627     8.0227336      731.96082     -29.846539      702.11428    
   2808000   307.00542      0.01518627     8.6034985      761.6889      -32.056936      729.63196    
   2809000   301.17042      0.01518627     8.0988618      747.2121      -30.433683      716.77842    
   2810000   295.09205      0.01518627     8.0955976      732.13152     -31.420188      700.71133    
   2811000   315.18823      0.01518627     8.4588672      781.9907      -26.882434      755.10826    
   2812000   303.2647       0.01518627     8.4086407      752.40808     -28.195815      724.21227    
   2813000   309.81185      0.01518627     8.973151       768.65174     -28.608075      740.04367    
   2814000   294.98824      0.01518627     8.3438287      731.87395     -26.395229      705.47872    
   2815000   284.01159      0.01518627     8.0655981      704.64058     -30.723379      673.9172     
   2816000   298.97642      0.01518627     7.4934899      741.76874     -29.2626        712.50614    
   2817000   311.43843      0.01518627     8.8886009      772.68732     -26.863949      745.82337    
   2818000   294.83105      0.01518627     8.9982355      731.48396     -24.40254       707.08142    
   2819000   288.0993       0.01518627     5.5716369      714.7823      -23.632465      691.14983    
   2820000   310.60322      0.01518627     6.8678133      770.61516     -24.528483      746.08667    
   2821000   306.49235      0.01518627     12.798408      760.41598     -24.769171      735.64681    
   2822000   296.90909      0.01518627     9.9961213      736.63964     -22.796798      713.84284    
   2823000   299.587        0.01518627     8.4894738      743.2836      -22.823558      720.46004    
   2824000   310.57144      0.01518627     6.3474189      770.53631     -27.14769       743.38862    
   2825000   295.96342      0.01518627     8.6758855      734.29341     -28.553196      705.74022    
   2826000   292.25031      0.01518627     9.0650175      725.08107     -27.707834      697.37324    
   2827000   300.83116      0.01518627     8.8221013      746.3704      -30.135776      716.23462    
   2828000   295.4678       0.01518627     8.081765       733.06375     -27.767787      705.29597    
   2829000   305.32619      0.01518627     8.3750524      757.52269     -29.365315      728.15737    
   2830000   300.20361      0.01518627     8.2814966      744.81343     -22.305723      722.5077     
   2831000   307.31827      0.01518627     11.761935      762.46509     -22.518468      739.94663    
   2832000   293.70634      0.01518627     10.210067      728.69353     -23.091333      705.6022     
   2833000   289.38223      0.01518627     6.1589748      717.96529     -21.738629      696.22666    
   2834000   295.10319      0.01518627     7.5808898      732.15915     -21.576881      710.58227    
   2835000   314.90414      0.01518627     4.6991851      781.28585     -21.072427      760.21343    
   2836000   303.45798      0.01518627     9.8125151      752.88761     -22.600679      730.28694    
   2837000   293.05274      0.01518627     8.3054813      727.07193     -20.029629      707.04231    
   2838000   299.11658      0.01518627     7.627406       742.11649     -17.631816      724.48467    
   2839000   321.34312      0.01518627     6.2159907      797.26115     -18.757375      778.50377    
   2840000   314.18171      0.01518627     8.7410277      779.49347     -20.055395      759.43808    
   2841000   313.98876      0.01518627     11.994021      779.01477     -18.775552      760.23922    
   2842000   288.40607      0.01518627     9.2716781      715.54341     -21.305675      694.23774    
   2843000   292.73048      0.01518627     8.3419958      726.27239     -21.480131      704.79226    
   2844000   305.98864      0.01518627     7.678615       759.16624     -24.598197      734.56804    
   2845000   307.90692      0.01518627     8.3712701      763.92555     -24.02808       739.89747    
   2846000   298.12572      0.01518627     10.940011      739.65813     -26.168628      713.4895     
   2847000   296.1762       0.01518627     10.237541      734.82131     -29.302641      705.51866    
   2848000   300.3418       0.01518627     8.5168378      745.15629     -23.356985      721.7993     
   2849000   322.48354      0.01518627     9.1631897      800.09055     -27.835243      772.25531    
   2850000   300.34464      0.01518627     9.607681       745.16334     -24.665269      720.49807    
   2851000   284.79182      0.01518627     6.0607353      706.57636     -21.615752      684.96061    
   2852000   292.7833       0.01518627     4.6126359      726.40344     -28.15278       698.25066    
   2853000   309.82137      0.01518627     6.7425316      768.67536     -25.724841      742.95052    
   2854000   307.36608      0.01518627     14.442888      762.58372     -30.68706       731.89666    
   2855000   291.22528      0.01518627     5.4636217      722.53795     -28.40031       694.13764    
   2856000   314.01259      0.01518627     0.084257747    779.0739      -29.558439      749.51546    
   2857000   309.54204      0.01518627     10.714521      767.98234     -31.587336      736.39501    
   2858000   297.01775      0.01518627     13.142586      736.90922     -29.355574      707.55365    
   2859000   298.66418      0.01518627     8.6032512      740.99407     -29.724799      711.26927    
   2860000   296.34219      0.01518627     5.8885584      735.23315     -28.206825      707.02632    
   2861000   315.94319      0.01518627     4.9131312      783.86376     -30.487092      753.37667    
   2862000   303.25562      0.01518627     12.022004      752.38556     -23.615333      728.77023    
   2863000   307.71431      0.01518627     7.7455927      763.44767     -23.187934      740.25974    
   2864000   306.38354      0.01518627    -2.3681803      760.14602     -19.07036       741.07566    
   2865000   299.03018      0.01518627     10.584041      741.90212     -22.337806      719.56432    
   2866000   312.97768      0.01518627     9.3987387      776.50624     -23.427786      753.07846    
   2867000   300.94828      0.01518627     6.3395031      746.66097     -24.314969      722.346      
   2868000   311.54739      0.01518627     7.953176       772.95767     -24.767136      748.19053    
   2869000   303.17106      0.01518627     8.9549842      752.17576     -23.65348       728.52228    
   2870000   290.25825      0.01518627     13.127209      720.13872     -24.998416      695.14031    
   2871000   295.78562      0.01518627     2.4104424      733.85226     -25.432303      708.41996    
   2872000   319.38531      0.01518627     1.470821       792.40375     -24.884247      767.51951    
   2873000   301.05673      0.01518627     9.1862406      746.93005     -21.940838      724.98921    
   2874000   300.01103      0.01518627     11.511315      744.33564     -26.620116      717.71553    
   2875000   287.91521      0.01518627     3.7297084      714.32557     -24.513514      689.81206    
   2876000   307.16347      0.01518627     6.9019052      762.08103     -27.443328      734.6377     
   2877000   306.97541      0.01518627     9.2207117      761.61445     -26.957966      734.65648    
   2878000   307.73292      0.01518627     7.3419365      763.49386     -28.372135      735.12173    
   2879000   289.84654      0.01518627     10.536248      719.11726     -23.196605      695.92066    
   2880000   309.64533      0.01518627     13.797421      768.23861     -21.056511      747.1821     
   2881000   304.88611      0.01518627     5.8897039      756.43083     -22.80718       733.62366    
   2882000   292.68784      0.01518627     8.2212078      726.1666      -22.86605       703.30055    
   2883000   308.44316      0.01518627     7.8468096      765.25598     -23.862388      741.39359    
   2884000   310.53063      0.01518627     7.5989132      770.43505     -26.97283       743.46222    
   2885000   303.93273      0.01518627     8.751993       754.06549     -26.875547      727.18994    
   2886000   293.13272      0.01518627     9.5961706      727.27036     -21.362557      705.9078     
   2887000   304.03504      0.01518627     7.4103276      754.31932     -24.698605      729.62071    
   2888000   306.52398      0.01518627     8.0927433      760.49445     -23.689849      736.8046     
   2889000   280.48043      0.01518627     6.629634       695.87968     -25.390317      670.48936    
   2890000   299.96434      0.01518627     10.736981      744.21979     -24.203503      720.01628    
   2891000   313.76574      0.01518627     3.015783       778.46146     -24.201279      754.26018    
   2892000   299.03511      0.01518627     7.4657101      741.91435     -27.713004      714.20135    
   2893000   293.42544      0.01518627     8.1104577      727.9966      -28.069416      699.92718    
   2894000   286.28364      0.01518627     9.4260764      710.2776      -27.511714      682.76589    
   2895000   311.90844      0.01518627     9.0703709      773.85344     -23.432272      750.42117    
   2896000   298.41221      0.01518627     5.3965392      740.36891     -30.187305      710.1816     
   2897000   303.31161      0.01518627     7.8964024      752.52446     -29.131895      723.39256    
   2898000   296.22689      0.01518627     10.943154      734.94709     -33.544511      701.40258    
   2899000   307.54932      0.01518627     3.3141382      763.03833     -29.259314      733.77901    
   2900000   294.26843      0.01518627     3.3739209      730.08808     -30.098187      699.9899     
   2901000   296.38215      0.01518627     12.008122      735.33229     -27.987072      707.34522    
   2902000   301.39837      0.01518627     10.144698      747.77767     -29.561802      718.21587    
   2903000   297.67518      0.01518627     6.3204245      738.54033     -22.756797      715.78353    
   2904000   298.36348      0.01518627     4.0314479      740.24802     -24.455934      715.79209    
   2905000   294.45329      0.01518627     8.0850802      730.54674     -31.806437      698.7403     
   2906000   298.69914      0.01518627     15.646414      741.08079     -29.608662      711.47213    
   2907000   306.63264      0.01518627     4.1636217      760.76402     -25.832573      734.93145    
   2908000   302.4181       0.01518627     0.97070949     750.30763     -20.657828      729.6498     
   2909000   285.45134      0.01518627     10.77599       708.21265     -27.76394       680.44871    
   2910000   291.86309      0.01518627     14.801752      724.12037     -26.873183      697.24718    
   2911000   310.4905       0.01518627     4.6581345      770.3355      -25.536304      744.79919    
   2912000   312.00989      0.01518627     4.9171515      774.10513     -23.499678      750.60545    
   2913000   297.35317      0.01518627    -1.3294719      737.7414      -29.191161      708.55024    
   2914000   282.52166      0.01518627     14.501312      700.94403     -23.478931      677.4651     
   2915000   294.40172      0.01518627     13.052224      730.41878     -23.949557      706.46922    
   2916000   300.50067      0.01518627    -1.1975566      745.55044     -27.697624      717.85281    
   2917000   299.5868       0.01518627     8.3856786      743.28312     -25.408381      717.87474    
   2918000   303.18049      0.01518627     8.6691261      752.19915     -23.806411      728.39274    
   2919000   293.02353      0.01518627     11.914415      726.99946     -27.436096      699.56337    
   2920000   302.90603      0.01518627     6.7495555      751.5182      -20.733891      730.78431    
   2921000   296.53194      0.01518627     6.0615569      735.70393     -23.178909      712.52502    
   2922000   295.66242      0.01518627     11.460874      733.54662     -22.046901      711.49972    
   2923000   304.01942      0.01518627     7.717569       754.28057     -27.034016      727.24655    
   2924000   299.14952      0.01518627     0.40110417     742.1982      -25.505396      716.6928     
   2925000   289.95252      0.01518627     10.491259      719.38019     -22.913717      696.46647    
   2926000   316.77199      0.01518627     14.655388      785.92005     -23.019815      762.90024    
   2927000   300.33937      0.01518627     5.515466       745.15025     -27.001468      718.14879    
   2928000   291.9047       0.01518627     10.543606      724.2236      -26.910545      697.31305    
   2929000   299.01137      0.01518627     9.0133429      741.85546     -27.792708      714.06275    
   2930000   304.81341      0.01518627     6.2535083      756.25048     -21.416711      734.83377    
   2931000   299.17383      0.01518627     8.7360008      742.25851     -21.053162      721.20535    
   2932000   297.77754      0.01518627     8.7000081      738.79427     -19.981608      718.81267    
   2933000   294.38351      0.01518627     7.9785426      730.37361     -21.301517      709.07209    
   2934000   302.47828      0.01518627     9.1393372      750.45694     -25.824489      724.63246    
   2935000   313.89534      0.01518627     12.222268      778.783       -19.597135      759.18586    
   2936000   302.71169      0.01518627     8.2201735      751.03604     -17.173503      733.86254    
   2937000   303.12246      0.01518627     6.6199306      752.05518     -20.917712      731.13747    
   2938000   301.12438      0.01518627     8.3178915      747.09789     -19.239993      727.8579     
   2939000   292.73135      0.01518627     6.6849069      726.27454     -20.301394      705.97314    
   2940000   294.94172      0.01518627     6.0703204      731.75854     -18.382188      713.37635    
   2941000   314.81094      0.01518627     10.093447      781.05461     -16.504325      764.55029    
   2942000   304.73133      0.01518627     10.658366      756.04682     -19.189444      736.85738    
   2943000   294.76904      0.01518627     7.6608568      731.33011     -20.624533      710.70557    
   2944000   300.11109      0.01518627     7.732436       744.5839      -25.675663      718.90824    
   2945000   303.04534      0.01518627     7.7112671      751.86384     -23.658171      728.20567    
   2946000   304.38542      0.01518627     9.2895381      755.18863     -23.879855      731.30877    
   2947000   303.06241      0.01518627     7.7667253      751.90619     -25.69353       726.21266    
   2948000   290.18705      0.01518627     10.75975       719.96206     -27.196696      692.76536    
   2949000   310.9414       0.01518627     8.7593617      771.45418     -25.166798      746.28739    
   2950000   301.7248       0.01518627     8.176494       748.58755     -25.921693      722.66586    
   2951000   282.16082      0.01518627     5.2369786      700.04877     -28.266827      671.78195    
   2952000   304.61143      0.01518627     8.1771613      755.74934     -26.422447      729.3269     
   2953000   316.0257       0.01518627     9.0188761      784.06848     -24.237449      759.83103    
   2954000   298.51965      0.01518627     9.9740389      740.63549     -30.852877      709.78262    
   2955000   295.94543      0.01518627     8.7486819      734.24877     -25.922895      708.32588    
   2956000   283.03892      0.01518627     5.1278355      702.22736     -26.503842      675.72352    
   2957000   301.9961       0.01518627     7.143134       749.26065     -23.919278      725.34137    
   2958000   304.82941      0.01518627     10.824003      756.29016     -23.747695      732.54247    
   2959000   288.41351      0.01518627     4.7462988      715.56186     -27.598224      687.96364    
   2960000   305.01264      0.01518627     8.6618736      756.74476     -23.986344      732.75841    
   2961000   313.17077      0.01518627     9.8132644      776.9853      -23.920587      753.06472    
   2962000   289.88742      0.01518627     8.1489113      719.21869     -21.707872      697.51082    
   2963000   296.64626      0.01518627     5.5040649      735.98755     -22.913904      713.07364    
   2964000   317.51728      0.01518627     9.4906901      787.76913     -20.89254       766.87659    
   2965000   298.2562       0.01518627     8.7410533      739.98185     -21.198817      718.78303    
   2966000   289.99448      0.01518627     7.4257506      719.4843      -22.243917      697.24039    
   2967000   287.15216      0.01518627     8.0893604      712.43243     -20.020206      692.41223    
   2968000   301.57454      0.01518627     9.4474731      748.21475     -17.075043      731.13971    
   2969000   298.72934      0.01518627     6.3077113      741.15572     -23.401685      717.75403    
   2970000   302.8474       0.01518627     7.8141315      751.37275     -26.233407      725.13934    
   2971000   306.62295      0.01518627     8.4254744      760.73999     -30.32791       730.41208    
   2972000   292.30375      0.01518627     5.2140479      725.21367     -26.969724      698.24395    
   2973000   299.16687      0.01518627     8.2353415      742.24125     -28.794256      713.44699    
   2974000   293.13192      0.01518627     10.045952      727.26836     -22.487734      704.78063    
   2975000   298.92831      0.01518627     7.7084098      741.64939     -26.149726      715.49966    
   2976000   290.05821      0.01518627     6.3613677      719.64243     -27.242093      692.40033    
   2977000   303.23527      0.01518627     9.457165       752.33505     -21.281395      731.05366    
   2978000   307.5444       0.01518627     10.059869      763.02613     -21.065568      741.96056    
   2979000   294.44089      0.01518627     7.840827       730.51596     -23.095259      707.4207     
   2980000   291.71807      0.01518627     7.4775977      723.76058     -22.222947      701.53763    
   2981000   314.81731      0.01518627     9.4389679      781.07041     -21.989269      759.08114    
   2982000   301.88481      0.01518627     7.324349       748.98453     -24.993903      723.99063    
   2983000   295.01778      0.01518627     7.7949349      731.94726     -21.650223      710.29703    
   2984000   294.63208      0.01518627     8.6187953      730.9903      -21.137877      709.85242    
   2985000   311.41937      0.01518627     12.310402      772.64004     -31.184535      741.4555     
   2986000   303.05395      0.01518627     3.6285254      751.8852      -37.59325       714.29195    
   2987000   294.12499      0.01518627     4.4964225      729.7322      -32.438942      697.29326    
   2988000   290.84372      0.01518627     7.6139689      721.5913      -31.867876      689.72342    
   2989000   294.75668      0.01518627     13.906347      731.29946     -27.279803      704.01965    
   2990000   305.44673      0.01518627     9.1929241      757.82176     -27.630643      730.19112    
   2991000   306.25021      0.01518627     5.3371213      759.8152      -26.99736       732.81784    
   2992000   288.69274      0.01518627     9.2588108      716.25464     -25.817342      690.4373     
   2993000   293.76732      0.01518627     9.6540475      728.84481     -26.290277      702.55453    
   2994000   304.27945      0.01518627     5.384943       754.92571     -26.344067      728.58164    
   2995000   319.20368      0.01518627     7.3909594      791.95314     -25.275649      766.67749    
   2996000   301.46787      0.01518627     10.621862      747.95009     -25.363322      722.58677    
   2997000   287.86696      0.01518627     8.3598608      714.20587     -23.504445      690.70143    
   2998000   294.64473      0.01518627     2.5955012      731.02169     -20.409412      710.61228    
   2999000   317.61926      0.01518627     8.8914241      788.02214     -23.932041      764.0901     
   3000000   297.31016      0.01518627     9.7407783      737.6347      -26.304717      711.32998    
   3001000   288.97371      0.01518627     9.5527925      716.95174     -23.81744       693.1343     
   3002000   299.04733      0.01518627     0.62120235     741.94467     -29.493676      712.451      
   3003000   303.12574      0.01518627     9.8655072      752.06331     -30.446681      721.61663    
   3004000   306.76777      0.01518627     13.112531      761.0993      -31.420012      729.67929    
   3005000   293.14469      0.01518627     10.414327      727.30005     -32.397051      694.903      
   3006000   280.75139      0.01518627     5.6518498      696.55195     -28.876853      667.67509    
   3007000   304.62711      0.01518627     8.0686843      755.78826     -21.679466      734.1088     
   3008000   309.10299      0.01518627     13.156782      766.89305     -23.539174      743.35387    
   3009000   291.1875       0.01518627     8.3460915      722.44422     -30.831371      691.61285    
   3010000   312.45276      0.01518627     4.130402       775.20392     -28.931595      746.27232    
   3011000   298.65747      0.01518627     13.200477      740.97742     -25.889131      715.08829    
   3012000   285.94599      0.01518627     14.31844       709.43988     -32.741465      676.69841    
   3013000   300.7468       0.01518627     4.6695737      746.1611      -28.987549      717.17355    
   3014000   309.82357      0.01518627     9.3114856      768.68082     -31.789107      736.89171    
   3015000   303.45638      0.01518627     7.417038       752.88363     -29.28867       723.59496    
   3016000   295.64314      0.01518627     12.042872      733.49879     -29.745701      703.75309    
   3017000   304.95007      0.01518627     6.8852037      756.58954     -28.035966      728.55357    
   3018000   301.36874      0.01518627     8.2070049      747.70416     -32.548443      715.15572    
   3019000   300.16048      0.01518627     8.2841767      744.70642     -26.420396      718.28602    
   3020000   302.45283      0.01518627     9.3049449      750.39381     -27.951063      722.44274    
   3021000   285.87763      0.01518627     7.6728193      709.27027     -27.032029      682.23824    
   3022000   293.2671       0.01518627     7.7384525      727.60375     -21.418259      706.18549    
   3023000   298.0845       0.01518627     8.1151241      739.55586     -21.219103      718.33675    
   3024000   303.743        0.01518627     8.2399962      753.59475     -22.647191      730.94756    
   3025000   310.02626      0.01518627     10.105928      769.1837      -21.606033      747.57766    
   3026000   303.57463      0.01518627     10.124768      753.17703     -27.342679      725.83435    
   3027000   289.70297      0.01518627     9.2637839      718.76107     -29.646103      689.11496    
   3028000   279.81572      0.01518627     6.9703651      694.2305      -28.300665      665.92984    
   3029000   301.20479      0.01518627     6.1305198      747.29739     -31.650772      715.64662    
   3030000   293.72039      0.01518627     10.288446      728.72838     -30.968429      697.75995    
   3031000   288.83475      0.01518627     5.3174489      716.60697     -27.102811      689.50416    
   3032000   310.63558      0.01518627     0.87444259     770.69544     -28.709435      741.986      
   3033000   306.21421      0.01518627     14.171412      759.72589     -25.961316      733.76457    
   3034000   287.62061      0.01518627     7.3897707      713.59467     -24.423839      689.17083    
   3035000   306.09846      0.01518627     4.3926814      759.43872     -26.050526      733.3882     
   3036000   306.79297      0.01518627     7.7215738      761.16182     -25.911547      735.25027    
   3037000   292.65722      0.01518627     8.90968        726.09063     -27.717406      698.37322    
   3038000   304.47666      0.01518627     8.7033164      755.41499     -24.730271      730.68472    
   3039000   310.90052      0.01518627     8.0524084      771.35276     -28.75031       742.60245    
   3040000   292.66419      0.01518627     7.8340823      726.10791     -28.228589      697.87932    
   3041000   287.5487       0.01518627     8.3669176      713.41625     -27.635469      685.78079    
   3042000   292.45853      0.01518627     8.080388       725.59768     -26.972402      698.62528    
   3043000   306.31818      0.01518627     8.5182128      759.98384     -28.211648      731.77219    
   3044000   317.44444      0.01518627     7.3433196      787.58841     -28.930075      758.65834    
   3045000   298.33363      0.01518627     7.4674259      740.17396     -32.281832      707.89213    
   3046000   278.00666      0.01518627     3.7550512      689.74218     -31.171805      658.57037    
   3047000   303.75463      0.01518627     9.4697974      753.62361     -31.594094      722.02952    
   3048000   300.92304      0.01518627     8.0010664      746.59835     -35.43199       711.16636    
   3049000   292.17813      0.01518627     6.2394901      724.902       -30.198705      694.70329    
   3050000   296.8101       0.01518627     9.0652107      736.39405     -30.780318      705.61373    
   3051000   312.44599      0.01518627     9.5678238      775.1871      -37.663257      737.52385    
   3052000   302.06253      0.01518627     8.5963387      749.42547     -34.403075      715.02239    
   3053000   281.66248      0.01518627     7.3104984      698.81238     -35.48469       663.32769    
   3054000   318.00786      0.01518627     9.4509936      788.98627     -31.890457      757.09581    
   3055000   300.00329      0.01518627     8.0822151      744.31642     -31.717315      712.59911    
   3056000   291.56523      0.01518627     7.7147294      723.38136     -31.029544      692.35182    
   3057000   305.48698      0.01518627     7.2644435      757.92163     -28.832551      729.08908    
   3058000   312.74041      0.01518627     7.2701556      775.91759     -29.680748      746.23684    
   3059000   291.0441       0.01518627     10.356836      722.08843     -30.651351      691.43708    
   3060000   291.77193      0.01518627     8.5369288      723.89421     -28.01696       695.87725    
   3061000   313.94921      0.01518627     7.6258791      778.91665     -25.50226       753.41439    
   3062000   294.87578      0.01518627     2.7919742      731.59494     -32.142763      699.45218    
   3063000   298.27219      0.01518627     6.4390049      740.02152     -29.444467      710.57706    
   3064000   297.6601       0.01518627     10.750631      738.50292     -28.561403      709.94151    
   3065000   301.38844      0.01518627     5.1118696      747.75302     -27.879279      719.87374    
   3066000   298.66145      0.01518627     4.9504336      740.9873      -31.125503      709.8618     
   3067000   312.27184      0.01518627     10.638148      774.75504     -26.825016      747.93002    
   3068000   307.61885      0.01518627     8.2724579      763.21084     -28.903149      734.30769    
   3069000   289.17974      0.01518627     5.7260824      717.4629      -33.902197      683.5607     
   3070000   288.48947      0.01518627     6.9253816      715.75034     -31.958453      683.79188    
   3071000   307.07055      0.01518627     9.1891951      761.85049     -29.949677      731.90081    
   3072000   300.70943      0.01518627     8.9510568      746.06838     -34.723561      711.34482    
   3073000   287.07998      0.01518627     8.513227       712.25334     -36.798548      675.45479    
   3074000   306.30581      0.01518627     8.0496691      759.95315     -31.258813      728.69433    
   3075000   307.17193      0.01518627     8.6640042      762.10203     -30.47569       731.62634    
   3076000   287.35126      0.01518627     8.3621849      712.92639     -31.568319      681.35807    
   3077000   287.36022      0.01518627     7.2844653      712.94864     -32.218656      680.72998    
   3078000   305.07076      0.01518627     10.49061       756.88896     -34.144301      722.74466    
   3079000   313.24594      0.01518627     7.4474947      777.1718      -36.645226      740.52658    
   3080000   295.70087      0.01518627     6.1875743      733.64202     -33.464332      700.17769    
   3081000   287.62346      0.01518627     10.177052      713.60173     -30.50374       683.09799    
   3082000   300.39799      0.01518627     8.1966369      745.2957      -33.663842      711.63186    
   3083000   293.65462      0.01518627     6.9680177      728.5652      -32.243201      696.322      
   3084000   296.38715      0.01518627     8.1200593      735.34468     -33.487775      701.85691    
   3085000   314.97694      0.01518627     9.346076       781.46648     -33.52426       747.94222    
   3086000   307.9167       0.01518627     14.83644       763.94982     -34.60879       729.34103    
   3087000   295.69812      0.01518627     8.8144589      733.63518     -32.790746      700.84444    
   3088000   297.13194      0.01518627     5.3363208      737.19254     -35.148971      702.04357    
   3089000   314.67805      0.01518627     2.8404243      780.72493     -33.952901      746.77203    
   3090000   300.07981      0.01518627     9.7585847      744.50629     -28.392841      716.11345    
   3091000   279.0488       0.01518627     4.339524       692.32776     -28.472083      663.85568    
   3092000   307.54867      0.01518627     3.8107825      763.03674     -26.853766      736.18297    
   3093000   307.17931      0.01518627     8.6798824      762.12035     -29.727022      732.39333    
   3094000   303.61955      0.01518627     14.677592      753.28847     -32.595033      720.69343    
   3095000   289.22632      0.01518627     3.9839262      717.57847     -28.351041      689.22743    
   3096000   301.36965      0.01518627     12.730067      747.70642     -32.288749      715.41767    
   3097000   297.8058       0.01518627     8.6093354      738.86439     -29.043892      709.8205     
   3098000   305.60559      0.01518627     7.6138065      758.2159      -30.206058      728.00984    
   3099000   304.79793      0.01518627     8.1751258      756.21206     -27.95637       728.25569    
   3100000   291.84423      0.01518627     14.145455      724.07359     -29.778683      694.2949     
   3101000   280.51173      0.01518627     4.1166403      695.95734     -29.896721      666.06062    
   3102000   293.98831      0.01518627     8.176163       729.3931      -29.750022      699.64308    
   3103000   306.59519      0.01518627     7.931345       760.67111     -29.136894      731.53421    
   3104000   307.1166       0.01518627     10.117176      761.96476     -24.570964      737.3938     
   3105000   285.60966      0.01518627     9.03474        708.60543     -30.003333      678.6021     
   3106000   294.55996      0.01518627     7.2649001      730.81139     -26.139671      704.67171    
   3107000   303.02519      0.01518627     7.1556538      751.81385     -30.033438      721.78041    
   3108000   314.58319      0.01518627     8.4694626      780.48958     -27.304782      753.18479    
   3109000   291.44721      0.01518627     7.807842       723.08857     -29.8159        693.27267    
   3110000   295.00712      0.01518627     9.1876418      731.92079     -24.185189      707.7356     
   3111000   310.16375      0.01518627     8.223822       769.5248      -26.843792      742.68101    
   3112000   305.93776      0.01518627     7.8164827      759.04002     -27.801115      731.23891    
   3113000   284.66206      0.01518627     4.9671571      706.25442     -23.744918      682.5095     
   3114000   293.11647      0.01518627     9.0132343      727.23005     -27.106709      700.12334    
   3115000   312.12506      0.01518627     9.6793176      774.39087     -24.335794      750.05507    
   3116000   310.09957      0.01518627     7.0234261      769.36558     -26.971477      742.3941     
   3117000   291.68888      0.01518627     5.172395       723.68816     -25.010894      698.67727    
   3118000   288.13946      0.01518627     9.8787329      714.88194     -23.394791      691.48715    
   3119000   303.23347      0.01518627     11.86836       752.3306      -24.416714      727.91388    
   3120000   315.68061      0.01518627     5.7457896      783.2123      -27.63421       755.57809    
   3121000   293.84995      0.01518627     8.2624435      729.04984     -26.824626      702.22521    
   3122000   305.03316      0.01518627     10.039164      756.79569     -29.670653      727.12504    
   3123000   299.79516      0.01518627     6.0433594      743.80007     -27.966738      715.83333    
   3124000   302.47046      0.01518627     7.4484998      750.43754     -24.086101      726.35144    
   3125000   302.21727      0.01518627     8.6076077      749.80939     -29.307636      720.50175    
   3126000   309.269        0.01518627     9.1463173      767.30492     -30.277266      737.02766    
   3127000   297.42022      0.01518627     6.1444434      737.90777     -29.212761      708.69501    
   3128000   294.86474      0.01518627     9.0438785      731.56755     -30.206671      701.36088    
   3129000   298.81113      0.01518627     10.488604      741.35865     -26.255212      715.10344    
   3130000   311.42351      0.01518627     7.7462668      772.65031     -28.618723      744.03159    
   3131000   293.26137      0.01518627     5.1312975      727.58953     -31.931057      695.65848    
   3132000   297.87935      0.01518627     8.4473583      739.04688     -32.328591      706.71829    
   3133000   304.14961      0.01518627     8.6591455      754.60355     -32.745426      721.85813    
   3134000   312.789        0.01518627     6.2360978      776.03813     -28.459004      747.57913    
   3135000   294.00279      0.01518627     8.7744859      729.42902     -28.683158      700.74586    
   3136000   295.64966      0.01518627     13.772672      733.51496     -28.493899      705.02106    
   3137000   301.87522      0.01518627     9.0931696      748.96073     -29.048649      719.91208    
   3138000   306.49979      0.01518627     7.7214746      760.43442     -26.685837      733.74858    
   3139000   302.41271      0.01518627     6.6514115      750.29427     -26.834706      723.45957    
   3140000   295.69017      0.01518627     8.2315858      733.61545     -28.533602      705.08185    
   3141000   296.14208      0.01518627     11.534612      734.73666     -30.715911      704.02075    
   3142000   320.44185      0.01518627     8.705899       795.02507     -34.724822      760.30025    
   3143000   295.00104      0.01518627     3.7851493      731.9057      -28.119497      703.78621    
   3144000   294.4736       0.01518627     7.9513564      730.59711     -32.268153      698.32896    
   3145000   297.71747      0.01518627     13.636812      738.64524     -28.394309      710.25093    
   3146000   316.39243      0.01518627     12.404745      784.97833     -24.86122       760.11711    
   3147000   304.44776      0.01518627     0.79117014     755.34328     -27.489741      727.85354    
   3148000   295.3974       0.01518627     7.0082115      732.8891      -24.995594      707.8935     
   3149000   314.86994      0.01518627     17.654994      781.20101     -27.692625      753.50839    
   3150000   311.44984      0.01518627     4.4458623      772.71563     -23.222779      749.49285    
   3151000   301.08387      0.01518627     3.8196188      746.99738     -27.377759      719.61962    
   3152000   287.11661      0.01518627     9.2746938      712.34421     -26.160854      686.18336    
   3153000   298.44878      0.01518627     14.532264      740.45964     -24.77465       715.68499    
   3154000   295.9341       0.01518627     17.189033      734.22066     -30.051513      704.16915    
   3155000   301.55336      0.01518627    -3.2300661      748.16219     -35.536207      712.62598    
   3156000   294.27361      0.01518627     4.3349251      730.10094     -31.34486       698.75608    
   3157000   289.97459      0.01518627     9.7111288      719.43494     -30.768625      688.66631    
   3158000   312.41031      0.01518627     10.735694      775.09859     -27.262441      747.83615    
   3159000   302.3585       0.01518627     3.6329172      750.15978     -21.062918      729.09686    
   3160000   303.81956      0.01518627     9.304154       753.7847      -22.400657      731.38404    
   3161000   305.51815      0.01518627     13.433555      757.99896     -22.495541      735.50342    
   3162000   299.70501      0.01518627     1.5297583      743.5764      -21.540902      722.0355     
   3163000   294.98383      0.01518627     4.2343957      731.863       -19.321848      712.54115    
   3164000   312.88083      0.01518627     9.8180091      776.26596     -20.450602      755.81536    
   3165000   306.97994      0.01518627     10.958975      761.6257      -24.1444        737.4813     
   3166000   295.97797      0.01518627     4.1591149      734.32951     -25.003414      709.3261     
   3167000   292.70577      0.01518627     7.1266792      726.21109     -20.890087      705.321      
   3168000   296.9623       0.01518627     20.684242      736.77166     -21.271795      715.49987    
   3169000   300.03915      0.01518627     3.945132       744.4054      -21.501092      722.90431    
   3170000   300.34544      0.01518627     7.6034184      745.16531     -21.583076      723.58224    
   3171000   303.5194       0.01518627     6.4996809      753.04001     -21.361128      731.67888    
   3172000   292.95735      0.01518627     7.8987113      726.83527     -25.050604      701.78467    
   3173000   296.46291      0.01518627     8.3149691      735.53264     -20.947414      714.58523    
   3174000   307.73036      0.01518627     8.9286229      763.48752     -20.365063      743.12245    
   3175000   298.14678      0.01518627     5.6381369      739.71038     -20.09075       719.61963    
   3176000   286.5264       0.01518627     7.2137636      710.87989     -20.788929      690.09096    
   3177000   298.99293      0.01518627     11.180015      741.8097      -22.389286      719.42041    
   3178000   301.24945      0.01518627     8.3987759      747.40819     -25.430869      721.97732    
   3179000   302.44676      0.01518627     7.0195209      750.37874     -28.217945      722.1608     
   3180000   303.36265      0.01518627     9.9240885      752.65109     -19.41615       733.23494    
   3181000   298.93533      0.01518627     8.2136228      741.6668      -24.622918      717.04388    
   3182000   306.88805      0.01518627     7.082629       761.39771     -21.111775      740.28593    
   3183000   298.52114      0.01518627    -0.80988336     740.63917     -18.35846       722.28071    
   3184000   301.9626       0.01518627     9.6671223      749.17754     -17.321226      731.85631    
   3185000   315.99186      0.01518627     10.78155       783.98452     -17.839781      766.14474    
   3186000   307.65265      0.01518627     8.6465668      763.29471     -16.3295        746.96521    
   3187000   304.83127      0.01518627     8.0845366      756.29478     -19.594481      736.7003     
   3188000   288.02148      0.01518627     8.3790433      714.58923     -21.420173      693.16906    
   3189000   297.80165      0.01518627     8.359347       738.8541      -19.608546      719.24555    
   3190000   298.17054      0.01518627     8.1099973      739.76933     -18.707792      721.06154    
   3191000   294.19536      0.01518627     9.8825928      729.90679     -15.004348      714.90244    
   3192000   299.79262      0.01518627     6.9617221      743.79376     -21.127974      722.66579    
   3193000   306.95283      0.01518627     7.5395244      761.55842     -23.561111      737.99731    
   3194000   300.75867      0.01518627     7.5458903      746.19055     -27.325419      718.86513    
   3195000   298.25934      0.01518627     8.5470933      739.98966     -25.240425      714.74923    
   3196000   294.31358      0.01518627     7.9330297      730.2001      -24.861757      705.33835    
   3197000   308.34196      0.01518627     5.4191699      765.00489     -20.017606      744.98729    
   3198000   305.05119      0.01518627     12.84398       756.8404      -21.922759      734.91764    
   3199000   295.08374      0.01518627     11.740554      732.11089     -22.922541      709.18835    
   3200000   292.88912      0.01518627     2.9851025      726.66597     -22.995164      703.67081    
   3201000   311.00196      0.01518627     11.327547      771.60444     -24.683625      746.92081    
   3202000   289.44385      0.01518627     19.269027      718.11817     -27.26224       690.85593    
   3203000   294.31554      0.01518627     4.2809025      730.20496     -25.082564      705.12239    
   3204000   320.92696      0.01518627    -1.8984415      796.22863     -23.277376      772.95125    
   3205000   311.44889      0.01518627     16.5994        772.71329     -26.133486      746.5798     
   3206000   287.59827      0.01518627     7.9032069      713.53923     -22.257766      691.28146    
   3207000   289.62094      0.01518627    -2.3577619      718.55753     -18.381891      700.17564    
   3208000   296.84653      0.01518627    -15.407654      736.48443     -23.14019       713.34424    
   3209000   315.61676      0.01518627     17.594237      783.05389     -21.325125      761.72876    
   3210000   295.67725      0.01518627     24.411883      733.58341     -24.009661      709.57375    
   3211000   291.05399      0.01518627    -1.8771721      722.11298     -19.462387      702.65059    
   3212000   305.21765      0.01518627    -10.870778      757.25341     -22.147832      735.10557    
   3213000   315.8569       0.01518627     11.348038      783.64968     -20.681292      762.96839    
   3214000   287.60248      0.01518627     26.25306       713.54969     -19.59359       693.9561     
   3215000   296.64165      0.01518627     9.5300437      735.9761      -23.089123      712.88698    
   3216000   311.8025       0.01518627     2.9720763      773.5906      -19.245721      754.34488    
   3217000   295.07286      0.01518627     17.407807      732.0839      -19.704976      712.37892    
   3218000   292.99899      0.01518627     4.9351791      726.93857     -26.283766      700.6548     
   3219000   314.47095      0.01518627     3.3498368      780.2111      -23.904898      756.3062     
   3220000   318.10232      0.01518627     13.184006      789.22061     -24.724926      764.49569    
   3221000   279.82014      0.01518627     13.848295      694.24148     -22.235596      672.00588    
   3222000   289.71313      0.01518627     0.22764746     718.78627     -20.518278      698.26799    
   3223000   314.31866      0.01518627     7.0002787      779.83326     -24.163235      755.67003    
   3224000   311.37123      0.01518627     9.1316793      772.52061     -22.828522      749.69209    
   3225000   295.6178       0.01518627     10.186485      733.43591     -17.489924      715.94599    
   3226000   298.42017      0.01518627     7.300169       740.38866     -19.605652      720.78301    
   3227000   305.12164      0.01518627     7.9755378      757.01521     -19.239017      737.77619    
   3228000   296.28917      0.01518627     5.7538313      735.10159     -17.481062      717.62053    
   3229000   303.08429      0.01518627     8.8593132      751.96047     -21.156858      730.80361    
   3230000   291.203        0.01518627     7.8936577      722.48268     -21.005539      701.47714    
   3231000   282.31394      0.01518627     8.3747185      700.42866     -21.208363      679.22029    
   3232000   285.74623      0.01518627     7.4258134      708.94428     -20.394555      688.54972    
   3233000   311.34959      0.01518627     6.1094384      772.46691     -20.339487      752.12742    
   3234000   308.66738      0.01518627     8.7506428      765.81229     -20.606264      745.20602    
   3235000   293.05828      0.01518627     9.009477       727.08566     -25.104244      701.98142    
   3236000   279.98117      0.01518627     7.2327718      694.641       -22.973891      671.66711    
   3237000   300.18369      0.01518627     4.9188978      744.76401     -22.597814      722.16619    
   3238000   314.76026      0.01518627     6.214408       780.92888     -21.948143      758.98074    
   3239000   298.83135      0.01518627     8.7227237      741.40882     -20.117565      721.29126    
   3240000   295.9221       0.01518627     11.486948      734.19089     -21.711737      712.47915    
   3241000   298.6147       0.01518627     6.2104817      740.87131     -20.506333      720.36498    
   3242000   306.5282       0.01518627     3.1013074      760.50493     -24.544335      735.96059    
   3243000   307.70628      0.01518627     9.5055775      763.42775     -23.485094      739.94266    
   3244000   299.26094      0.01518627     11.256529      742.47464     -25.511921      716.96271    
   3245000   289.16725      0.01518627     3.8979763      717.43191     -25.031096      692.40081    
   3246000   307.3579       0.01518627     7.6134604      762.56343     -22.687078      739.87635    
   3247000   307.6927       0.01518627     15.276283      763.39408     -24.228274      739.1658     
   3248000   286.83652      0.01518627     6.9120886      711.64932     -27.243836      684.40549    
   3249000   302.23043      0.01518627     7.6197539      749.84203     -30.537188      719.30484    
   3250000   314.97026      0.01518627     8.7097626      781.4499      -29.086081      752.36382    
   3251000   298.31046      0.01518627     7.5867749      740.11648     -25.61258       714.5039     
   3252000   292.64292      0.01518627     7.7312759      726.05514     -26.871413      699.18373    
   3253000   291.92156      0.01518627     6.8003877      724.26544     -23.415117      700.85032    
   3254000   297.97712      0.01518627     7.688707       739.28945     -25.328506      713.96095    
   3255000   305.64913      0.01518627     9.2385246      758.32392     -24.742459      733.58146    
   3256000   314.69965      0.01518627     7.94311        780.77851     -23.181045      757.59746    
   3257000   308.34829      0.01518627     8.059603       765.02061     -24.407086      740.61353    
   3258000   297.86909      0.01518627     8.7783388      739.02142     -28.010587      711.01083    
   3259000   304.54621      0.01518627     8.734393       755.58755     -23.357878      732.22967    
   3260000   306.89264      0.01518627     10.047677      761.40909     -23.579246      737.82985    
   3261000   302.18105      0.01518627     7.9133153      749.71951     -25.914843      723.80467    
   3262000   313.23942      0.01518627     2.1361798      777.15564     -30.584713      746.57092    
   3263000   299.17407      0.01518627     10.618567      742.2591      -27.333859      714.92524    
   3264000   304.12283      0.01518627     7.8667165      754.53714     -27.080672      727.45646    
   3265000   288.55371      0.01518627     4.7033024      715.90971     -25.173682      690.73603    
   3266000   298.12734      0.01518627     8.5959128      739.66214     -20.601236      719.06091    
   3267000   301.22619      0.01518627     12.35199       747.35048     -23.716696      723.63379    
   3268000   313.66988      0.01518627     9.7062475      778.22361     -24.263701      753.95991    
   3269000   303.13223      0.01518627     3.4731513      752.07941     -23.063216      729.01619    
   3270000   289.17372      0.01518627     6.266013       717.44797     -25.271116      692.17685    
   3271000   301.19181      0.01518627     15.061715      747.26518     -28.607857      718.65732    
   3272000   303.23715      0.01518627     7.0631499      752.33972     -28.243867      724.09585    
   3273000   298.60225      0.01518627     2.2977229      740.84041     -21.214571      719.62584    
   3274000   299.17652      0.01518627     2.275879       742.2652      -24.369044      717.89616    
   3275000   307.11044      0.01518627     12.113921      761.94946     -20.986782      740.96268    
   3276000   316.20191      0.01518627     15.821438      784.50565     -22.973201      761.53245    
   3277000   302.67945      0.01518627     5.910587       750.95607     -25.003564      725.95251    
   3278000   295.83101      0.01518627     4.8765617      733.9649      -30.065114      703.89978    
   3279000   296.1412       0.01518627     12.393601      734.73448     -29.000964      705.73352    
   3280000   300.72093      0.01518627     14.887803      746.09691     -31.850741      714.24617    
   3281000   304.16044      0.01518627     14.59313       754.63044     -26.636919      727.99352    
   3282000   296.4064       0.01518627    -2.3498373      735.39244     -24.240372      711.15207    
   3283000   300.38499      0.01518627     11.665672      745.26344     -23.213663      722.04978    
   3284000   300.66074      0.01518627     11.439935      745.94759     -22.683146      723.26445    
   3285000   304.7871       0.01518627     5.9367496      756.1852      -26.264145      729.92106    
   3286000   305.41928      0.01518627     5.9467738      757.75364     -24.761541      732.9921     
   3287000   293.83657      0.01518627     7.8661124      729.01662     -25.382025      703.6346     
   3288000   294.90777      0.01518627     9.4985422      731.67431     -23.78679       707.88752    
   3289000   299.41469      0.01518627     6.798968       742.8561      -25.55548       717.30062    
   3290000   290.37109      0.01518627     8.7898883      720.41869     -26.710931      693.70776    
   3291000   308.90482      0.01518627     10.228379      766.40138     -28.960305      737.44107    
   3292000   306.68415      0.01518627     5.1300694      760.89183     -29.067655      731.82417    
   3293000   284.40547      0.01518627     6.8873588      705.61781     -29.618651      675.99916    
   3294000   287.82357      0.01518627     7.2811419      714.09822     -32.24442       681.8538     
   3295000   314.71271      0.01518627     10.449681      780.81092     -31.149699      749.66122    
   3296000   287.10238      0.01518627     1.2415235      712.30891     -31.820822      680.48808    
   3297000   297.00222      0.01518627     12.358803      736.87068     -31.104414      705.76627    
   3298000   320.10836      0.01518627     2.7523452      794.19767     -28.829609      765.36806    
   3299000   299.82688      0.01518627     7.2722176      743.87874     -28.579224      715.29952    
   3300000   286.37798      0.01518627     7.040271       710.51165     -27.298413      683.21324    
   3301000   297.92495      0.01518627     13.799615      739.16001     -25.21143       713.94858    
   3302000   320.01964      0.01518627     20.193871      793.97755     -23.83694       770.14061    
   3303000   304.08345      0.01518627     2.4524465      754.43941     -22.512119      731.92729    
   3304000   303.28784      0.01518627     9.5556922      752.46548     -25.986102      726.47938    
   3305000   301.85586      0.01518627     8.9888148      748.9127      -19.153112      729.75959    
   3306000   294.78196      0.01518627     5.1480252      731.36218     -22.463792      708.89838    
   3307000   292.91171      0.01518627     7.9661099      726.72204     -24.723596      701.99844    
   3308000   306.30138      0.01518627     18.815341      759.94216     -25.899382      734.04278    
   3309000   307.9493       0.01518627     0.97112876     764.03071     -29.264509      734.7662     
   3310000   285.42941      0.01518627    -0.60269917     708.15824     -24.910743      683.24749    
   3311000   299.15051      0.01518627     18.169617      742.20067     -23.591317      718.60935    
   3312000   317.87412      0.01518627     8.0052919      788.65445     -25.358837      763.29561    
   3313000   299.25396      0.01518627     5.9102759      742.45733     -22.768957      719.68838    
   3314000   300.1222       0.01518627     2.1959436      744.61146     -20.927381      723.68408    
   3315000   306.62029      0.01518627     24.609334      760.7334      -22.817601      737.9158     
   3316000   303.18536      0.01518627    -14.567501      752.21123     -21.366128      730.8451     
   3317000   289.61027      0.01518627     8.8140127      718.53106     -20.583569      697.94749    
   3318000   301.41315      0.01518627     19.297731      747.81433     -21.589986      726.22434    
   3319000   304.54944      0.01518627     15.599744      755.59555     -23.178924      732.41662    
   3320000   307.01961      0.01518627    -23.048352      761.72412     -24.800016      736.9241     
   3321000   294.54348      0.01518627     6.4819539      730.77048     -23.567295      707.20319    
   3322000   291.50811      0.01518627     13.699788      723.23965     -25.841626      697.39802    
   3323000   305.80439      0.01518627     6.1667703      758.70913     -25.448475      733.26065    
   3324000   307.6925       0.01518627     5.5231898      763.39357     -26.537563      736.85601    
   3325000   293.61413      0.01518627     3.2186963      728.46476     -26.935409      701.52935    
   3326000   288.47534      0.01518627     21.241238      715.71527     -24.346036      691.36924    
   3327000   295.96056      0.01518627     11.972348      734.28631     -22.794184      711.49213    
   3328000   306.90831      0.01518627    -0.75951988     761.44798     -19.939655      741.50832    
   3329000   300.65329      0.01518627     4.5702969      745.9291      -22.600986      723.32812    
   3330000   299.39447      0.01518627     15.810399      742.80592     -15.987934      726.81799    
   3331000   303.04088      0.01518627     9.5300715      751.85277     -18.216299      733.63647    
   3332000   293.77764      0.01518627    -5.9592739      728.87041     -23.706522      705.16389    
   3333000   296.16785      0.01518627     9.425954       734.80059     -20.195187      714.60541    
   3334000   302.14262      0.01518627     11.946356      749.62418     -22.736441      726.88774    
   3335000   304.05931      0.01518627     7.8471801      754.37953     -22.91069       731.46884    
   3336000   294.7893       0.01518627     5.4275717      731.38039     -25.008276      706.37211    
   3337000   292.82575      0.01518627     7.7969805      726.50875     -23.532303      702.97645    
   3338000   313.79145      0.01518627     12.948336      778.52523     -21.495154      757.03008    
   3339000   300.46528      0.01518627     9.1876899      745.46265     -22.650865      722.81178    
   3340000   303.85711      0.01518627     7.4656953      753.87787     -17.668073      736.2098     
   3341000   297.09008      0.01518627     5.8957496      737.08867     -17.913493      719.17518    
   3342000   295.15571      0.01518627     8.8654547      732.28945     -18.703263      713.58618    
   3343000   304.58743      0.01518627     9.5203952      755.6898      -20.324328      735.36548    
   3344000   307.4331       0.01518627     11.078938      762.74999     -16.600171      746.14982    
   3345000   284.62166      0.01518627     7.5671023      706.15417     -21.94722       684.20695    
   3346000   299.29859      0.01518627     5.6330987      742.56805     -20.55616       722.01189    
   3347000   315.09066      0.01518627     13.423109      781.74862     -20.723809      761.02481    
   3348000   293.77374      0.01518627     9.3766124      728.86075     -21.703175      707.15757    
   3349000   300.19096      0.01518627     0.30754476     744.78206     -24.167997      720.61406    
   3350000   310.45324      0.01518627     7.8826162      770.24305     -21.996919      748.24613    
   3351000   296.19321      0.01518627     14.38897       734.86352     -19.653602      715.20992    
   3352000   289.25831      0.01518627     8.7313821      717.65783     -20.79778       696.86005    
   3353000   303.42883      0.01518627     3.6261356      752.81529     -26.893466      725.92183    
   3354000   302.59737      0.01518627     14.143372      750.75241     -24.253958      726.49846    
   3355000   290.51347      0.01518627     1.9385424      720.77193     -26.043413      694.72852    
   3356000   307.27213      0.01518627     2.6166899      762.35062     -21.93373       740.41689    
   3357000   308.79571      0.01518627     12.359665      766.13067     -20.625183      745.50549    
   3358000   298.74508      0.01518627     17.251476      741.19479     -19.52061       721.67418    
   3359000   287.20049      0.01518627     14.124743      712.55233     -18.097727      694.4546     
   3360000   291.983        0.01518627     5.8381034      724.41788     -20.052514      704.36537    
   3361000   307.16605      0.01518627     5.6859515      762.08743     -19.305402      742.78202    
   3362000   310.34217      0.01518627     8.8077467      769.96749     -23.275843      746.69165    
   3363000   294.26277      0.01518627     12.286777      730.07404     -25.116907      704.95713    
   3364000   294.4711       0.01518627     6.5726285      730.59091     -24.74442       705.84649    
   3365000   303.35221      0.01518627     2.2721932      752.62521     -23.005238      729.61997    
   3366000   302.43399      0.01518627     16.193036      750.34708     -20.391523      729.95555    
   3367000   290.48683      0.01518627     7.7851968      720.70583     -25.218425      695.4874     
   3368000   306.00312      0.01518627     2.3189037      759.20218     -24.524974      734.6772     
   3369000   307.60143      0.01518627     11.656763      763.16763     -26.899179      736.26845    
   3370000   287.13067      0.01518627     7.7778852      712.3791      -23.861251      688.51785    
   3371000   285.97908      0.01518627     1.9499002      709.52199     -22.824997      686.69699    
   3372000   304.47101      0.01518627     8.3479985      755.40097     -20.958372      734.4426     
   3373000   308.61896      0.01518627     5.434002       765.69215     -22.263323      743.42883    
   3374000   313.69396      0.01518627     12.49121       778.28335     -24.406283      753.87707    
   3375000   284.52312      0.01518627     15.566396      705.9097      -22.706286      683.20342    
   3376000   298.47794      0.01518627     7.4157041      740.532       -20.735344      719.79665    
   3377000   303.99752      0.01518627     2.1799253      754.22624     -23.061656      731.16458    
   3378000   301.42961      0.01518627     12.353633      747.85518     -23.172373      724.6828     
   3379000   281.5594       0.01518627     10.920561      698.55664     -27.322768      671.23387    
   3380000   301.1562       0.01518627     8.7900429      747.17684     -28.29804       718.8788     
   3381000   304.65488      0.01518627    -0.026506072    755.85714     -28.619492      727.23765    
   3382000   299.56004      0.01518627     14.021796      743.21671     -25.266112      717.9506     
   3383000   287.07034      0.01518627     10.910768      712.22943     -19.680583      692.54885    
   3384000   299.21476      0.01518627     6.3987758      742.36008     -26.00383       716.35624    
   3385000   295.45968      0.01518627     5.0185316      733.0436      -27.193878      705.84972    
   3386000   298.83344      0.01518627     3.3029229      741.41401     -30.449866      710.96415    
   3387000   304.64252      0.01518627     10.637438      755.82648     -29.489231      726.33725    
   3388000   299.45255      0.01518627     8.7043717      742.95003     -23.810459      719.13957    
   3389000   299.06777      0.01518627     6.5872677      741.99537     -24.570332      717.42504    
   3390000   304.84731      0.01518627     8.3468819      756.33459     -24.331754      732.00283    
   3391000   303.01179      0.01518627     8.6894739      751.78061     -24.343794      727.43681    
   3392000   299.91291      0.01518627     6.9104556      744.0922      -27.698172      716.39403    
   3393000   285.21545      0.01518627     6.1209091      707.6274      -31.584296      676.04311    
   3394000   294.61813      0.01518627     9.0175246      730.95569     -30.470125      700.48557    
   3395000   312.59171      0.01518627     7.3331035      775.54865     -31.630235      743.91842    
   3396000   284.34342      0.01518627     7.6449268      705.46387     -34.561625      670.90224    
   3397000   301.99189      0.01518627     8.1354611      749.25022     -28.227017      721.0232     
   3398000   317.9516       0.01518627     8.4665147      788.84668     -25.520657      763.32602    
   3399000   295.25954      0.01518627     8.4850562      732.54707     -22.728974      709.81809    
   3400000   292.18949      0.01518627     7.7588083      724.93017     -25.213228      699.71694    
   3401000   305.36275      0.01518627     5.2954206      757.61341     -26.664195      730.94921    
   3402000   307.57458      0.01518627     10.498963      763.10101     -25.610735      737.49027    
   3403000   301.21245      0.01518627     8.7804164      747.31639     -25.852836      721.46355    
   3404000   295.3557       0.01518627     6.4318547      732.78563     -23.451526      709.33411    
   3405000   301.66867      0.01518627     5.5361351      748.44829     -24.528542      723.91975    
   3406000   303.60106      0.01518627     9.6693003      753.24259     -24.892375      728.35022    
   3407000   286.38073      0.01518627     6.146721       710.51849     -23.513253      687.00524    
   3408000   301.12349      0.01518627     7.6942705      747.09567     -22.280101      724.81557    
   3409000   295.40285      0.01518627     15.611569      732.90262     -21.657656      711.24496    
   3410000   297.69199      0.01518627     5.434152       738.58202     -23.269286      715.31274    
   3411000   299.78512      0.01518627    -5.6765468      743.77515     -22.364173      721.41098    
   3412000   298.61927      0.01518627     11.523256      740.88263     -23.556745      717.32588    
   3413000   300.9316       0.01518627     8.7516464      746.61959     -25.378258      721.24133    
   3414000   304.34646      0.01518627     4.9056588      755.09195     -30.998474      724.09347    
   3415000   314.44599      0.01518627     10.894767      780.14918     -28.1517        751.99748    
   3416000   289.60697      0.01518627     9.6138408      718.52287     -27.268491      691.25438    
   3417000   306.13841      0.01518627     4.4822555      759.53783     -29.054113      730.48372    
   3418000   320.21829      0.01518627     8.0028351      794.47039     -27.554352      766.91604    
   3419000   298.49462      0.01518627     7.8421246      740.57338     -25.739548      714.83384    
   3420000   292.63775      0.01518627     8.6813966      726.04232     -25.193689      700.84863    
   3421000   304.30182      0.01518627     11.144277      754.98119     -28.047757      726.93344    
   3422000   315.53161      0.01518627     6.5706735      782.84261     -27.057559      755.78505    
   3423000   294.50602      0.01518627     3.7623513      730.67754     -23.995448      706.6821     
   3424000   298.7116       0.01518627     8.0919253      741.11172     -27.119011      713.99271    
   3425000   309.389        0.01518627     13.249671      767.60264     -27.412221      740.19042    
   3426000   312.11594      0.01518627     9.6271215      774.36824     -26.320771      748.04747    
   3427000   296.80601      0.01518627     4.6471484      736.38389     -28.485271      707.89861    
   3428000   291.60684      0.01518627     11.264029      723.4846      -26.891137      696.59346    
   3429000   303.3591       0.01518627     8.794772       752.64229     -27.088099      725.55419    
   3430000   315.12285      0.01518627     8.5106646      781.82847     -29.924587      751.90388    
   3431000   301.71349      0.01518627     6.1398562      748.55949     -26.58011       721.97938    
   3432000   295.36623      0.01518627     9.7781256      732.81175     -27.908728      704.90303    
   3433000   308.35362      0.01518627     12.002442      765.03383     -27.969819      737.06401    
   3434000   303.15019      0.01518627     8.6270046      752.12399     -29.651625      722.47236    
   3435000   294.46492      0.01518627     7.6104326      730.57558     -38.590376      691.9852     
   3436000   303.10776      0.01518627     8.364437       752.0187      -30.276402      721.7423     
   3437000   307.13539      0.01518627     9.5847557      762.01136     -33.062473      728.94889    
   3438000   305.22987      0.01518627     8.9952808      757.28371     -34.002309      723.2814     
   3439000   287.83978      0.01518627     7.1190011      714.13842     -30.274549      683.86387    
   3440000   297.72821      0.01518627     7.7425583      738.67189     -26.459736      712.21215    
   3441000   310.63964      0.01518627     9.6880578      770.70552     -24.257441      746.44808    
   3442000   301.55146      0.01518627     8.2166736      748.15747     -24.575475      723.582      
   3443000   294.26199      0.01518627     7.9196459      730.07212     -23.890374      706.18174    
   3444000   308.65695      0.01518627     8.504785       765.78641     -25.098497      740.68791    
   3445000   316.37338      0.01518627     12.161433      784.93109     -28.260834      756.67025    
   3446000   297.81235      0.01518627     7.5742787      738.88066     -30.264149      708.61651    
   3447000   289.58877      0.01518627     4.1602767      718.47771     -29.950737      688.52697    
   3448000   285.83516      0.01518627     7.0460898      709.1649      -28.858983      680.30592    
   3449000   302.45415      0.01518627     15.558338      750.39709     -30.558336      719.83875    
   3450000   303.46332      0.01518627     8.1467866      752.90086     -25.786554      727.1143     
   3451000   289.39449      0.01518627     3.8596015      717.9957      -30.769507      687.22619    
   3452000   299.22165      0.01518627     8.3319691      742.37717     -28.725051      713.65211    
   3453000   323.03749      0.01518627     10.140154      801.46492     -28.099798      773.36513    
   3454000   310.52439      0.01518627     10.965991      770.41957     -35.57626       734.84331    
   3455000   288.07234      0.01518627     7.446436       714.71543     -33.606397      681.10903    
   3456000   295.27805      0.01518627     7.9425273      732.59298     -36.089079      696.5039     
   3457000   306.31567      0.01518627     12.516759      759.97761     -32.118816      727.8588     
   3458000   307.24129      0.01518627     6.5907057      762.27411     -25.495433      736.77867    
   3459000   289.05214      0.01518627     9.7851404      717.14634     -26.903907      690.24243    
   3460000   306.89573      0.01518627     9.6489408      761.41676     -27.082554      734.33421    
   3461000   303.18095      0.01518627     5.5422551      752.20031     -27.032214      725.16809    
   3462000   297.82616      0.01518627     3.6375749      738.91491     -29.446772      709.46814    
   3463000   288.42953      0.01518627     11.604684      715.60161     -24.840504      690.76111    
   3464000   304.39942      0.01518627     14.434427      755.22334     -22.474942      732.7484     
   3465000   307.91532      0.01518627     7.8671122      763.94641     -26.321711      737.6247     
   3466000   295.45938      0.01518627     6.8847879      733.04287     -28.448315      704.59456    
   3467000   286.88307      0.01518627     5.7312345      711.7648      -29.003919      682.76088    
   3468000   305.23605      0.01518627     11.217504      757.29906     -32.276223      725.02283    
   3469000   308.62083      0.01518627     5.8620047      765.69679     -28.350733      737.34606    
   3470000   292.50655      0.01518627     4.6622169      725.71682     -31.318457      694.39837    
   3471000   300.45382      0.01518627     9.4387742      745.43421     -33.381123      712.05308    
   3472000   309.51869      0.01518627     13.170974      767.9244      -30.901069      737.02333    
   3473000   299.77824      0.01518627     8.5976424      743.75808     -30.253948      713.50414    
   3474000   297.19325      0.01518627     5.1617461      737.34464     -33.978296      703.36634    
   3475000   298.00723      0.01518627     2.4458485      739.36415     -32.039382      707.32477    
   3476000   286.67203      0.01518627     5.5846847      711.24121     -35.283838      675.95737    
   3477000   291.79708      0.01518627     8.8285141      723.9566      -32.6053        691.3513     
   3478000   305.09986      0.01518627     9.1283528      756.96116     -28.131517      728.82964    
   3479000   310.03342      0.01518627     2.9484952      769.20147     -28.884174      740.31729    
   3480000   288.0348       0.01518627     5.2686705      714.62228     -29.538019      685.08426    
   3481000   281.9552       0.01518627     4.555766       699.53863     -26.592992      672.94564    
   3482000   302.64245      0.01518627     11.559085      750.86425     -29.555609      721.30864    
   3483000   316.21509      0.01518627     9.0559939      784.53836     -29.780349      754.75801    
   3484000   299.44757      0.01518627     5.7894943      742.93768     -32.948346      709.98934    
   3485000   291.86012      0.01518627     8.5512206      724.11301     -36.487547      687.62546    
   3486000   302.04934      0.01518627     8.1098443      749.39274     -33.616527      715.77621    
   3487000   300.40958      0.01518627     8.0603408      745.32445     -30.205664      715.11878    
   3488000   293.09897      0.01518627     8.2185172      727.18662     -29.28669       697.89993    
   3489000   303.0779       0.01518627     9.4242447      751.94463     -25.677176      726.26746    
   3490000   303.11219      0.01518627     6.4110135      752.02969     -25.935353      726.09434    
   3491000   288.37071      0.01518627     7.595847       715.45567     -24.478164      690.97751    
   3492000   291.96263      0.01518627     7.8705562      724.36732     -21.832159      702.53516    
   3493000   295.21717      0.01518627     5.5876906      732.44193     -24.412926      708.02901    
   3494000   308.48141      0.01518627     5.1203294      765.35087     -23.193714      742.15716    
   3495000   314.54361      0.01518627     14.434368      780.39136     -29.764863      750.6265     
   3496000   295.57831      0.01518627     12.108372      733.33794     -27.454885      705.88305    
   3497000   291.14127      0.01518627     8.299592       722.32952     -35.770693      686.55882    
   3498000   292.26853      0.01518627     5.296321       725.12627     -28.285317      696.84095    
   3499000   314.43679      0.01518627     13.376244      780.12635     -30.910228      749.21612    
   3500000   296.01342      0.01518627     14.524995      734.41747     -31.412874      703.00459    
   3501000   284.38156      0.01518627     0.88974116     705.55848     -37.144436      668.41405    
   3502000   303.22409      0.01518627    -8.6739172      752.30734     -35.532821      716.77451    
   3503000   311.33644      0.01518627    -3.4147172      772.43429     -33.411343      739.02294    
   3504000   300.58385      0.01518627     16.626703      745.75683     -30.546172      715.21065    
   3505000   292.11116      0.01518627    -2.884519       724.73584     -28.133358      696.60248    
   3506000   322.01188      0.01518627    -6.3903197      798.92034     -28.407205      770.51313    
   3507000   315.50407      0.01518627     11.653325      782.77429     -24.824365      757.94992    
   3508000   296.01731      0.01518627     15.560504      734.42711     -21.710208      712.71691    
   3509000   284.464        0.01518627    -0.3615214      705.76302     -26.292034      679.47099    
   3510000   315.51597      0.01518627     7.766954       782.80382     -23.601597      759.20222    
   3511000   292.1271       0.01518627     19.904051      724.7754      -22.908447      701.86695    
   3512000   293.04763      0.01518627     13.660896      727.05924     -24.115618      702.94362    
   3513000   313.61593      0.01518627     2.7118332      778.08977     -22.98191       755.10786    
   3514000   308.17526      0.01518627     9.209362       764.59132     -25.032802      739.55852    
   3515000   289.78698      0.01518627     13.941365      718.96948     -22.895945      696.07353    
   3516000   297.39088      0.01518627     4.0552576      737.83497     -24.476695      713.35828    
   3517000   302.35926      0.01518627     9.541528       750.16165     -27.233007      722.92865    
   3518000   309.76835      0.01518627     9.8162292      768.54382     -22.022126      746.5217     
   3519000   289.57979      0.01518627     9.0997707      718.45544     -27.420625      691.03482    
   3520000   299.06061      0.01518627     5.7930271      741.97762     -26.468849      715.50877    
   3521000   295.84805      0.01518627     14.43536       734.00717     -26.49305       707.51412    
   3522000   304.49784      0.01518627     7.5692405      755.46753     -26.566422      728.90111    
   3523000   303.34871      0.01518627     4.0937943      752.61652     -27.12709       725.48943    
   3524000   293.9628       0.01518627     13.322005      729.32982     -26.420219      702.9096     
   3525000   299.72103      0.01518627     10.438834      743.61613     -27.983599      715.63253    
   3526000   298.52097      0.01518627     4.3153976      740.63875     -24.431043      716.20771    
   3527000   297.0717       0.01518627     7.295512       737.04307     -25.192032      711.85104    
   3528000   304.57813      0.01518627     9.4256165      755.66673     -23.255719      732.41101    
   3529000   300.65312      0.01518627     11.112348      745.92868     -24.494951      721.43373    
   3530000   296.7385       0.01518627     2.3725546      736.21641     -21.600499      714.61591    
   3531000   295.29851      0.01518627     7.9717064      732.64374     -23.321944      709.3218     
   3532000   293.16858      0.01518627     12.520797      727.35934     -24.668404      702.69093    
   3533000   294.1563       0.01518627     3.3982005      729.80988     -25.971455      703.83842    
   3534000   303.34242      0.01518627     7.4580654      752.6009      -24.855648      727.74525    
   3535000   301.18356      0.01518627     14.072047      747.24472     -28.279643      718.96508    
   3536000   296.59379      0.01518627     8.0177923      735.85737     -24.910125      710.94725    
   3537000   295.7001       0.01518627     6.6926172      733.6401      -22.46759       711.17251    
   3538000   312.52922      0.01518627     8.5403394      775.39361     -22.145841      753.24777    
   3539000   306.16476      0.01518627     10.257005      759.60321     -24.878225      734.72498    
   3540000   282.77529      0.01518627     6.6093766      701.57328     -26.642649      674.93063    
   3541000   294.52512      0.01518627     6.9127072      730.72495     -26.941521      703.78342    
   3542000   311.97769      0.01518627     5.300645       774.02525     -31.679462      742.34579    
   3543000   312.4688       0.01518627     10.53988       775.24371     -25.08211       750.1616     
   3544000   297.81137      0.01518627     9.2064494      738.87823     -27.069544      711.80869    
   3545000   294.40833      0.01518627     7.957182       730.43519     -24.14746       706.28773    
   3546000   309.29062      0.01518627     8.3963688      767.35855     -25.294106      742.06444    
   3547000   299.26376      0.01518627     7.7569589      742.48163     -28.067004      714.41463    
   3548000   294.18376      0.01518627     7.4219072      729.87801     -27.420035      702.45798    
   3549000   295.31943      0.01518627     6.90042        732.69565     -25.666109      707.02954    
   3550000   310.12612      0.01518627     8.2494295      769.43145     -29.259442      740.172      
   3551000   288.76666      0.01518627     10.515022      716.43804     -31.287124      685.15092    
   3552000   297.05959      0.01518627     7.0280025      737.01303     -25.159458      711.85357    
   3553000   309.66002      0.01518627     4.9975152      768.27505     -25.737467      742.53758    
   3554000   302.9642       0.01518627     9.5312596      751.66253     -31.851852      719.81068    
   3555000   281.58521      0.01518627     7.9960167      698.62067     -25.314115      673.30656    
   3556000   298.04739      0.01518627     9.1064221      739.4638      -24.835358      714.62844    
   3557000   307.04382      0.01518627     9.1628575      761.78418     -25.111341      736.67284    
   3558000   319.6251       0.01518627     8.7727345      792.99869     -24.328757      768.66993    
   3559000   293.07812      0.01518627     6.0263513      727.1349      -24.126799      703.00811    
   3560000   289.82906      0.01518627     8.5022173      719.0739      -22.347473      696.72642    
   3561000   307.86907      0.01518627     10.611081      763.83165     -21.167039      742.66461    
   3562000   322.80373      0.01518627     8.4110121      800.88496     -26.127559      774.7574     
   3563000   291.19663      0.01518627     6.9711754      722.46687     -24.835646      697.63122    
   3564000   288.22578      0.01518627     6.9175714      715.09611     -27.497224      687.59889    
   3565000   295.56618      0.01518627     10.28208       733.30784     -23.699663      709.60817    
   3566000   314.38615      0.01518627     8.8022255      780.0007      -32.798524      747.20218    
   3567000   303.45239      0.01518627     1.6754289      752.87374     -29.803821      723.06992    
   3568000   287.98167      0.01518627     6.5848998      714.49047     -25.795522      688.69495    
   3569000   303.14886      0.01518627     8.3527996      752.12069     -26.083128      726.03756    
   3570000   316.95579      0.01518627     9.2579102      786.37604     -28.151534      758.22451    
   3571000   297.87034      0.01518627     8.5136474      739.02451     -24.311083      714.71343    
   3572000   288.10992      0.01518627     8.1754653      714.80865     -27.656739      687.15191    
   3573000   300.58842      0.01518627     3.1900251      745.76815     -35.717604      710.05055    
   3574000   323.18435      0.01518627     8.3432643      801.82929     -30.9217        770.90759    
   3575000   300.14293      0.01518627     8.9230963      744.66289     -27.971132      716.69176    
   3576000   288.81007      0.01518627     7.8077476      716.54573     -26.89787       689.64786    
   3577000   295.27541      0.01518627     8.1029954      732.58644     -29.304312      703.28213    
   3578000   314.90068      0.01518627     9.5110969      781.27727     -29.373671      751.90359    
   3579000   306.6186       0.01518627     7.9260807      760.7292      -28.613697      732.11551    
   3580000   294.16454      0.01518627     7.8383066      729.83033     -24.934216      704.89611    
   3581000   307.98443      0.01518627     8.1596838      764.11786     -29.40768       734.71018    
   3582000   302.93285      0.01518627     8.6116178      751.58475     -28.250409      723.33435    
   3583000   295.90052      0.01518627     8.3737304      734.13735     -32.056974      702.08037    
   3584000   292.78902      0.01518627     5.5134949      726.41763     -30.224703      696.19292    
   3585000   304.41534      0.01518627     9.0046177      755.26285     -30.043846      725.21901    
   3586000   301.20228      0.01518627     7.6702355      747.29116     -31.163227      716.12793    
   3587000   299.00059      0.01518627     8.8128963      741.82871     -31.772043      710.05667    
   3588000   300.70002      0.01518627     8.6366911      746.04503     -35.918657      710.12638    
   3589000   293.16888      0.01518627     8.6801069      727.36007     -33.15907       694.201      
   3590000   301.15839      0.01518627     8.7276694      747.18225     -39.458032      707.72422    
   3591000   313.98269      0.01518627     3.669905       778.99971     -28.984086      750.01562    
   3592000   291.08124      0.01518627     1.1024613      722.18057     -26.358757      695.82181    
   3593000   290.1301       0.01518627     8.3674442      719.82079     -22.291493      697.52929    
   3594000   303.86461      0.01518627     10.381788      753.89647     -21.05471       732.84176    
   3595000   310.81279      0.01518627     0.3688664      771.13509     -17.727446      753.40764    
   3596000   292.17807      0.01518627     1.438496       724.90184     -18.928429      705.97342    
   3597000   287.17876      0.01518627     11.335709      712.49842     -20.626344      691.87207    
   3598000   306.15208      0.01518627     8.2493905      759.57175     -23.733143      735.8386     
   3599000   306.36221      0.01518627     2.5694046      760.09308     -20.439587      739.6535     
   3600000   285.95953      0.01518627     9.4424385      709.47347     -22.04041       687.43306    
   3601000   306.33165      0.01518627     15.915328      760.01727     -21.937493      738.07978    
   3602000   316.59715      0.01518627     10.919038      785.48626     -17.702749      767.78351    
   3603000   297.49454      0.01518627     6.0738974      738.09215     -16.558534      721.53362    
   3604000   290.14567      0.01518627     6.7473891      719.8594      -18.909601      700.9498     
   3605000   302.08232      0.01518627     10.917543      749.47456     -18.241423      731.23314    
   3606000   301.60153      0.01518627     12.68982       748.28171     -20.44098       727.84073    
   3607000   298.98314      0.01518627     6.7509834      741.78541     -24.504879      717.28053    
   3608000   295.50262      0.01518627     0.10368571     733.15014     -23.289902      709.86023    
   3609000   307.72117      0.01518627     11.23721       763.46472     -20.098402      743.36631    
   3610000   311.86391      0.01518627     12.15315       773.74295     -22.51833       751.22462    
   3611000   292.17928      0.01518627    -1.4164509      724.90484     -22.201085      702.70375    
   3612000   292.08402      0.01518627     5.585536       724.66849     -22.997803      701.67069    
   3613000   315.49136      0.01518627     22.725526      782.74275     -27.238746      755.50401    
   3614000   301.75963      0.01518627     8.5664478      748.67395     -24.591759      724.08219    
   3615000   292.81522      0.01518627     6.9757823      726.48263     -27.170576      699.31206    
   3616000   289.11959      0.01518627     8.6396743      717.31368     -23.406467      693.90722    
   3617000   311.07345      0.01518627     14.463705      771.7818      -25.103173      746.67863    
   3618000   313.42296      0.01518627     8.8882836      777.611       -23.361745      754.24925    
   3619000   296.1049       0.01518627     3.3079767      734.64442     -21.798286      712.84613    
   3620000   296.08851      0.01518627     3.6498444      734.60376     -25.931442      708.67231    
   3621000   299.35618      0.01518627     17.273752      742.71094     -25.324435      717.38651    
   3622000   311.54222      0.01518627     15.414013      772.94484     -23.990654      748.95418    
   3623000   294.47382      0.01518627     5.7123445      730.59767     -25.183863      705.41381    
   3624000   298.89302      0.01518627     6.4363965      741.56183     -28.791429      712.7704     
   3625000   289.31709      0.01518627     14.478365      717.80367     -25.98033       691.82334    
   3626000   300.11552      0.01518627     13.091128      744.59487     -27.14208       717.45279    
   3627000   306.48817      0.01518627     14.030196      760.40559     -22.696779      737.70881    
   3628000   298.24006      0.01518627     4.4460568      739.94181     -21.398981      718.54283    
   3629000   299.1709       0.01518627     7.2026309      742.25125     -22.156119      720.09513    
   3630000   306.11318      0.01518627     19.208312      759.47523     -22.158404      737.31682    
   3631000   307.95137      0.01518627     6.6190086      764.03584     -22.564258      741.47158    
   3632000   291.79858      0.01518627     1.8230867      723.96032     -26.350873      697.60945    
   3633000   295.30421      0.01518627     7.4264128      732.65789     -28.045654      704.61224    
   3634000   310.6612       0.01518627     29.971108      770.759       -26.436649      744.32235    
   3635000   313.54751      0.01518627     2.0193688      777.92002     -24.968054      752.95197    
   3636000   292.66087      0.01518627     1.6222672      726.09968     -24.19355       701.90613    
   3637000   302.06695      0.01518627     25.076147      749.43643     -23.113092      726.32334    
   3638000   302.97923      0.01518627     12.602548      751.69981     -27.142423      724.55739    
   3639000   304.88128      0.01518627     7.0078289      756.41886     -24.203642      732.21522    
   3640000   297.88128      0.01518627     6.2443731      739.05168     -19.845754      719.20592    
   3641000   295.22579      0.01518627     15.717597      732.46333     -25.002758      707.46057    
   3642000   305.63101      0.01518627     10.78895       758.27896     -25.778305      732.50065    
   3643000   304.01069      0.01518627     5.3891372      754.2589      -23.772186      730.48672    
   3644000   294.27224      0.01518627     10.730529      730.09755     -22.144753      707.9528     
   3645000   312.92566      0.01518627     10.450139      776.37718     -20.05138       756.3258     
   3646000   304.40386      0.01518627     8.9028704      755.23437     -18.634632      736.59974    
   3647000   297.31531      0.01518627     7.957624       737.64748     -20.303339      717.34414    
   3648000   281.0588       0.01518627     7.0847291      697.31464     -21.944837      675.3698     
   3649000   308.29756      0.01518627     7.9921563      764.89475     -20.365646      744.52911    
   3650000   303.41586      0.01518627     11.954691      752.78312     -21.105852      731.67727    
   3651000   294.40057      0.01518627     7.7731298      730.41594     -24.147939      706.268      
   3652000   297.65582      0.01518627     3.4501605      738.4923      -27.657825      710.83447    
   3653000   318.07717      0.01518627     18.602636      789.15823     -20.922699      768.23553    
   3654000   302.77552      0.01518627     10.594451      751.19442     -17.796508      733.39791    
   3655000   291.74595      0.01518627     8.1895493      723.82974     -21.177001      702.65274    
   3656000   292.33767      0.01518627     5.2888336      725.29783     -20.308178      704.98965    
   3657000   309.82631      0.01518627     4.8117416      768.68761     -22.410757      746.27685    
   3658000   297.09279      0.01518627     11.046741      737.09539     -19.91064       717.18475    
   3659000   299.35113      0.01518627     13.840977      742.6984      -21.207334      721.49106    
   3660000   298.67938      0.01518627     4.1507363      741.03179     -25.33228       715.69951    
   3661000   296.27746      0.01518627     1.0560738      735.07255     -22.644555      712.42799    
   3662000   290.24584      0.01518627     15.009903      720.10792     -23.550811      696.55711    
   3663000   289.53655      0.01518627    -4.8291734      718.34817     -21.498668      696.8495     
   3664000   305.30976      0.01518627     5.6601065      757.48194     -27.371776      730.11017    
   3665000   293.93161      0.01518627     16.223079      729.25242     -23.125447      706.12697    
   3666000   300.13211      0.01518627     6.3148343      744.63605     -23.055847      721.5802     
   3667000   306.86398      0.01518627    -12.284927      761.33799     -21.069716      740.26828    
   3668000   299.78509      0.01518627     3.328859       743.77507     -22.365463      721.40961    
   3669000   307.91863      0.01518627     27.773887      763.95461     -22.45747       741.49714    
   3670000   304.83399      0.01518627     9.6001773      756.30152     -26.094752      730.20677    
   3671000   295.77301      0.01518627     8.0228118      733.82099     -25.040875      708.78012    
   3672000   312.5756       0.01518627     3.273655       775.50868     -26.670801      748.83788    
   3673000   303.11617      0.01518627     18.692559      752.03956     -24.459876      727.57969    
   3674000   289.79446      0.01518627    -3.2749339      718.98803     -23.66424       695.32379    
   3675000   299.49153      0.01518627     11.49633       743.04674     -23.2273        719.81944    
   3676000   293.62082      0.01518627     12.415585      728.48134     -25.034427      703.44692    
   3677000   310.52247      0.01518627    -4.6983198      770.41482     -25.130643      745.28417    
   3678000   300.96245      0.01518627     7.3624589      746.69613     -23.488358      723.20778    
   3679000   300.02593      0.01518627     7.9366366      744.3726      -24.892438      719.48016    
   3680000   304.71991      0.01518627     11.714978      756.01851     -27.324559      728.69395    
   3681000   301.54806      0.01518627     7.548853       748.14904     -25.177834      722.97121    
   3682000   310.346        0.01518627     2.5128718      769.97697     -27.490355      742.48662    
   3683000   295.77542      0.01518627     9.3527685      733.82697     -28.256029      705.57095    
   3684000   303.97272      0.01518627     9.1464031      754.1647      -26.422358      727.74234    
   3685000   293.39375      0.01518627     8.5577407      727.91797     -25.407337      702.51063    
   3686000   296.41809      0.01518627     7.3236124      735.42145     -22.962848      712.45861    
   3687000   299.79651      0.01518627     6.5950613      743.80339     -23.913831      719.88956    
   3688000   311.10933      0.01518627     8.4763635      771.87082     -25.882843      745.98798    
   3689000   294.08552      0.01518627     9.6016436      729.63429     -24.878299      704.75599    
   3690000   305.80544      0.01518627     11.536398      758.71174     -28.125496      730.58624    
   3691000   301.4491       0.01518627     10.248221      747.90354     -26.713961      721.18958    
   3692000   293.47208      0.01518627     16.090654      728.11232     -23.472197      704.64012    
   3693000   307.81577      0.01518627     3.1638197      763.69941     -25.151734      738.54767    
   3694000   319.59984      0.01518627     4.9243102      792.936       -19.460368      773.47563    
   3695000   296.46148      0.01518627     17.037067      735.52911     -19.021237      716.50788    
   3696000   302.39619      0.01518627     7.9342445      750.25327     -26.223853      724.02942    
   3697000   307.77127      0.01518627     0.63845142     763.589       -22.5937        740.9953     
   3698000   311.76887      0.01518627     8.8929803      773.50715     -24.371524      749.13563    
   3699000   290.31832      0.01518627     10.850751      720.28775     -24.643863      695.64388    
   3700000   293.69293      0.01518627     8.6486363      728.66027     -24.298873      704.36139    
   3701000   309.82604      0.01518627     6.854675       768.68695     -29.558659      739.12829    
   3702000   322.3214       0.01518627     12.637512      799.68828     -29.108326      770.57995    
   3703000   300.38972      0.01518627     11.965021      745.27517     -31.630086      713.64508    
   3704000   308.25064      0.01518627     8.7875649      764.77833     -28.677433      736.1009     
   3705000   300.97645      0.01518627     7.5567979      746.73087     -28.010008      718.72086    
   3706000   303.87439      0.01518627     9.1240819      753.92073     -25.340311      728.58042    
   3707000   292.80633      0.01518627     9.2496843      726.46058     -28.28766       698.17292    
   3708000   300.60532      0.01518627     6.7553004      745.81008     -25.446522      720.36355    
   3709000   306.09092      0.01518627     6.518192       759.42002     -22.79465       736.62537    
   3710000   303.101        0.01518627     10.051831      752.00194     -15.743752      736.25819    
   3711000   306.27646      0.01518627     10.217577      759.88033     -16.90651       742.97382    
   3712000   294.18265      0.01518627     5.4677054      729.87526     -18.386459      711.4888     
   3713000   293.64912      0.01518627     7.8351428      728.55156     -16.749108      711.80245    
   3714000   318.88245      0.01518627     9.1902802      791.15615     -21.450924      769.70523    
   3715000   307.20535      0.01518627     8.5507371      762.18495     -23.616526      738.56842    
   3716000   299.38153      0.01518627     7.8831523      742.77383     -24.056247      718.71759    
   3717000   307.7476       0.01518627     8.3419529      763.53029     -25.418815      738.11147    
   3718000   286.34396      0.01518627     7.6943699      710.42725     -24.745193      685.68206    
   3719000   300.05237      0.01518627     9.0541525      744.43821     -24.699482      719.73873    
   3720000   314.63403      0.01518627     8.6833871      780.61571     -26.953466      753.66224    
   3721000   302.56969      0.01518627     6.6455861      750.68374     -28.667088      722.01665    
   3722000   284.09966      0.01518627     9.0160068      704.8591      -27.116452      677.74264    
   3723000   294.39551      0.01518627     11.082559      730.40337     -23.492534      706.91084    
   3724000   305.74077      0.01518627     11.649413      758.55128     -23.400825      735.15046    
   3725000   307.20369      0.01518627     8.2631659      762.18082     -21.969816      740.211      
   3726000   305.5955       0.01518627     6.1833751      758.19086     -25.768447      732.42241    
   3727000   286.24697      0.01518627     9.541477       710.18663     -23.599424      686.5872     
   3728000   288.1018       0.01518627     11.639706      714.7885      -23.424326      691.36418    
   3729000   298.2877       0.01518627     8.5546421      740.06001     -25.571087      714.48893    
   3730000   317.84917      0.01518627     9.7263196      788.59256     -25.054905      763.53766    
   3731000   300.7561       0.01518627     7.4233815      746.18417     -24.854586      721.32959    
   3732000   291.39593      0.01518627     7.7136477      722.96134     -27.093014      695.86833    
   3733000   307.56331      0.01518627     8.7985287      763.07306     -26.550323      736.52274    
   3734000   309.89327      0.01518627     5.200009       768.85374     -25.246278      743.60746    
   3735000   286.45787      0.01518627     7.1334425      710.70988     -26.246025      684.46386    
   3736000   296.15321      0.01518627     9.1426057      734.76427     -26.605386      708.15888    
   3737000   312.08609      0.01518627     8.9323436      774.29419     -30.678178      743.61601    
   3738000   297.15775      0.01518627     7.0899572      737.25656     -29.158192      708.09837    
   3739000   294.97901      0.01518627     8.820778       731.85105     -26.691734      705.15932    
   3740000   313.32786      0.01518627     8.4606104      777.37506     -23.781057      753.59401    
   3741000   307.41499      0.01518627     8.4683908      762.70507     -24.279242      738.42583    
   3742000   291.89794      0.01518627     8.4817518      724.20684     -21.31478       702.89206    
   3743000   282.70846      0.01518627     9.7131218      701.40748     -26.764615      674.64287    
   3744000   309.1566       0.01518627     8.6531748      767.02604     -24.891082      742.13496    
   3745000   292.81118      0.01518627     5.022458       726.4726      -21.08395       705.38865    
   3746000   295.69287      0.01518627     9.3833041      733.62217     -24.450223      709.17195    
   3747000   300.1935       0.01518627     6.3797759      744.78835     -25.839959      718.9484     
   3748000   313.37445      0.01518627     7.4033069      777.49065     -25.70828       751.78237    
   3749000   296.70475      0.01518627     8.2681234      736.13265     -25.681021      710.45163    
   3750000   293.51444      0.01518627     8.1576506      728.2174      -29.728594      698.48881    
   3751000   302.00293      0.01518627     7.4947143      749.2776      -30.625636      718.65196    
   3752000   306.36468      0.01518627     8.829654       760.09922     -32.270943      727.82828    
   3753000   293.43319      0.01518627     8.9705349      728.01582     -29.75042       698.2654     
   3754000   292.90267      0.01518627     7.9348974      726.69961     -29.83664       696.86297    
   3755000   298.5957       0.01518627     4.5853842      740.82416     -31.769787      709.05437    
   3756000   312.19749      0.01518627     11.088395      774.57058     -29.237519      745.33306    
   3757000   286.26786      0.01518627     15.264913      710.23844     -26.709099      683.52934    
   3758000   291.92619      0.01518627     3.100224       724.27693     -26.820055      697.45687    
   3759000   298.44271      0.01518627     6.6189756      740.44459     -22.51341       717.93118    
   3760000   311.64245      0.01518627     7.7459502      773.19351     -24.020445      749.17307    
   3761000   311.0892       0.01518627     14.985946      771.82089     -23.50587       748.31502    
   3762000   288.76918      0.01518627     13.877784      716.44429     -23.570217      692.87408    
   3763000   303.97562      0.01518627     8.0767922      754.17189     -25.129444      729.04245    
   3764000   302.77386      0.01518627     2.9097716      751.1903      -24.603653      726.58664    
   3765000   302.52866      0.01518627     9.8391369      750.58194     -24.321953      726.25999    
   3766000   305.47224      0.01518627     9.1252521      757.88505     -23.177586      734.70746    
   3767000   302.48972      0.01518627     9.8181345      750.48533     -21.650203      728.83513    
   3768000   292.41675      0.01518627     3.768127       725.49402     -20.163997      705.33002    
   3769000   294.31952      0.01518627     7.4535109      730.21484     -22.303378      707.91146    
   3770000   301.20457      0.01518627     13.771992      747.29684     -25.111741      722.1851     
   3771000   295.34137      0.01518627     9.0578677      732.75007     -28.224688      704.52538    
   3772000   296.04809      0.01518627     8.2697251      734.50348     -25.733829      708.76965    
   3773000   301.89611      0.01518627     8.3533557      749.01256     -24.266735      724.74583    
   3774000   306.28947      0.01518627     8.9140934      759.91262     -25.714239      734.19838    
   3775000   297.80287      0.01518627     0.98416655     738.85714     -29.804747      709.05239    
   3776000   282.71924      0.01518627     8.0701435      701.43423     -29.643252      671.79098    
   3777000   302.71381      0.01518627     14.443363      751.0413      -25.810641      725.23066    
   3778000   303.06292      0.01518627     7.0373528      751.90746     -26.602264      725.30519    
   3779000   299.08288      0.01518627     1.3516752      742.03286     -28.137229      713.89563    
   3780000   298.7964       0.01518627     5.49           741.32211     -25.727303      715.59481    
   3781000   288.5228       0.01518627     5.1886746      715.83302     -32.555677      683.27734    
   3782000   297.70382      0.01518627     14.018104      738.61138     -31.283826      707.32756    
   3783000   309.83333      0.01518627     3.1115199      768.70503     -25.96042       742.74461    
   3784000   294.68658      0.01518627     8.3191027      731.12553     -30.089458      701.03607    
   3785000   314.16339      0.01518627     21.571618      779.44803     -27.625935      751.8221     
   3786000   295.05615      0.01518627     6.2602991      732.04245     -23.733772      708.30868    
   3787000   289.4204       0.01518627     4.98009        718.05998     -23.611682      694.4483     
   3788000   301.25248      0.01518627     8.8195805      747.41571     -28.201402      719.21431    
   3789000   296.80552      0.01518627     8.133058       736.38268     -31.41183       704.97085    
   3790000   303.81131      0.01518627     7.1313734      753.76424     -24.0366        729.72764    
   3791000   305.29465      0.01518627     6.9334609      757.44443     -24.080341      733.36409    
   3792000   298.55535      0.01518627     9.3834139      740.72406     -24.597431      716.12663    
   3793000   301.32509      0.01518627     9.403406       747.59585     -26.420032      721.17581    
   3794000   309.88194      0.01518627     4.1725554      768.82564     -26.410576      742.41506    
   3795000   290.96749      0.01518627     10.407888      721.89836     -22.351965      699.54639    
   3796000   291.03616      0.01518627     7.8910713      722.06872     -22.486702      699.58202    
   3797000   302.76069      0.01518627     9.0423474      751.15761     -24.757613      726.4        
   3798000   311.60156      0.01518627     9.0086827      773.09206     -25.422858      747.66921    
   3799000   297.25042      0.01518627     4.1167117      737.48649     -24.539187      712.9473     
   3800000   285.01463      0.01518627     7.8150933      707.12915     -24.460257      682.66889    
   3801000   300.97793      0.01518627     11.751112      746.73454     -25.586057      721.14848    
   3802000   304.5854       0.01518627     9.2317138      755.68477     -25.937491      729.74728    
   3803000   307.43725      0.01518627     7.1111271      762.76028     -23.104391      739.65589    
   3804000   295.59919      0.01518627     7.9526132      733.38974     -21.741037      711.6487     
   3805000   295.87635      0.01518627     9.2601508      734.07737     -24.012526      710.06485    
   3806000   307.60281      0.01518627     8.3211251      763.17105     -24.993221      738.17783    
   3807000   304.20945      0.01518627     6.7652475      754.75203     -24.275252      730.47678    
   3808000   290.5161       0.01518627     6.7393411      720.77845     -25.226637      695.55181    
   3809000   290.01922      0.01518627     12.526174      719.54569     -25.293499      694.25219    
   3810000   312.27412      0.01518627     11.523039      774.7607      -26.123812      748.63689    
   3811000   309.19027      0.01518627     8.0134741      767.10958     -21.89478       745.2148     
   3812000   303.35361      0.01518627     7.8877631      752.62867     -23.144771      729.4839     
   3813000   284.03968      0.01518627     7.8502417      704.71027     -24.379127      680.33115    
   3814000   300.33884      0.01518627     14.065773      745.14894     -21.665341      723.4836     
   3815000   319.92719      0.01518627     9.2369218      793.74817     -23.66917       770.079      
   3816000   295.8182       0.01518627     7.5336631      733.9331      -25.431893      708.50121    
   3817000   302.0815       0.01518627     12.012359      749.47253     -23.335319      726.13721    
   3818000   307.62627      0.01518627     7.2621714      763.22926     -25.018338      738.21093    
   3819000   303.42783      0.01518627     7.0299899      752.81282     -24.295946      728.51687    
   3820000   297.99884      0.01518627     10.581196      739.34333     -24.810289      714.53304    
   3821000   307.52241      0.01518627     18.815264      762.97158     -20.872129      742.09945    
   3822000   303.69279      0.01518627     2.2650673      753.47018     -23.651809      729.81838    
   3823000   294.79919      0.01518627     5.8957127      731.40492     -26.573796      704.83112    
   3824000   307.20892      0.01518627     9.6323628      762.19381     -28.530616      733.66319    
   3825000   301.81693      0.01518627     12.969839      748.81613     -26.079738      722.73639    
   3826000   304.83637      0.01518627    -2.8876033      756.30743     -28.439112      727.86832    
   3827000   300.26155      0.01518627     7.4533108      744.95719     -27.283682      717.67351    
   3828000   303.838        0.01518627     10.587681      753.83045     -30.088093      723.74236    
   3829000   303.49678      0.01518627     9.1071153      752.98388     -26.199388      726.78449    
   3830000   298.93413      0.01518627     6.7465955      741.66382     -27.120094      714.54372    
   3831000   296.72337      0.01518627     3.5852295      736.17885     -23.480921      712.69793    
   3832000   296.81707      0.01518627     8.0390605      736.41134     -24.17331       712.23803    
   3833000   294.60349      0.01518627     8.8957587      730.91939     -23.014315      707.90507    
   3834000   301.10735      0.01518627     8.4535041      747.05564     -22.166784      724.88885    
   3835000   306.32301      0.01518627     8.8225072      759.99584     -24.238188      735.75765    
   3836000   285.66627      0.01518627     8.5969863      708.74589     -23.254175      685.49171    
   3837000   294.30774      0.01518627     8.4863179      730.18562     -25.465589      704.72003    
   3838000   308.84833      0.01518627     8.381264       766.26123     -26.026084      740.23515    
   3839000   301.85768      0.01518627     7.5481864      748.91724     -23.848426      725.06881    
   3840000   286.97717      0.01518627     7.4438332      711.99826     -22.899979      689.09828    
   3841000   300.78435      0.01518627     7.015829       746.25425     -23.281275      722.97298    
   3842000   309.03828      0.01518627     9.1450415      766.73249     -28.561835      738.17066    
   3843000   300.23898      0.01518627     10.604403      744.90119     -25.079893      719.8213     
   3844000   295.48993      0.01518627     8.1615272      733.11865     -25.719228      707.39942    
   3845000   289.1552       0.01518627     7.9870122      717.40201     -21.724253      695.67776    
   3846000   293.28764      0.01518627     9.4340126      727.65473     -20.910759      706.74397    
   3847000   312.52976      0.01518627     8.4173553      775.39494     -22.707907      752.68704    
   3848000   299.61914      0.01518627     8.5459498      743.36334     -19.723409      723.63993    
   3849000   293.97312      0.01518627     7.7930589      729.3554      -22.140538      707.21486    
   3850000   317.46672      0.01518627     4.3322138      787.64369     -20.394846      767.24884    
   3851000   310.4757       0.01518627     8.960874       770.29876     -23.456         746.84276    
   3852000   292.26602      0.01518627     7.4653815      725.12006     -22.079509      703.04055    
   3853000   297.78817      0.01518627     7.9652419      738.82065     -26.417606      712.40305    
   3854000   308.96352      0.01518627     8.8880323      766.547       -23.063616      743.48339    
   3855000   297.39278      0.01518627     5.945252       737.83969     -25.063255      712.77644    
   3856000   291.90133      0.01518627     7.2823367      724.21525     -20.148537      704.06672    
   3857000   294.60786      0.01518627     6.7549961      730.93022     -21.541824      709.38839    
   3858000   326.57345      0.01518627     7.4193194      810.23772     -23.278096      786.95963    
   3859000   314.13871      0.01518627     9.605852       779.3868      -22.754924      756.63187    
   3860000   291.65992      0.01518627     9.3016235      723.61631     -20.96888       702.64742    
   3861000   293.06509      0.01518627     6.5984539      727.10258     -21.450465      705.65211    
   3862000   314.00682      0.01518627     8.2754522      779.05958     -22.703191      756.35639    
   3863000   322.84501      0.01518627     8.6104381      800.98737     -26.556174      774.4312     
   3864000   287.03661      0.01518627     8.6748815      712.14574     -23.04509       689.10065    
   3865000   292.32965      0.01518627     7.3237394      725.27793     -23.556738      701.72119    
   3866000   313.47003      0.01518627     7.4136828      777.72779     -27.120822      750.60697    
   3867000   304.9599       0.01518627     9.0584053      756.61392     -24.215869      732.39805    
   3868000   293.72478      0.01518627     9.5752966      728.73927     -25.373294      703.36598    
   3869000   287.77351      0.01518627     10.528166      713.974       -27.847822      686.12618    
   3870000   285.17992      0.01518627     7.4234307      707.53924     -26.50171       681.03753    
   3871000   304.48827      0.01518627     5.9015554      755.44379     -25.670292      729.7735     
   3872000   319.28227      0.01518627     11.3582        792.14811     -31.000854      761.14726    
   3873000   291.07019      0.01518627     15.20623       722.15317     -26.882629      695.27054    
   3874000   292.16669      0.01518627     2.2433849      724.87362     -29.581801      695.29182    
   3875000   314.96595      0.01518627     0.099666909    781.43919     -24.25962       757.17957    
   3876000   314.23433      0.01518627     6.4401251      779.62402     -24.707776      754.91625    
   3877000   294.62408      0.01518627     11.754767      730.97046     -24.799125      706.17134    
   3878000   296.46101      0.01518627     4.9570547      735.52794     -24.429528      711.09841    
   3879000   309.38516      0.01518627     6.2654623      767.5931      -24.668305      742.92479    
   3880000   311.75048      0.01518627     7.8362024      773.46153     -24.46802       748.99351    
   3881000   311.50591      0.01518627     12.919243      772.85475     -27.960472      744.89428    
   3882000   291.52304      0.01518627     7.7104592      723.2767      -26.778114      696.49859    
   3883000   302.73302      0.01518627     7.0317378      751.08896     -25.0375        726.05146    
   3884000   308.93026      0.01518627     6.0024875      766.46448     -21.547511      744.91697    
   3885000   296.08778      0.01518627     12.662803      734.60193     -26.253055      708.34888    
   3886000   296.21692      0.01518627     2.4011787      734.92233     -24.396029      710.52631    
   3887000   309.06779      0.01518627     7.9662778      766.80572     -24.899391      741.90633    
   3888000   286.53672      0.01518627     10.143031      710.9055      -26.64162       684.26388    
   3889000   308.60721      0.01518627     5.8411437      765.663       -22.1848        743.4782     
   3890000   311.30727      0.01518627     10.635257      772.36192     -17.861674      754.50025    
   3891000   296.97667      0.01518627     10.161116      736.8073      -18.827491      717.97981    
   3892000   297.55948      0.01518627     7.3763978      738.25328     -19.298668      718.95462    
   3893000   300.64729      0.01518627     7.9899035      745.9142      -20.027332      725.88687    
   3894000   307.39786      0.01518627     8.2379393      762.66256     -21.086912      741.57565    
   3895000   292.13007      0.01518627     7.3491964      724.78275     -15.782583      709.00017    
   3896000   298.38383      0.01518627     8.7720301      740.29851     -17.736609      722.5619     
   3897000   306.30525      0.01518627     8.1054675      759.95176     -19.471518      740.48024    
   3898000   310.94385      0.01518627     6.9286515      771.46026     -18.829094      752.63116    
   3899000   297.36045      0.01518627     7.2214086      737.75948     -18.959964      718.79952    
   3900000   297.21413      0.01518627     7.7136831      737.39644     -21.403101      715.99334    
   3901000   299.93229      0.01518627     16.145312      744.14028     -16.792116      727.34816    
   3902000   309.3833       0.01518627     4.8420162      767.58851     -20.798008      746.7905     
   3903000   298.64077      0.01518627     6.3998924      740.93599     -21.682682      719.25331    
   3904000   296.32257      0.01518627     13.91674       735.18446     -26.690792      708.49367    
   3905000   298.71768      0.01518627     5.7617438      741.1268      -22.17296       718.95384    
   3906000   302.16516      0.01518627    -2.1489603      749.68008     -23.773338      725.90674    
   3907000   300.54238      0.01518627     18.321419      745.65394     -25.679197      719.97474    
   3908000   296.87233      0.01518627     12.09          736.54844     -28.651001      707.89744    
   3909000   293.93076      0.01518627    -1.2131071      729.25031     -24.743345      704.50697    
   3910000   296.24015      0.01518627     10.137954      734.97998     -22.35366       712.62632    
   3911000   323.98239      0.01518627     10.964595      803.80925     -24.933444      778.8758     
   3912000   303.34061      0.01518627     6.6066591      752.59642     -24.645283      727.95114    
   3913000   289.54291      0.01518627     5.4165053      718.36394     -24.258265      694.10568    
   3914000   307.14688      0.01518627     8.5590674      762.03987     -26.473264      735.56661    
   3915000   322.85553      0.01518627     10.12142       801.01346     -26.845633      774.16783    
   3916000   293.35047      0.01518627     6.9834322      727.81059     -23.933782      703.87681    
   3917000   277.97446      0.01518627     8.4285441      689.6623      -24.963686      664.69861    
   3918000   308.43518      0.01518627     8.7120674      765.23618     -27.398014      737.83817    
   3919000   307.63748      0.01518627     4.569892       763.25707     -26.35757       736.8995     
   3920000   286.01197      0.01518627     7.1712919      709.60359     -24.590766      685.01282    
   3921000   302.78325      0.01518627     10.5037        751.21359     -25.791954      725.42163    
   3922000   311.20814      0.01518627     6.7561904      772.11597     -26.476348      745.63962    
   3923000   281.49363      0.01518627     7.6341813      698.39345     -25.967635      672.42581    
   3924000   296.26082      0.01518627     7.9476629      735.03126     -26.759035      708.27223    
   3925000   323.07567      0.01518627     8.4353996      801.55963     -23.484554      778.07508    
   3926000   300.64559      0.01518627     7.3177721      745.90998     -22.825742      723.08424    
   3927000   296.07374      0.01518627     8.8788149      734.56712     -22.020379      712.54674    
   3928000   305.38157      0.01518627     10.010895      757.66009     -27.229566      730.43052    
   3929000   301.49849      0.01518627     7.2906438      748.02607     -24.690015      723.33605    
   3930000   305.77885      0.01518627     5.3524436      758.64576     -26.616229      732.02953    
   3931000   296.95177      0.01518627     8.8544834      736.74551     -25.807486      710.93803    
   3932000   293.61292      0.01518627     12.737397      728.46174     -26.555902      701.90584    
   3933000   307.23952      0.01518627     7.748922       762.26971     -26.157857      736.11185    
   3934000   298.07326      0.01518627     7.1169517      739.52796     -31.506282      708.02168    
   3935000   292.91978      0.01518627     8.2515162      726.74204     -28.431851      698.31019    
   3936000   296.93304      0.01518627     8.2068369      736.69907     -30.33171       706.36736    
   3937000   301.42961      0.01518627     8.3786014      747.85517     -33.231248      714.62393    
   3938000   304.19238      0.01518627     8.7148279      754.70968     -34.294552      720.41513    
   3939000   301.70471      0.01518627     7.6533136      748.53769     -31.325776      717.21192    
   3940000   294.55049      0.01518627     6.7668558      730.78788     -29.407511      701.38037    
   3941000   280.4043       0.01518627     7.2231467      695.69079     -27.013692      668.6771     
   3942000   304.82099      0.01518627     11.0002        756.26929     -27.706708      728.56258    
   3943000   303.35035      0.01518627     7.9789604      752.62058     -26.631042      725.98954    
   3944000   298.78597      0.01518627     0.44775511     741.29623     -26.771124      714.5251     
   3945000   283.59882      0.01518627     9.5651826      703.61648     -30.584703      673.03178    
   3946000   313.35113      0.01518627     8.8992959      777.43279     -30.245612      747.18718    
   3947000   305.96423      0.01518627     7.9619614      759.10568     -31.668182      727.4375     
   3948000   296.30818      0.01518627     3.8227656      735.14877     -26.488861      708.65991    
   3949000   301.7124       0.01518627     6.1210368      748.55679     -33.770739      714.78605    
   3950000   301.61355      0.01518627     8.472597       748.31154     -28.286998      720.02454    
   3951000   306.50165      0.01518627     8.4597613      760.43903     -29.086891      731.35214    
   3952000   304.26051      0.01518627     8.9436987      754.8787      -25.735448      729.14326    
   3953000   298.72133      0.01518627     5.0360877      741.13585     -21.976599      719.15925    
   3954000   297.08265      0.01518627     8.8698976      737.07024     -25.213778      711.85646    
   3955000   296.24973      0.01518627     12.040216      735.00374     -21.899993      713.10375    
   3956000   309.11458      0.01518627     10.82816       766.9218      -23.542511      743.37929    
   3957000   301.77602      0.01518627     7.0436766      748.71462     -27.200736      721.51388    
   3958000   297.83533      0.01518627     5.8222572      738.93767     -22.916075      716.02159    
   3959000   296.61126      0.01518627     8.5907324      735.90071     -22.678031      713.22267    
   3960000   301.23314      0.01518627     8.2310015      747.36773     -21.69783       725.6699     
   3961000   322.90242      0.01518627     8.5710901      801.12981     -26.785185      774.34463    
   3962000   292.10735      0.01518627     7.8412884      724.72638     -26.51525       698.21113    
   3963000   287.4556       0.01518627     7.8768448      713.18526     -24.739196      688.44606    
   3964000   309.0417       0.01518627     8.7479312      766.74097     -25.07745       741.66351    
   3965000   307.67558      0.01518627     8.3052399      763.35159     -27.714641      735.63695    
   3966000   301.11353      0.01518627     7.5085689      747.07096     -26.149052      720.92191    
   3967000   282.48463      0.01518627     8.7539498      700.85216     -25.500525      675.35163    
   3968000   305.60811      0.01518627     10.077728      758.22216     -23.603728      734.61843    
   3969000   298.10278      0.01518627     7.5780605      739.60123     -21.00289       718.59834    
   3970000   306.39759      0.01518627     7.3176568      760.18086     -23.458036      736.72282    
   3971000   290.65141      0.01518627     7.869545       721.11416     -27.17948       693.93468    
   3972000   303.86283      0.01518627     8.2667114      753.89207     -27.025694      726.86637    
   3973000   299.52087      0.01518627     9.8530789      743.11954     -20.397824      722.72171    
   3974000   308.95872      0.01518627     7.9745396      766.53511     -25.148494      741.38662    
   3975000   303.15403      0.01518627     7.2343581      752.1335      -26.026311      726.10719    
   3976000   286.83207      0.01518627     9.5901819      711.63826     -25.897197      685.74107    
   3977000   301.98159      0.01518627     8.3560598      749.22464     -27.746356      721.47829    
   3978000   302.09131      0.01518627     6.1234981      749.49686     -22.792092      726.70477    
   3979000   302.53686      0.01518627     7.8692559      750.60229     -26.740864      723.86142    
   3980000   291.54005      0.01518627     8.5476539      723.31891     -24.331712      698.98719    
   3981000   304.66938      0.01518627     8.7143515      755.89314     -25.760026      730.13312    
   3982000   293.1757       0.01518627     8.2703424      727.37698     -23.098425      704.27856    
   3983000   296.66341      0.01518627     8.0088156      736.03009     -22.963766      713.06633    
   3984000   300.69471      0.01518627     8.3505253      746.03187     -20.983998      725.04787    
   3985000   307.42661      0.01518627     9.1007632      762.73389     -28.262191      734.4717     
   3986000   300.7484       0.01518627     7.4392899      746.16506     -29.409379      716.75568    
   3987000   293.79787      0.01518627     8.3169074      728.92061     -24.525059      704.39555    
   3988000   305.4041       0.01518627     8.3090489      757.71598     -24.814075      732.90191    
   3989000   304.22711      0.01518627     8.8155323      754.79583     -23.174824      731.62101    
   3990000   312.57173      0.01518627     8.3627785      775.49907     -25.157956      750.34111    
   3991000   285.71662      0.01518627     7.4749091      708.87082     -22.044128      686.82669    
   3992000   293.99476      0.01518627     8.0440535      729.40911     -20.968194      708.44092    
   3993000   314.45901      0.01518627     9.4911701      780.18147     -24.568853      755.61262    
   3994000   299.39545      0.01518627     7.3418907      742.80835     -21.145819      721.66254    
   3995000   302.88707      0.01518627     9.9798613      751.47118     -23.395507      728.07567    
   3996000   303.50665      0.01518627     7.5931706      753.00836     -21.636574      731.37179    
   3997000   288.37336      0.01518627     5.8856665      715.46226     -21.669165      693.7931     
   3998000   288.08545      0.01518627     8.5608049      714.74795     -17.192541      697.55541    
   3999000   296.6969       0.01518627     10.97955       736.11319     -17.544667      718.56852    
   4000000   317.32016      0.01518627     14.117423      787.28007     -20.94765       766.33242    
Loop time of 7118.64 on 1 procs for 4000000 steps with 1500 atoms

Performance: 12.137 ns/day, 1.977 hours/ns, 561.905 timesteps/s, 842.858 katom-step/s
100.0% CPU use with 1 MPI tasks x 1 OpenMP threads

MPI task timing breakdown:
Section |  min time  |  avg time  |  max time  |%varavg| %total
---------------------------------------------------------------
Pair    | 698.86     | 698.86     | 698.86     |   0.0 |  9.82
Bond    | 94.127     | 94.127     | 94.127     |   0.0 |  1.32
Kspace  | 5782.8     | 5782.8     | 5782.8     |   0.0 | 81.23
Neigh   | 0.030542   | 0.030542   | 0.030542   |   0.0 |  0.00
Comm    | 21.189     | 21.189     | 21.189     |   0.0 |  0.30
Output  | 0.096889   | 0.096889   | 0.096889   |   0.0 |  0.00
Modify  | 507.85     | 507.85     | 507.85     |   0.0 |  7.13
Other   |            | 13.71      |            |       |  0.19

Nlocal:           1500 ave        1500 max        1500 min
Histogram: 1 0 0 0 0 0 0 0 0 0
Nghost:           1157 ave        1157 max        1157 min
Histogram: 1 0 0 0 0 0 0 0 0 0
Neighs:              0 ave           0 max           0 min
Histogram: 1 0 0 0 0 0 0 0 0 0

Total # of neighbors = 0
Ave neighs/atom = 0
Ave special neighs/atom = 2
Neighbor list builds = 16856
Dangerous builds = 0
write_data	last_conf.data pair ij
System init for write_data ...
PPPM initialization ...
  using 12-bit tables for long-range coulomb (src/kspace.cpp:342)
  G vector (1/distance) = 0.16152872
  grid = 27 27 27
  stencil order = 5
  estimated absolute RMS force accuracy = 0.038726468
  estimated relative force accuracy = 0.00011662361
  using double precision FFTW3
  3d grid and FFT values/proc = 32768 19683
Generated 1 of 1 mixed pair_coeff terms from arithmetic mixing rule
Total wall time: 1:58:38
