LAMMPS (29 Aug 2024 - Update 1)
  using 1 OpenMP thread(s) per MPI task
package gpu 1 gpuID 0
# GCMC for CO2 molecular fluid, rigid/small/nvt dynamics
# Rigid CO2 TraPPE model
# [Potoff and J.I. Siepmann, Vapor-liquid equilibria of
# mixtures containing alkanes, carbon dioxide and
# nitrogen AIChE J., 47,1676-1682 (2001)].

# global model settings

units           real
atom_style      full
boundary        p p p
pair_style      lj/cut/coul/long  12
pair_modify     mix arithmetic shift yes
kspace_style    pppm 1.0e-4
bond_style      harmonic
angle_style     harmonic
neigh_modify    one 4000

# box, start molecules on simple cubic lattice
region          mbox block 0 ${lbox} 0 ${lbox} 0 ${lbox} units box
region          mbox block 0 271 0 ${lbox} 0 ${lbox} units box
region          mbox block 0 271 0 271 0 ${lbox} units box
region          mbox block 0 271 0 271 0 271 units box
create_box      2 mbox                                       bond/types 1                                angle/types 1                               extra/bond/per/atom 2                       extra/angle/per/atom 1                      extra/special/per/atom 2
Created orthogonal box = (0 0 0) to (271 271 271)
  1 by 1 by 1 MPI processor grid
molecule        co2mol ../CO2.txt
Read molecule template co2mol:
# CO2 molecule file. TraPPE model.
  1 molecules
  0 fragments
  3 atoms with max type 2
  2 bonds with max type 1
  1 angles with max type 1
  0 dihedrals with max type 0
  0 impropers with max type 0
create_atoms   	0 random ${nmols} 34578 mbox mol co2mol 464563 overlap 1.2
create_atoms   	0 random 500 34578 mbox mol co2mol 464563 overlap 1.2
Created 1500 atoms
  using lattice units in orthogonal box = (0 0 0) to (271 271 271)
  create_atoms CPU = 0.007 seconds

# rigid CO2 TraPPE model

pair_coeff      1   1  0.053649   2.800
pair_coeff      2   2  0.156973   3.050
bond_coeff      1       0       1.16
angle_coeff     1       0       180

# masses

mass 1 12.0107
mass 2 15.9994

write_data init_conf.data  pair ij
System init for write_data ...
PPPM initialization ...
  using 12-bit tables for long-range coulomb (src/kspace.cpp:342)
  G vector (1/distance) = 0.13650934
  grid = 40 40 40
  stencil order = 5
  estimated absolute RMS force accuracy = 0.039405205
  estimated relative force accuracy = 0.0001186676
  using double precision FFTW3
  3d grid and FFT values/proc = 91125 64000
Generated 1 of 1 mixed pair_coeff terms from arithmetic mixing rule

# MD settings

group           co2 type 1 2
1500 atoms in group co2
velocity       	all create 300 54654
timestep        0.25

# rigid constraints with thermostat
fix             myrigidnvt co2 rigid/nvt molecule temp 300 300 $(100*dt)
fix             myrigidnvt co2 rigid/nvt molecule temp 300 300 25
  500 rigid bodies with 1500 atoms

thermo 1000
thermo_style custom step temp density press ke pe etotal


variable    mvol equal vol
variable    mden equal density
variable	mtmp equal temp
variable    mpre equal press

fix mydat all ave/time 1 4000 4000 v_mtmp v_mden v_mpre file statistics.dat ## every 1ps

run 4000000 ## 1ns

CITE-CITE-CITE-CITE-CITE-CITE-CITE-CITE-CITE-CITE-CITE-CITE-CITE

Your simulation uses code contributions which should be cited:

- GPU package (short-range, long-range and three-body potentials): doi:10.1016/j.cpc.2010.12.021, doi:10.1016/j.cpc.2011.10.012, doi:10.1016/j.cpc.2013.08.002, doi:10.1016/j.commatsci.2014.10.068, doi:10.1016/j.cpc.2016.10.020, doi:10.3233/APC200086

@Article{Brown11,
 author = {W. M. Brown and P. Wang and S. J. Plimpton and A. N. Tharrington},
 title = {Implementing Molecular Dynamics on Hybrid High Performance Computers---Short Range Forces},
 journal = {Comput.\ Phys.\ Commun.},
 year =    2011,
 volume =  182,
 pages =   {898--911},
 doi =     {10.1016/j.cpc.2010.12.021}
}

@Article{Brown12,
 author = {W. M. Brown and A. Kohlmeyer and S. J. Plimpton and A. N. Tharrington},
 title = {Implementing Molecular Dynamics on Hybrid High Performance Computers - Particle-Particle Particle-Mesh},
 journal = {Comput.\ Phys.\ Commun.},
 year =    2012,
 volume =  183,
 doi =     {10.1016/j.cpc.2011.10.012},
 pages =   {449--459}
}

@Article{Brown13,
 author = {W. M. Brown and Y. Masako},
 title = {Implementing Molecular Dynamics on Hybrid High Performance Computers---Three-Body Potentials},
 journal = {Comput.\ Phys.\ Commun.},
 year =    2013,
 volume =  184,
 pages =   {2785--2793},
 doi =     {10.1016/j.cpc.2013.08.002},
}

@Article{Trung15,
 author = {T. D. Nguyen and S. J. Plimpton},
 title = {Accelerating Dissipative Particle Dynamics Simulations for Soft Matter Systems},
 journal = {Comput.\ Mater.\ Sci.},
 year =    2015,
 doi =     {10.1016/j.commatsci.2014.10.068},
 volume =  100,
 pages =   {173--180}
}

@Article{Trung17,
 author = {T. D. Nguyen},
 title = {{GPU}-Accelerated {T}ersoff Potentials for Massively Parallel
    Molecular Dynamics Simulations},
 journal = {Comput.\ Phys.\ Commun.},
 year =    2017,
 doi =     {10.1016/j.cpc.2016.10.020},
 volume =  212,
 pages =   {113--122}
}

@inproceedings{Nikolskiy19,
 author = {V. Nikolskiy and V. Stegailov},
 title = {{GPU} Acceleration of Four-Site Water Models in {LAMMPS}},
 booktitle = {Proceedings of the International Conference on Parallel
    Computing (ParCo 2019), Prague, Czech Republic},
 doi =     {10.3233/APC200086},
 year =    2019
}

CITE-CITE-CITE-CITE-CITE-CITE-CITE-CITE-CITE-CITE-CITE-CITE-CITE

PPPM initialization ...
  using 12-bit tables for long-range coulomb (src/kspace.cpp:342)
  G vector (1/distance) = 0.13650934
  grid = 40 40 40
  stencil order = 5
  estimated absolute RMS force accuracy = 0.039405205
  estimated relative force accuracy = 0.0001186676
  using double precision FFTW3
  3d grid and FFT values/proc = 91125 64000
Generated 1 of 1 mixed pair_coeff terms from arithmetic mixing rule
Per MPI rank memory allocation (min/avg/max) = 16.3 | 16.3 | 16.3 Mbytes
   Step          Temp         Density         Press          KinEng         PotEng         TotEng    
         0   306.91746      0.0018359364   11.326984      761.47069      7.6784199      769.14911    
      1000   303.46486      0.0018359364  -1.1349081      752.90469     -1.4182594      751.48643    
      2000   294.73861      0.0018359364   0.80818194     731.25461     -0.68173703     730.57287    
      3000   298.51579      0.0018359364   1.6598081      740.62591     -1.1244929      739.50142    
      4000   296.50155      0.0018359364   1.7812073      735.62853     -1.0887978      734.53973    
      5000   303.72434      0.0018359364  -0.36735961     753.54846     -0.87539266     752.67307    
      6000   304.61445      0.0018359364   0.26198559     755.75685     -1.8927145      753.86414    
      7000   294.40738      0.0018359364   0.45475823     730.43282     -3.3132365      727.11958    
      8000   273.71441      0.0018359364   2.5269395      679.09299     -3.6345319      675.45846    
      9000   325.72869      0.0018359364   3.0414986      808.14187     -2.5789828      805.56288    
     10000   302.30113      0.0018359364   0.53382384     750.01743     -3.2810022      746.73643    
     11000   287.5142       0.0018359364   1.5875076      713.33065     -2.2295452      711.10111    
     12000   300.9853       0.0018359364   1.389748       746.75284     -3.0814295      743.67141    
     13000   303.3615       0.0018359364   0.52521461     752.64825     -2.3372476      750.311      
     14000   300.98355      0.0018359364   1.9472059      746.74848     -1.3463945      745.40208    
     15000   296.16399      0.0018359364   1.2390574      734.79103     -1.4018737      733.38915    
     16000   297.10066      0.0018359364   1.1026699      737.11493     -2.8854852      734.22945    
     17000   297.79984      0.0018359364  -0.26137617     738.84962     -3.305712       735.54391    
     18000   302.28814      0.0018359364   0.98503059     749.9852      -3.0845976      746.9006     
     19000   297.04134      0.0018359364   1.2888322      736.96776     -3.9309574      733.0368     
     20000   301.76488      0.0018359364   1.2449304      748.68699     -3.9101418      744.77685    
     21000   296.77718      0.0018359364   0.91315824     736.31237     -3.7288834      732.58349    
     22000   303.48795      0.0018359364   1.0119551      752.96198     -3.6410321      749.32095    
     23000   303.66823      0.0018359364   0.99245812     753.40924     -5.0216271      748.38761    
     24000   295.18065      0.0018359364   1.180436       732.35134     -3.7426563      728.60868    
     25000   307.53365      0.0018359364   0.55765486     762.99947     -1.2410267      761.75845    
     26000   301.26656      0.0018359364   0.97729648     747.45065     -0.17499276     747.27566    
     27000   297.17558      0.0018359364   1.1207987      737.30081     -1.6097794      735.69103    
     28000   305.82554      0.0018359364   1.6361898      758.76159     -3.6375615      755.12403    
     29000   306.63772      0.0018359364  -0.091217895    760.77663     -2.7081459      758.06848    
     30000   301.4843       0.0018359364   1.1673858      747.99087     -2.2617455      745.72912    
     31000   294.1133       0.0018359364   1.4216573      729.70321     -2.981172       726.72204    
     32000   301.11387      0.0018359364   0.81387892     747.07182     -2.7876416      744.28418    
     33000   295.82764      0.0018359364   0.98397507     733.95653     -3.918521       730.038      
     34000   299.28444      0.0018359364   0.92088244     742.53294     -4.7615524      737.77138    
     35000   308.30171      0.0018359364   1.1158555      764.90505     -4.210335       760.69471    
     36000   293.13729      0.0018359364   1.0738186      727.28169     -4.5038899      722.7778     
     37000   296.13874      0.0018359364   0.98354249     734.72838     -4.4245325      730.30384    
     38000   296.52827      0.0018359364   0.96072816     735.69482     -4.1237372      731.57108    
     39000   296.87773      0.0018359364   0.93331437     736.56184     -3.8209294      732.74091    
     40000   303.97446      0.0018359364   1.362017       754.16902     -2.8811622      751.28786    
     41000   304.54198      0.0018359364   1.2468939      755.57705     -4.5316772      751.04537    
     42000   293.81809      0.0018359364   0.60604368     728.97078     -3.5262929      725.44448    
     43000   297.64782      0.0018359364   0.6686632      738.47245     -2.2830582      736.18939    
     44000   306.67782      0.0018359364   1.1479206      760.87613     -1.9430265      758.9331     
     45000   303.70434      0.0018359364   1.6475399      753.49883     -2.0269228      751.47191    
     46000   297.56046      0.0018359364   0.76643665     738.25571     -2.5883314      735.66738    
     47000   308.64349      0.0018359364   1.3914434      765.753       -1.7277877      764.02522    
     48000   298.81293      0.0018359364   1.2048095      741.36311     -1.8850465      739.47806    
     49000   287.82712      0.0018359364   0.74976183     714.10703     -1.7116265      712.3954     
     50000   297.21731      0.0018359364   1.0204177      737.40434     -2.3869119      735.01743    
     51000   311.38372      0.0018359364   1.2455227      772.55159     -1.5704861      770.9811     
     52000   291.13031      0.0018359364   1.167653       722.30233     -2.6052031      719.69712    
     53000   296.95975      0.0018359364   0.44895121     736.76533     -2.2498529      734.51548    
     54000   305.6833       0.0018359364   0.58879102     758.4087      -1.7446925      756.66401    
     55000   296.09143      0.0018359364   1.6120465      734.611       -1.7225277      732.88847    
     56000   295.92148      0.0018359364   1.3329578      734.18934     -1.1298647      733.05947    
     57000   300.9324       0.0018359364   0.55862621     746.62158     -2.9400911      743.68149    
     58000   306.15451      0.0018359364   0.87382995     759.57777     -3.7819502      755.79582    
     59000   304.8993       0.0018359364   1.760307       756.46356     -2.124566       754.33899    
     60000   300.19013      0.0018359364   1.3683569      744.78        -3.4453538      741.33464    
     61000   297.48547      0.0018359364  -0.1202516      738.06965     -1.9994726      736.07018    
     62000   304.01053      0.0018359364   1.2025117      754.2585      -1.6942977      752.5642     
     63000   298.07222      0.0018359364   1.6276423      739.5254      -5.1894698      734.33593    
     64000   295.80516      0.0018359364   0.28208509     733.90076     -3.9935152      729.90724    
     65000   306.33399      0.0018359364   0.91814126     760.02309     -3.599835       756.42325    
     66000   299.20683      0.0018359364   1.6258302      742.34038     -3.4384116      738.90197    
     67000   292.07497      0.0018359364   1.6473682      724.64604     -2.409097       722.23695    
     68000   299.14954      0.0018359364   1.0082992      742.19826     -2.4634127      739.73485    
     69000   312.41025      0.0018359364   0.60536904     775.09844     -2.4636353      772.63481    
     70000   308.97134      0.0018359364   1.1665349      766.56642     -2.5269768      764.03945    
     71000   291.52441      0.0018359364   0.9627291      723.2801      -2.0425101      721.23759    
     72000   310.69604      0.0018359364   0.93542732     770.84544     -0.76345312     770.08199    
     73000   299.88903      0.0018359364   1.1085901      744.03295     -3.2083842      740.82456    
     74000   297.23314      0.0018359364   1.0324974      737.44362     -1.8221267      735.62149    
     75000   312.08934      0.0018359364   1.1631532      774.30225     -2.5581133      771.74414    
     76000   307.23159      0.0018359364   0.77095434     762.25005     -1.0896822      761.16037    
     77000   292.28631      0.0018359364   0.77397469     725.1704      -2.3634627      722.80694    
     78000   298.3848       0.0018359364   0.95933174     740.30093     -1.6684257      738.6325     
     79000   312.59843      0.0018359364   1.1937756      775.56531     -1.4995739      774.06574    
     80000   307.09753      0.0018359364   1.3952412      761.91744     -2.1211945      759.79625    
     81000   292.92682      0.0018359364   0.92343543     726.75951     -3.0885835      723.67093    
     82000   314.81312      0.0018359364   0.81819789     781.06003     -2.8094617      778.25057    
     83000   304.52646      0.0018359364   2.0641023      755.53855     -0.81990786     754.71864    
     84000   286.54113      0.0018359364   0.58212132     710.91643     -1.4997912      709.41664    
     85000   299.83551      0.0018359364   0.4542847      743.90016     -0.73512819     743.16503    
     86000   311.35277      0.0018359364   1.2558171      772.4748      -1.8069936      770.66781    
     87000   288.99895      0.0018359364   1.1320756      717.01436     -4.0924278      712.92194    
     88000   284.20562      0.0018359364   1.1091003      705.12197     -2.7289837      702.39299    
     89000   299.07718      0.0018359364   0.88347934     742.01873     -3.7736602      738.24507    
     90000   316.88527      0.0018359364   1.154253       786.20109     -2.1369129      784.06418    
     91000   304.35526      0.0018359364   1.1680772      755.1138      -2.19662        752.91718    
     92000   295.52238      0.0018359364   0.80503491     733.19918     -1.0354135      732.16376    
     93000   295.00315      0.0018359364   0.88802278     731.91095     -2.1914563      729.71949    
     94000   289.20169      0.0018359364   1.0043291      717.51737     -1.2373273      716.28004    
     95000   303.33953      0.0018359364   1.033336       752.59373     -1.2405913      751.35313    
     96000   293.44695      0.0018359364   0.97581229     728.04998     -0.55388708     727.49609    
     97000   299.98358      0.0018359364   1.0709857      744.26754     -0.74786587     743.51968    
     98000   308.95383      0.0018359364   1.1323711      766.52296     -1.8747002      764.64826    
     99000   301.55723      0.0018359364   0.93310114     748.1718      -3.5630072      744.6088     
    100000   285.72537      0.0018359364   0.87058553     708.89252     -5.9893575      702.90317    
    101000   298.36547      0.0018359364   0.97543153     740.25295     -5.4956693      734.75728    
    102000   313.74772      0.0018359364   1.0873673      778.41673     -5.626824       772.78991    
    103000   305.13002      0.0018359364   0.93780083     757.03599     -2.6455266      754.39046    
    104000   297.77141      0.0018359364   1.0041897      738.77908     -3.3629027      735.41617    
    105000   305.97026      0.0018359364   1.2896932      759.12065     -4.0434983      755.07715    
    106000   304.18118      0.0018359364   0.90258358     754.6819      -3.2096777      751.47222    
    107000   295.79666      0.0018359364   1.2675808      733.87966     -3.070546       730.80911    
    108000   287.50291      0.0018359364   0.99585363     713.30265     -3.444813       709.85784    
    109000   301.86595      0.0018359364   0.69549732     748.93774     -2.2389565      746.69879    
    110000   312.13511      0.0018359364   1.0555214      774.41581     -3.2704807      771.14533    
    111000   303.42233      0.0018359364   1.1247377      752.79916     -1.9905891      750.80857    
    112000   292.96123      0.0018359364   1.1854506      726.84489     -4.0163319      722.82856    
    113000   295.49495      0.0018359364   0.96145907     733.13111     -3.0235917      730.10752    
    114000   286.69268      0.0018359364   0.78771732     711.29243     -1.1857766      710.10666    
    115000   307.04366      0.0018359364   0.67637875     761.78379     -1.128341       760.65544    
    116000   303.89491      0.0018359364   1.027747       753.97164     -1.578734       752.39291    
    117000   299.47306      0.0018359364   1.265958       743.00092     -2.3978666      740.60305    
    118000   287.62033      0.0018359364   0.95781919     713.59396     -1.5926831      712.00128    
    119000   306.52338      0.0018359364  -0.010039022    760.49296     -3.7492729      756.74369    
    120000   294.6307       0.0018359364   0.88910299     730.98689     -2.8949284      728.09196    
    121000   290.83992      0.0018359364   1.3495054      721.58186     -2.1035253      719.47834    
    122000   300.21699      0.0018359364   1.3482749      744.84662     -1.6207656      743.22585    
    123000   300.17441      0.0018359364  -0.18946291     744.74098     -1.634658       743.10632    
    124000   299.73047      0.0018359364  -0.70545451     743.63955     -3.4842893      740.15526    
    125000   308.44834      0.0018359364   1.0741956      765.26885     -1.6983198      763.57053    
    126000   294.75464      0.0018359364   1.8398099      731.29438     -1.4445159      729.84986    
    127000   287.94868      0.0018359364   0.67428071     714.40861     -2.3416519      712.06696    
    128000   294.26819      0.0018359364  -0.36393886     730.08748     -1.9185595      728.16892    
    129000   298.76884      0.0018359364  -0.13943371     741.25373     -1.9694244      739.28431    
    130000   316.61792      0.0018359364   0.48545284     785.53778     -2.0160274      783.52175    
    131000   301.66835      0.0018359364   1.2192376      748.44749     -1.1416751      747.30581    
    132000   290.42672      0.0018359364   1.8215981      720.5567      -1.5892248      718.96747    
    133000   294.02096      0.0018359364   1.4122719      729.47411     -2.4101217      727.06399    
    134000   300.58942      0.0018359364   0.27218182     745.77064     -2.8900943      742.88055    
    135000   303.71809      0.0018359364   0.20104866     753.53296     -1.6355196      751.89744    
    136000   296.29145      0.0018359364   4.22675        735.10726     -3.3204405      731.78682    
    137000   303.76597      0.0018359364   0.9921162      753.65175     -2.1605226      751.49123    
    138000   307.81113      0.0018359364   0.99542797     763.68789     -3.2949833      760.39291    
    139000   301.1625       0.0018359364  -1.7069489      747.19246     -1.766167       745.42629    
    140000   297.77636      0.0018359364   2.0540155      738.79135     -2.1155458      736.6758     
    141000   289.85494      0.0018359364   1.2170756      719.1381      -3.6898034      715.4483     
    142000   296.72282      0.0018359364  -0.1363106      736.17749     -5.3693608      730.80813    
    143000   300.71941      0.0018359364   0.44595223     746.09314     -2.7126628      743.38048    
    144000   307.5006       0.0018359364   1.4752283      762.91747     -2.4510748      760.46639    
    145000   303.39641      0.0018359364   2.3802856      752.73486     -2.2227297      750.51213    
    146000   279.09192      0.0018359364   0.62377818     692.43475     -2.5237046      689.91104    
    147000   301.29876      0.0018359364   0.11950628     747.53053     -1.0496425      746.48089    
    148000   312.44215      0.0018359364   2.6690089      775.17758     -1.6689799      773.5086     
    149000   295.06976      0.0018359364   2.5708066      732.0762      -2.0788114      729.99739    
    150000   294.05886      0.0018359364   1.2431526      729.56815     -1.5884827      727.97966    
    151000   292.69988      0.0018359364  -0.11615768     726.19647     -1.700685       724.49579    
    152000   311.33742      0.0018359364   1.540706       772.43673     -3.1287609      769.30797    
    153000   305.67354      0.0018359364   1.795019       758.38447     -2.0945702      756.2899     
    154000   300.16165      0.0018359364   1.1034435      744.70934     -1.6919312      743.01741    
    155000   297.50466      0.0018359364  -0.061030788    738.11725     -4.0110914      734.10616    
    156000   298.82055      0.0018359364   0.35810217     741.38201     -6.3196399      735.06237    
    157000   292.35335      0.0018359364   3.3439022      725.33671     -3.7181106      721.6186     
    158000   297.19798      0.0018359364   0.232242       737.35639     -4.989077       732.36731    
    159000   307.72607      0.0018359364   0.47700458     763.47686     -2.4444558      761.03241    
    160000   303.19154      0.0018359364   1.0749092      752.22657     -2.7965956      749.42998    
    161000   289.55219      0.0018359364   2.4133027      718.38696     -2.22383        716.16313    
    162000   300.47165      0.0018359364  -0.33600971     745.47845     -2.0927416      743.38571    
    163000   312.476        0.0018359364   1.1128859      775.26157     -3.1096311      772.15194    
    164000   298.69818      0.0018359364   1.2209016      741.07841     -3.0280012      738.05041    
    165000   294.86547      0.0018359364   1.2961646      731.56936     -2.3370944      729.23226    
    166000   303.5498       0.0018359364   0.1019818      753.11542     -3.2644219      749.851      
    167000   318.13189      0.0018359364   0.85919316     789.29399     -5.161915       784.13208    
    168000   291.05232      0.0018359364   1.5157196      722.10884     -4.3407486      717.76809    
    169000   300.75315      0.0018359364   0.11427227     746.17686     -6.3055274      739.87133    
    170000   322.35941      0.0018359364   1.9352744      799.78257     -4.4994407      795.28313    
    171000   294.97966      0.0018359364   2.1773845      731.85268     -4.9210482      726.93163    
    172000   291.31085      0.0018359364   1.0312818      722.75025     -2.6331668      720.11709    
    173000   295.99987      0.0018359364   1.0085656      734.38383     -4.4763274      729.9075     
    174000   303.62354      0.0018359364   0.90855944     753.29836     -4.7416931      748.55667    
    175000   292.44837      0.0018359364   1.0504483      725.57246     -2.8521313      722.72033    
    176000   306.84126      0.0018359364   1.1628334      761.28163     -1.547763       759.73387    
    177000   285.49192      0.0018359364   0.87938907     708.31331     -3.1885464      705.12477    
    178000   305.91494      0.0018359364   0.95192931     758.9834      -2.1785727      756.80483    
    179000   299.8898       0.0018359364   2.5934042      744.03485     -2.9567053      741.07815    
    180000   290.71003      0.0018359364  -0.82449052     721.25961     -1.7640624      719.49554    
    181000   321.82909      0.0018359364  -1.3137972      798.46684     -2.4920668      795.97477    
    182000   312.27176      0.0018359364   1.02268        774.75484     -1.6979168      773.05693    
    183000   299.46455      0.0018359364   1.6824231      742.97981     -1.4909967      741.48881    
    184000   291.65948      0.0018359364   1.634505       723.61521     -2.057048       721.55817    
    185000   292.30875      0.0018359364   0.12812773     725.22607     -3.4523776      721.77369    
    186000   308.84299      0.0018359364   0.078418827    766.24796     -2.7948421      763.45312    
    187000   299.70391      0.0018359364   1.6373132      743.57367     -5.0305815      738.54309    
    188000   284.94996      0.0018359364   0.31707059     706.9687      -2.4103164      704.55838    
    189000   302.95369      0.0018359364   0.74758833     751.63646     -4.0092659      747.6272     
    190000   300.31848      0.0018359364   2.480497       745.09844     -3.8553771      741.24306    
    191000   298.54682      0.0018359364   1.6126765      740.70288     -1.5996068      739.10328    
    192000   289.62218      0.0018359364   0.98682573     718.56062     -1.6197352      716.94089    
    193000   303.31301      0.0018359364   0.34896979     752.52794     -2.6686418      749.8593     
    194000   306.07789      0.0018359364   1.1918247      759.38767     -2.9077034      756.47997    
    195000   296.6399       0.0018359364   1.4823644      735.97178     -3.1120349      732.85974    
    196000   292.20922      0.0018359364  -0.50131745     724.97913     -2.1290653      722.85006    
    197000   308.34111      0.0018359364   1.0252392      765.0028      -3.1786554      761.82415    
    198000   308.14885      0.0018359364   1.7908642      764.5258      -2.5299724      761.99583    
    199000   292.508        0.0018359364   2.9660938      725.72042     -4.103448       721.61697    
    200000   289.90225      0.0018359364  -0.12798295     719.25546     -4.7957294      714.45973    
    201000   313.86872      0.0018359364   0.43464679     778.71696     -3.5493881      775.16757    
    202000   300.14989      0.0018359364   2.4826339      744.68016     -3.4479864      741.23217    
    203000   281.03072      0.0018359364   0.061978627    697.24497     -1.6863634      695.5586     
    204000   306.7329       0.0018359364   0.68931054     761.01278     -0.878058       760.13472    
    205000   305.64054      0.0018359364   1.5592888      758.3026      -0.6041742      757.69843    
    206000   284.44764      0.0018359364   2.1529679      705.72243     -2.7354532      702.98698    
    207000   289.31883      0.0018359364  -0.1669587      717.80798     -2.3202328      715.48775    
    208000   286.92048      0.0018359364   0.89490434     711.85762     -2.3826028      709.47502    
    209000   308.68388      0.0018359364   0.7085007      765.85322     -1.5246276      764.32859    
    210000   291.83294      0.0018359364   4.0530464      724.04556     -2.4186613      721.6269     
    211000   293.03153      0.0018359364   2.3147753      727.01931     -2.1203669      724.89894    
    212000   303.49803      0.0018359364  -1.3036898      752.98697     -4.3943943      748.59258    
    213000   294.20927      0.0018359364   1.2731439      729.94131     -4.2785167      725.6628     
    214000   293.36754      0.0018359364   1.5043677      727.85294     -2.9675661      724.88538    
    215000   319.96256      0.0018359364  -3.6964984      793.83594     -3.1553847      790.68055    
    216000   302.64543      0.0018359364   1.7261729      750.87164     -3.2331317      747.63851    
    217000   292.72241      0.0018359364   3.1997794      726.25237     -3.0325188      723.21985    
    218000   301.65123      0.0018359364  -1.2865981      748.405       -2.9603267      745.44468    
    219000   310.33955      0.0018359364   0.45872597     769.96098     -4.8043503      765.15663    
    220000   302.29037      0.0018359364   2.535033       749.99075     -3.6412422      746.3495     
    221000   298.77617      0.0018359364   1.602331       741.27191     -2.3731115      738.8988     
    222000   296.05565      0.0018359364  -1.0235568      734.52222     -1.3726249      733.1496     
    223000   304.3889       0.0018359364   2.6868669      755.19724     -4.1719239      751.02532    
    224000   288.92119      0.0018359364   2.7098741      716.82145     -1.624966       715.19648    
    225000   302.35066      0.0018359364  -0.47486096     750.14032     -2.3419725      747.79835    
    226000   306.93509      0.0018359364   3.880406       761.51442     -2.4340642      759.08036    
    227000   285.47804      0.0018359364   5.7878955      708.2789      -1.4542011      706.8247     
    228000   303.22718      0.0018359364   0.095924263    752.315       -2.1062899      750.20871    
    229000   316.53465      0.0018359364  -0.59406773     785.33118     -1.3417258      783.98946    
    230000   285.26453      0.0018359364   3.3086051      707.74917     -1.3151615      706.43401    
    231000   291.34889      0.0018359364   0.68539777     722.84464     -2.5922075      720.25243    
    232000   312.43774      0.0018359364  -0.54012416     775.16666     -1.8626238      773.30403    
    233000   310.11832      0.0018359364   0.83609941     769.41211     -3.3925762      766.01953    
    234000   294.73398      0.0018359364   1.4644285      731.24313     -3.1515539      728.09157    
    235000   306.12059      0.0018359364  -1.3490475      759.49363     -2.8872177      756.60641    
    236000   295.77008      0.0018359364   1.4242763      733.81373     -3.7262635      730.08747    
    237000   302.46032      0.0018359364   2.6603368      750.4124      -2.5079512      747.90445    
    238000   291.64154      0.0018359364   5.5993289      723.5707      -5.9444503      717.62625    
    239000   310.44921      0.0018359364   3.2184395      770.23305     -5.9245427      764.30851    
    240000   291.98446      0.0018359364   3.0188868      724.42149     -4.974896       719.44659    
    241000   291.73985      0.0018359364   1.3708761      723.81462     -2.6840392      721.13058    
    242000   300.21933      0.0018359364  -1.6925272      744.85244     -3.290449       741.56199    
    243000   311.52505      0.0018359364  -0.5699369      772.90225     -2.5326062      770.36964    
    244000   308.89076      0.0018359364   2.2088888      766.36649     -3.1560546      763.21044    
    245000   292.51158      0.0018359364   2.6981263      725.7293      -2.7074173      723.02189    
    246000   298.37596      0.0018359364   0.57090291     740.27899     -2.5385289      737.74046    
    247000   308.24482      0.0018359364   0.71869779     764.7639      -3.5215147      761.24238    
    248000   306.9218       0.0018359364   0.9606641      761.48145     -2.5477492      758.9337     
    249000   292.95679      0.0018359364   2.0732891      726.83388     -3.0896413      723.74424    
    250000   299.93742      0.0018359364   0.48812374     744.15302     -2.4007124      741.75231    
    251000   303.13059      0.0018359364  -0.27561877     752.07534     -3.2513191      748.82402    
    252000   302.68349      0.0018359364   1.0005687      750.96608     -2.5189951      748.44709    
    253000   288.69224      0.0018359364   2.2531246      716.2534      -1.4640111      714.78939    
    254000   294.3832       0.0018359364   0.59897043     730.37283     -1.9397049      728.43313    
    255000   301.90065      0.0018359364   0.17130766     749.02384     -2.1706975      746.85314    
    256000   322.23022      0.0018359364  -0.18118969     799.46206     -1.8180268      797.64404    
    257000   298.71448      0.0018359364   1.4147488      741.11887     -2.563514       738.55535    
    258000   280.53446      0.0018359364   1.3191886      696.01373     -0.32447694     695.68925    
    259000   314.69039      0.0018359364   0.048643422    780.75554     -2.113338       778.6422     
    260000   306.45997      0.0018359364   2.4263298      760.33563     -1.9660355      758.36959    
    261000   286.97983      0.0018359364   1.0751015      712.00488     -2.9730519      709.03182    
    262000   288.32849      0.0018359364   0.93469456     715.35094     -1.3666859      713.98425    
    263000   306.28865      0.0018359364   0.91353599     759.91059     -2.4596328      757.45095    
    264000   301.72875      0.0018359364   1.9449399      748.59736     -2.5626134      746.03474    
    265000   291.71341      0.0018359364   0.94807921     723.74901     -1.440403       722.30861    
    266000   297.20678      0.0018359364   0.67698838     737.37821     -1.1655079      736.2127     
    267000   300.77793      0.0018359364   0.961605       746.23833     -1.0359212      745.20241    
    268000   309.61671      0.0018359364   1.3297317      768.1676      -1.9369909      766.23061    
    269000   288.55131      0.0018359364   1.0324159      715.90375     -2.0646197      713.83913    
    270000   299.324        0.0018359364   0.52578783     742.63109     -1.7837143      740.84738    
    271000   310.96961      0.0018359364   0.50581099     771.52418     -3.3536509      768.17053    
    272000   303.8308       0.0018359364   1.0128263      753.81258     -2.8653581      750.94722    
    273000   285.85007      0.0018359364   0.74339603     709.2019      -2.1516163      707.05028    
    274000   296.48118      0.0018359364   0.94489466     735.57798     -2.4255418      733.15244    
    275000   302.48761      0.0018359364   1.0328353      750.48009     -3.1758403      747.30425    
    276000   302.33209      0.0018359364   1.2674204      750.09424     -2.1627904      747.93145    
    277000   301.05467      0.0018359364   1.1311785      746.92492     -2.9664158      743.95851    
    278000   295.85195      0.0018359364   0.58931763     734.01685     -1.5252809      732.49157    
    279000   307.04991      0.0018359364   1.1218487      761.79929     -3.0949936      758.7043     
    280000   308.52793      0.0018359364   2.0420911      765.4663      -3.0247508      762.44155    
    281000   296.0809       0.0018359364   0.65238584     734.58487     -1.442549       733.14232    
    282000   290.10873      0.0018359364   1.5116253      719.76776     -1.3330954      718.43467    
    283000   287.92345      0.0018359364   0.32017494     714.34602     -2.4739647      711.87205    
    284000   303.15784      0.0018359364   1.6068945      752.14296     -2.3586359      749.78432    
    285000   296.31652      0.0018359364   1.1127173      735.16944     -1.7013546      733.46809    
    286000   300.27189      0.0018359364  -1.5710335      744.98284     -1.2820991      743.70074    
    287000   293.49644      0.0018359364   1.5458448      728.17275     -2.7016803      725.47107    
    288000   296.06674      0.0018359364   1.3921724      734.54974     -2.9625091      731.58723    
    289000   291.45877      0.0018359364  -1.6551391      723.11725     -4.1786549      718.93859    
    290000   299.39615      0.0018359364   1.3064731      742.81009     -4.3412557      738.46883    
    291000   307.14477      0.0018359364   1.9445594      762.03464     -2.8205675      759.21408    
    292000   301.03062      0.0018359364   0.17050348     746.86527     -2.8275105      744.03776    
    293000   296.51599      0.0018359364  -0.44967114     735.66435     -5.0065636      730.65778    
    294000   297.2668       0.0018359364   1.4862778      737.52713     -4.8447738      732.68236    
    295000   298.98755      0.0018359364   3.0288859      741.79636     -3.76747        738.02889    
    296000   301.74668      0.0018359364   0.84262373     748.64182     -1.7553359      746.88649    
    297000   301.09287      0.0018359364  -0.23611662     747.01971     -2.2360719      744.78364    
    298000   293.73898      0.0018359364   2.1223298      728.7745      -3.1895421      725.58495    
    299000   302.07793      0.0018359364   2.3675106      749.46366     -4.5521914      744.91147    
    300000   303.11057      0.0018359364  -0.81740827     752.02567     -3.7516019      748.27407    
    301000   297.94489      0.0018359364  -0.6681919      739.20948     -5.6070809      733.6024     
    302000   287.87044      0.0018359364   2.1855928      714.2145      -4.9858213      709.22868    
    303000   299.56235      0.0018359364   0.82986612     743.22244     -4.133519       739.08892    
    304000   302.4895       0.0018359364   0.62226177     750.48479     -3.9582851      746.52651    
    305000   301.32024      0.0018359364   1.5788726      747.58383     -3.9824088      743.60142    
    306000   298.13135      0.0018359364   2.1610248      739.67211     -2.0987584      737.57335    
    307000   304.62659      0.0018359364   0.86475042     755.78696     -2.9036889      752.88327    
    308000   305.17845      0.0018359364   0.90342776     757.15616     -3.5620351      753.59412    
    309000   297.4155       0.0018359364   0.95107095     737.89606     -2.5770497      735.31901    
    310000   297.62818      0.0018359364   1.0787276      738.42373     -3.0664538      735.35728    
    311000   297.10258      0.0018359364   0.98161801     737.1197      -4.3795055      732.74019    
    312000   306.27167      0.0018359364   0.93723794     759.86846     -3.9270497      755.94141    
    313000   294.39559      0.0018359364   1.2071542      730.40358     -3.3394105      727.06417    
    314000   304.03709      0.0018359364   1.1282518      754.3244      -1.9063298      752.41807    
    315000   302.89921      0.0018359364   1.0363887      751.50129     -2.4436604      749.05763    
    316000   306.20018      0.0018359364   0.95442181     759.69108     -4.2104024      755.48068    
    317000   298.2811       0.0018359364   1.0509346      740.04363     -2.5126209      737.53101    
    318000   295.058        0.0018359364   1.1837711      732.04704     -4.02876        728.01828    
    319000   310.09006      0.0018359364   1.4277202      769.34199     -5.2901998      764.05179    
    320000   306.83897      0.0018359364   0.6789077      761.27594     -2.867638       758.4083     
    321000   300.6593       0.0018359364   0.42479571     745.94402     -4.405755       741.53826    
    322000   295.20047      0.0018359364   2.1776132      732.40051     -3.4875897      728.91292    
    323000   301.16527      0.0018359364   0.86453371     747.19935     -4.2386281      742.96072    
    324000   304.64883      0.0018359364  -0.34863811     755.84214     -4.8149292      751.02721    
    325000   301.41987      0.0018359364  -0.09222        747.83102     -5.7617337      742.06928    
    326000   300.96117      0.0018359364   2.4727179      746.69297     -4.6413475      742.05162    
    327000   300.72963      0.0018359364   0.41402609     746.1185      -5.1004255      741.01807    
    328000   307.17899      0.0018359364  -2.6164066      762.11954     -6.4495172      755.67003    
    329000   300.74807      0.0018359364   1.1791418      746.16425     -5.4234733      740.74078    
    330000   306.13294      0.0018359364   2.890899       759.52426     -5.2606999      754.26356    
    331000   291.02012      0.0018359364  -0.35813485     722.02895     -5.3763955      716.65255    
    332000   285.23077      0.0018359364   1.6995968      707.6654      -4.7496786      702.91572    
    333000   299.07151      0.0018359364   1.8433267      742.00467     -5.5733208      736.43135    
    334000   312.6904       0.0018359364  -0.18812936     775.79351     -2.4126324      773.38087    
    335000   302.6337       0.0018359364   0.35985234     750.84255     -3.7968203      747.04573    
    336000   282.84337      0.0018359364   2.4262448      701.7422      -3.2894901      698.45271    
    337000   303.22344      0.0018359364   1.3801024      752.3057      -2.2873314      750.01837    
    338000   308.57751      0.0018359364  -1.7364292      765.58931     -2.915355       762.67395    
    339000   294.27262      0.0018359364   0.54197364     730.09848     -2.2665846      727.8319     
    340000   293.79302      0.0018359364   1.9815459      728.90858     -3.7523015      725.15628    
    341000   308.72971      0.0018359364   3.1664093      765.96691     -1.6281054      764.33881    
    342000   303.48719      0.0018359364   0.93257092     752.96008     -1.7106389      751.24944    
    343000   294.81385      0.0018359364  -2.9104346      731.4413      -2.1198643      729.32143    
    344000   299.98542      0.0018359364  -0.31485841     744.2721      -4.4356545      739.83645    
    345000   290.15685      0.0018359364  -0.58619066     719.88715     -3.3476316      716.53952    
    346000   291.70099      0.0018359364   1.785935       723.7182      -3.4105528      720.30764    
    347000   310.81098      0.0018359364   1.8392429      771.13062     -4.2860293      766.84459    
    348000   303.63703      0.0018359364   1.0293752      753.33185     -3.9662957      749.36555    
    349000   279.39267      0.0018359364  -1.3769902      693.18092     -5.7687058      687.41221    
    350000   300.2244       0.0018359364   1.5561829      744.86502     -3.3355537      741.52946    
    351000   300.86449      0.0018359364   1.8361518      746.45309     -5.2726996      741.18039    
    352000   306.4443       0.0018359364   2.4324823      760.29675     -3.707697       756.58905    
    353000   308.29086      0.0018359364  -1.742238       764.87813     -2.4018598      762.47627    
    354000   292.69594      0.0018359364   0.74338513     726.1867      -2.4305133      723.75618    
    355000   286.11199      0.0018359364   1.969851       709.85174     -4.167939       705.6838     
    356000   304.35246      0.0018359364   1.4406124      755.10685     -5.6768131      749.43004    
    357000   316.07426      0.0018359364   0.91381112     784.18895     -4.9181691      779.27078    
    358000   296.40022      0.0018359364   0.67627563     735.37713     -5.6291211      729.74801    
    359000   294.74637      0.0018359364   0.23074985     731.27388     -4.7748237      726.49905    
    360000   298.81249      0.0018359364   0.24096986     741.36203     -3.9535047      737.40852    
    361000   292.20818      0.0018359364   1.3766811      724.97654     -3.8886091      721.08793    
    362000   294.75605      0.0018359364   1.5131115      731.29788     -4.3825203      726.91536    
    363000   307.03899      0.0018359364   0.97270248     761.77219     -3.2832086      758.48898    
    364000   307.87628      0.0018359364   0.54382753     763.84954     -2.0871787      761.76236    
    365000   290.21067      0.0018359364  -0.84213786     720.02066     -1.4313563      718.5893     
    366000   293.22575      0.0018359364   1.5013016      727.50117     -2.0365439      725.46463    
    367000   300.05493      0.0018359364  -0.71153672     744.44455     -1.0807588      743.36379    
    368000   324.90978      0.0018359364   1.6096212      806.11013     -0.97651515     805.13361    
    369000   298.70819      0.0018359364   0.41616888     741.10326     -1.6102148      739.49305    
    370000   287.65156      0.0018359364   2.1866409      713.67144     -2.3573944      711.31404    
    371000   300.40525      0.0018359364   1.5888612      745.31371     -2.6708255      742.64289    
    372000   314.22048      0.0018359364   0.74499801     779.58967     -4.2335787      775.35609    
    373000   302.45005      0.0018359364   0.88418453     750.38692     -2.1330071      748.25391    
    374000   293.22254      0.0018359364   1.8018537      727.4932      -2.707158       724.78604    
    375000   311.46714      0.0018359364   1.1328819      772.75855     -2.2151408      770.54341    
    376000   300.14016      0.0018359364   1.2583925      744.656       -3.128914       741.52709    
    377000   291.56941      0.0018359364   0.97429629     723.39174     -3.0924812      720.29926    
    378000   297.36141      0.0018359364   0.67160736     737.76185     -1.8371539      735.92469    
    379000   312.37009      0.0018359364   0.95286497     774.9988      -2.4755147      772.52329    
    380000   310.59322      0.0018359364   1.07227        770.59033     -2.645203       767.94513    
    381000   297.54867      0.0018359364   1.2095452      738.22645     -2.7019649      735.52448    
    382000   296.39026      0.0018359364   1.1325636      735.35241     -0.46907219     734.88334    
    383000   290.24457      0.0018359364   1.1483856      720.10478     -2.8295333      717.27525    
    384000   303.92733      0.0018359364   1.056653       754.05208     -2.5547239      751.49735    
    385000   309.16075      0.0018359364   1.0671576      767.03633     -0.61897119     766.41736    
    386000   279.68601      0.0018359364   0.71731549     693.90871     -2.8319737      691.07673    
    387000   297.88592      0.0018359364   1.3365633      739.06317     -2.1164964      736.94667    
    388000   321.81395      0.0018359364   1.2012164      798.42929     -4.9885663      793.44072    
    389000   302.12885      0.0018359364   0.89992935     749.59        -2.0369106      747.55309    
    390000   278.79299      0.0018359364   0.87626968     691.6931      -3.4151884      688.27792    
    391000   299.11633      0.0018359364   1.1313648      742.11585     -1.8632001      740.25265    
    392000   300.72986      0.0018359364   1.1451973      746.11906     -2.556363       743.5627     
    393000   305.94771      0.0018359364   1.3556216      759.0647      -2.1483198      756.91638    
    394000   304.17011      0.0018359364   0.77558303     754.65444     -2.1596274      752.49481    
    395000   299.54627      0.0018359364   0.5044558      743.18254     -3.1874335      739.99511    
    396000   299.28132      0.0018359364   1.0747299      742.52521     -3.5774252      738.94779    
    397000   298.05893      0.0018359364   2.182036       739.49242     -2.566893       736.92553    
    398000   296.46288      0.0018359364   1.1652046      735.53258     -1.619059       733.91352    
    399000   300.54662      0.0018359364  -1.2458225      745.66444     -1.912887       743.75155    
    400000   301.00858      0.0018359364   1.3777686      746.8106      -1.6445574      745.16604    
    401000   306.6033       0.0018359364   1.2126835      760.69124     -2.0737409      758.6175     
    402000   297.54952      0.0018359364   0.87975323     738.22855     -2.1932266      736.03532    
    403000   294.07388      0.0018359364   0.88580628     729.60541     -3.8685933      725.73682    
    404000   302.11038      0.0018359364   1.7470174      749.54417     -4.8761565      744.66802    
    405000   304.69642      0.0018359364   0.89723548     755.9602      -3.4039735      752.55623    
    406000   306.76753      0.0018359364   0.89439765     761.0987      -3.6373054      757.4614     
    407000   295.85129      0.0018359364   0.99028687     734.01521     -2.9065699      731.10864    
    408000   288.40413      0.0018359364   0.9956994      715.5386      -3.744921       711.79368    
    409000   296.0472       0.0018359364   1.1459924      734.50126     -1.8552635      732.646      
    410000   314.53313      0.0018359364   0.52613565     780.36537     -1.9512793      778.41409    
    411000   292.72433      0.0018359364   0.73710626     726.25713     -1.7314891      724.52564    
    412000   289.93344      0.0018359364   1.4153825      719.33287     -3.303006       716.02986    
    413000   300.50499      0.0018359364   1.3230796      745.56117     -3.5642371      741.99693    
    414000   313.44062      0.0018359364  -1.2936196      777.65482     -3.6939723      773.96085    
    415000   296.75541      0.0018359364   1.3885965      736.25836     -2.5577769      733.70058    
    416000   294.15551      0.0018359364   2.0702563      729.80794     -3.3911218      726.41682    
    417000   306.10875      0.0018359364   1.589083       759.46424     -4.5626991      754.90154    
    418000   307.61004      0.0018359364   0.27889209     763.189       -2.4585316      760.73046    
    419000   302.80229      0.0018359364   1.0043605      751.26083     -2.8754227      748.38541    
    420000   296.15422      0.0018359364   1.3116396      734.76678     -2.7287827      732.038      
    421000   312.81008      0.0018359364   1.2651697      776.09043     -2.6329662      773.45746    
    422000   297.72844      0.0018359364   0.53369744     738.67247     -1.6789093      736.99356    
    423000   293.83449      0.0018359364   1.7767425      729.01147     -1.7860557      727.22541    
    424000   313.45066      0.0018359364   2.3898256      777.67972     -2.6627365      775.01698    
    425000   321.41377      0.0018359364   1.3468384      797.43642     -2.2198184      795.21661    
    426000   302.59687      0.0018359364   0.61428452     750.75117     -3.7296307      747.02154    
    427000   292.98393      0.0018359364   0.99032285     726.9012      -2.3803548      724.52085    
    428000   293.38006      0.0018359364   0.74218113     727.88401     -4.3801181      723.50389    
    429000   311.9799       0.0018359364   1.3423328      774.03072     -2.5866971      771.44402    
    430000   297.62534      0.0018359364   1.0890144      738.41668     -4.2786476      734.13804    
    431000   292.22849      0.0018359364   0.46750763     725.02694     -5.8866041      719.14034    
    432000   301.35988      0.0018359364   1.1938473      747.68218     -3.2424038      744.43977    
    433000   289.85788      0.0018359364   1.1856736      719.14538     -1.3362799      717.8091     
    434000   295.21249      0.0018359364   0.89484338     732.43032     -1.8962978      730.53403    
    435000   297.27003      0.0018359364   1.0183169      737.53513     -2.2044773      735.33066    
    436000   306.04209      0.0018359364   1.4739729      759.29885     -5.2451562      754.0537     
    437000   291.64978      0.0018359364   1.2937243      723.59113     -5.1486101      718.44252    
    438000   308.23636      0.0018359364   0.38846426     764.74292     -6.5585215      758.18439    
    439000   304.51387      0.0018359364   1.0801037      755.50731     -6.0912734      749.41604    
    440000   306.59896      0.0018359364   2.0293151      760.68047     -3.063382       757.61709    
    441000   293.37269      0.0018359364   1.1731069      727.86573     -3.2538539      724.61188    
    442000   296.55704      0.0018359364   0.88761672     735.76618     -2.8822526      732.88393    
    443000   301.84972      0.0018359364   0.39332784     748.89749     -2.9257753      745.97171    
    444000   310.72751      0.0018359364   1.5548815      770.92351     -2.8801764      768.04333    
    445000   283.87646      0.0018359364   1.6565444      704.30532     -1.3266751      702.97864    
    446000   292.80776      0.0018359364   0.41026475     726.46412     -2.4091108      724.05501    
    447000   304.94619      0.0018359364   0.9987571      756.5799      -2.8663432      753.71355    
    448000   305.27392      0.0018359364   1.0420427      757.393       -3.4969603      753.89604    
    449000   296.39423      0.0018359364   0.95089572     735.36225     -5.0305187      730.33173    
    450000   298.08445      0.0018359364   0.9701017      739.55573     -5.2979143      734.25781    
    451000   291.73685      0.0018359364   1.3652619      723.80717     -5.3660246      718.44115    
    452000   301.32066      0.0018359364   1.6332232      747.58487     -4.7842874      742.80059    
    453000   304.02207      0.0018359364   0.35649616     754.28713     -3.5303458      750.75679    
    454000   291.01783      0.0018359364   1.471328       722.02327     -4.0287891      717.99448    
    455000   303.30264      0.0018359364   1.1875158      752.50222     -1.8448193      750.6574     
    456000   290.82914      0.0018359364   1.8205696      721.55512     -3.1101781      718.44494    
    457000   305.95126      0.0018359364   0.3118822      759.07351     -2.4898795      756.58363    
    458000   305.54648      0.0018359364  -0.17650641     758.06925     -3.5516661      754.51758    
    459000   297.953        0.0018359364   0.98500969     739.2296      -2.447401       736.7822     
    460000   303.00132      0.0018359364   2.2986851      751.75462     -1.3317597      750.42286    
    461000   306.4727       0.0018359364   1.5324602      760.36722     -3.3357054      757.03151    
    462000   299.04587      0.0018359364   0.6277558      741.94105     -2.6223778      739.31868    
    463000   296.09948      0.0018359364   0.89350828     734.63097     -4.2583402      730.37263    
    464000   309.46132      0.0018359364   1.3184385      767.78206     -4.3491759      763.43289    
    465000   299.84187      0.0018359364   1.0045393      743.91593     -4.4626853      739.45325    
    466000   296.26545      0.0018359364   0.82460084     735.04276     -3.9979157      731.04484    
    467000   287.00227      0.0018359364   1.0482719      712.06055     -3.0306475      709.0299     
    468000   304.08481      0.0018359364   1.5107837      754.44278     -2.3504395      752.09234    
    469000   315.08496      0.0018359364   1.2961621      781.73447     -0.87951644     780.85495    
    470000   304.5468       0.0018359364   0.6908885      755.589       -2.0614057      753.5276     
    471000   276.79191      0.0018359364   1.3682788      686.72835     -1.790629       684.93772    
    472000   304.31658      0.0018359364   1.6715759      755.01782     -1.4980218      753.5198     
    473000   310.68165      0.0018359364  -0.70721672     770.80975     -3.9759308      766.83382    
    474000   292.41645      0.0018359364   0.90885727     725.49326     -3.0199445      722.47332    
    475000   307.99059      0.0018359364   1.9348476      764.13315     -1.0811098      763.05204    
    476000   304.10026      0.0018359364   0.99978321     754.48113     -1.8845895      752.59654    
    477000   301.03865      0.0018359364  -0.39724833     746.88518     -3.106807       743.77837    
    478000   294.53816      0.0018359364   1.823446       730.75729     -2.6063312      728.15096    
    479000   305.99486      0.0018359364   1.2729369      759.18169     -2.4432919      756.7384     
    480000   308.48422      0.0018359364  -3.4997998      765.35785     -3.9070051      761.45084    
    481000   280.3944       0.0018359364  -1.1146794      695.66624     -4.0787054      691.58754    
    482000   300.31619      0.0018359364   2.7592907      745.09274     -2.2044871      742.88825    
    483000   318.97808      0.0018359364  -2.2089579      791.39341     -3.0330891      788.36032    
    484000   288.91267      0.0018359364   0.98196409     716.8003      -4.3371121      712.46319    
    485000   313.2545       0.0018359364   4.320005       777.19304     -3.4990962      773.69394    
    486000   307.29193      0.0018359364  -0.33784297     762.39976     -3.5055045      758.89425    
    487000   299.55193      0.0018359364  -0.63889835     743.19659     -3.9930411      739.20355    
    488000   286.86431      0.0018359364   0.084060027    711.71826     -4.4328688      707.28539    
    489000   289.52886      0.0018359364   3.1221509      718.32908     -5.0675052      713.26158    
    490000   315.21372      0.0018359364   2.1299127      782.05394     -4.1584878      777.89545    
    491000   293.84442      0.0018359364   0.030142473    729.0361      -3.2835813      725.75252    
    492000   298.04198      0.0018359364   3.9342605      739.45036     -2.9711627      736.4792     
    493000   314.08449      0.0018359364   1.217058       779.25227     -3.7869573      775.46531    
    494000   294.33733      0.0018359364   0.30149326     730.25902     -2.7286895      727.53033    
    495000   292.23162      0.0018359364   1.1170978      725.0347      -4.1191521      720.91554    
    496000   296.08895      0.0018359364   0.87888497     734.60485     -3.0757349      731.52912    
    497000   294.45167      0.0018359364  -1.1723561      730.54271     -5.0552042      725.4875     
    498000   312.36635      0.0018359364   1.2600393      774.98953     -7.6507565      767.33877    
    499000   291.56103      0.0018359364   1.1252872      723.37095     -4.8143041      718.55664    
    500000   293.72399      0.0018359364   0.89604627     728.73732     -2.5567096      726.18061    
    501000   298.54723      0.0018359364   1.0192632      740.7039      -4.9392595      735.76464    
    502000   303.93154      0.0018359364   0.78712541     754.06254     -2.9503411      751.1122     
    503000   299.27651      0.0018359364   1.0790899      742.51326     -4.9068529      737.60641    
    504000   296.9595       0.0018359364   1.2788276      736.7647      -4.9241143      731.84059    
    505000   317.32509      0.0018359364   0.95270096     787.2923      -3.7508558      783.54145    
    506000   310.65229      0.0018359364   1.1538812      770.73688     -4.6131271      766.12376    
    507000   309.64787      0.0018359364   0.57883558     768.2449      -3.3555947      764.8893     
    508000   278.02458      0.0018359364   0.73655728     689.78664     -2.0849547      687.70169    
    509000   293.25601      0.0018359364   0.95729662     727.57625     -2.9129068      724.66335    
    510000   307.01793      0.0018359364  -0.033066149    761.71995     -2.6285233      759.09143    
    511000   307.60326      0.0018359364   1.7241699      763.17217     -4.0684629      759.10371    
    512000   290.65073      0.0018359364   0.14532132     721.11247     -3.3743503      717.73812    
    513000   304.14993      0.0018359364   0.17727192     754.60436     -5.6229154      748.98144    
    514000   286.64605      0.0018359364   1.593704       711.17675     -4.6837385      706.49301    
    515000   303.07662      0.0018359364   0.98476948     751.94146     -3.0271293      748.91433    
    516000   304.68554      0.0018359364  -0.082435972    755.93322     -2.0493978      753.88382    
    517000   311.30409      0.0018359364   0.77672522     772.35402     -1.2892961      771.06472    
    518000   294.3829       0.0018359364   2.7864044      730.37208     -3.3722148      726.99986    
    519000   307.53785      0.0018359364   0.85230188     763.00988     -3.0541587      759.95572    
    520000   310.80914      0.0018359364   0.18587853     771.12604     -3.7717287      767.35431    
    521000   312.3225       0.0018359364   0.92257687     774.88074     -2.0234723      772.85726    
    522000   298.30779      0.0018359364   1.6947391      740.10985     -3.3997102      736.71014    
    523000   299.40824      0.0018359364  -1.2033417      742.84009     -3.1025747      739.73752    
    524000   305.17206      0.0018359364   0.98874744     757.14028     -1.4879474      755.65234    
    525000   290.63995      0.0018359364   2.4162328      721.08574     -2.1655017      718.92023    
    526000   293.63781      0.0018359364   0.35463986     728.52349     -2.5595659      725.96393    
    527000   304.33081      0.0018359364  -0.28257811     755.05313     -3.3267304      751.7264     
    528000   304.10943      0.0018359364  -0.065518955    754.50388     -2.4616136      752.04227    
    529000   307.00625      0.0018359364   1.9089911      761.69096     -1.751987       759.93897    
    530000   291.76979      0.0018359364   2.8373271      723.8889      -0.99499377     722.8939     
    531000   305.47797      0.0018359364   1.2386517      757.89926     -1.8424462      756.05682    
    532000   286.72184      0.0018359364  -1.0568381      711.36479     -1.7861978      709.57859    
    533000   313.2244       0.0018359364  -1.1610999      777.11836     -2.5109583      774.6074     
    534000   302.32019      0.0018359364   2.4008461      750.06474     -2.9151146      747.14962    
    535000   293.332        0.0018359364   0.76768761     727.76478     -4.880849       722.88393    
    536000   293.04154      0.0018359364  -1.5030882      727.04415     -5.1048425      721.93931    
    537000   307.4932       0.0018359364   2.068195       762.89911     -3.2677788      759.63133    
    538000   294.48189      0.0018359364   0.22991746     730.61768     -4.66037        725.95731    
    539000   286.71505      0.0018359364  -0.57102168     711.34795     -3.9476168      707.40033    
    540000   300.38965      0.0018359364   0.013258905    745.27501     -4.1596841      741.11533    
    541000   305.48915      0.0018359364   0.47466509     757.927       -3.4795726      754.44743    
    542000   302.17549      0.0018359364   2.2262418      749.70572     -2.8116831      746.89404    
    543000   288.15358      0.0018359364   1.1546288      714.91697     -2.5651211      712.35185    
    544000   307.55394      0.0018359364   0.27972527     763.04982     -2.5681943      760.48162    
    545000   310.76311      0.0018359364   0.70629339     771.01184     -4.2009755      766.81087    
    546000   290.64568      0.0018359364   1.1657229      721.09995     -2.7650614      718.33489    
    547000   298.43816      0.0018359364   1.229676       740.43329     -3.0096501      737.42364    
    548000   296.85471      0.0018359364   0.7554949      736.50472     -2.7869601      733.71776    
    549000   305.67632      0.0018359364   0.80654979     758.39138     -2.7655562      755.62582    
    550000   296.46756      0.0018359364   1.0231848      735.54419     -4.9217675      730.62242    
    551000   299.22467      0.0018359364   1.1003496      742.38466     -3.7727271      738.61193    
    552000   305.81361      0.0018359364   1.0574571      758.732       -4.2200157      754.51199    
    553000   312.8223       0.0018359364   1.1996091      776.12076     -2.9362736      773.18448    
    554000   291.77754      0.0018359364   0.69615625     723.90813     -2.9744348      720.93369    
    555000   281.42628      0.0018359364   1.102749       698.22636     -2.7896045      695.43676    
    556000   302.10481      0.0018359364   1.1541398      749.53036     -3.5211463      746.00922    
    557000   291.06803      0.0018359364   1.1449266      722.14782     -1.5942103      720.55361    
    558000   310.82403      0.0018359364   1.1852846      771.16298     -2.5442451      768.61873    
    559000   310.82284      0.0018359364   0.94859664     771.16003     -2.2578637      768.90216    
    560000   296.35054      0.0018359364   1.371024       735.25387     -2.4419749      732.81189    
    561000   283.75069      0.0018359364   0.87187331     703.99329     -3.8357389      700.15755    
    562000   307.13849      0.0018359364   0.98381805     762.01907     -4.1508922      757.86818    
    563000   317.22951      0.0018359364   1.2337125      787.05515     -3.7360172      783.31914    
    564000   297.81198      0.0018359364   0.98329013     738.87973     -4.4454782      734.43425    
    565000   292.91473      0.0018359364   1.1019422      726.72953     -4.0455155      722.68401    
    566000   312.52554      0.0018359364   1.1847359      775.38448     -5.9094008      769.47508    
    567000   306.45551      0.0018359364   1.0365875      760.32456     -4.2293435      756.09522    
    568000   294.58746      0.0018359364   0.91795461     730.87962     -3.695682       727.18393    
    569000   307.45485      0.0018359364   0.99487728     762.80395     -4.0614989      758.74246    
    570000   299.26256      0.0018359364   0.85165032     742.47866     -4.5555313      737.92313    
    571000   294.65701      0.0018359364   1.0674257      731.05217     -3.7460363      727.30614    
    572000   297.20867      0.0018359364   0.32875044     737.3829      -4.7348489      732.64805    
    573000   298.26764      0.0018359364   1.1895957      740.01023     -2.8681029      737.14213    
    574000   307.13985      0.0018359364   1.4663553      762.02245     -3.884683       758.13776    
    575000   306.93682      0.0018359364   0.49706816     761.51871     -3.4865022      758.03221    
    576000   297.49666      0.0018359364   0.90049606     738.09741     -2.8539389      735.24347    
    577000   299.6446       0.0018359364   2.1717992      743.42652     -3.9709018      739.45562    
    578000   304.92543      0.0018359364   2.3105083      756.52839     -2.9199997      753.6084     
    579000   305.23472      0.0018359364   0.61653086     757.29574     -2.5953996      754.70034    
    580000   287.11689      0.0018359364  -0.93230223     712.34493     -4.2436605      708.10127    
    581000   293.42077      0.0018359364   0.6120234      727.98502     -3.7791436      724.20587    
    582000   307.83358      0.0018359364   1.9256398      763.74359     -3.7952744      759.94831    
    583000   295.45987      0.0018359364  -0.38993724     733.04408     -4.2971323      728.74695    
    584000   288.95472      0.0018359364   0.90208322     716.90462     -3.6333797      713.27124    
    585000   312.03267      0.0018359364   3.0816571      774.16166     -4.610091       769.55157    
    586000   310.44231      0.0018359364  -0.5442894      770.21593     -2.132647       768.08328    
    587000   288.03483      0.0018359364   1.1852874      714.62234     -3.7275194      710.89482    
    588000   293.79444      0.0018359364   2.4765255      728.91211     -4.4836532      724.42846    
    589000   311.31095      0.0018359364   0.074882589    772.37104     -2.9719915      769.39905    
    590000   296.90872      0.0018359364  -0.25296525     736.63872     -4.3543111      732.28441    
    591000   292.28021      0.0018359364   1.5444863      725.15525     -5.3846643      719.77059    
    592000   315.99721      0.0018359364   0.87192644     783.9978      -2.8000363      781.19776    
    593000   294.90093      0.0018359364  -0.41261387     731.65733     -3.6219786      728.03535    
    594000   301.7434       0.0018359364   2.7598443      748.63369     -3.4501532      745.18354    
    595000   298.88687      0.0018359364   1.2252755      741.54656     -2.8796887      738.66688    
    596000   307.0028       0.0018359364   0.32717094     761.6824      -2.6641067      759.01829    
    597000   303.68609      0.0018359364   0.33592895     753.45356     -2.140757       751.31281    
    598000   296.84354      0.0018359364   1.5633976      736.47701     -4.4596283      732.01738    
    599000   300.82944      0.0018359364   1.1281364      746.36614     -1.5913015      744.77483    
    600000   302.04987      0.0018359364   0.26152989     749.39404     -4.5097052      744.88434    
    601000   297.565        0.0018359364   0.67011271     738.26696     -2.8953269      735.37163    
    602000   301.65731      0.0018359364   1.2763192      748.4201      -1.7860008      746.6341     
    603000   299.08708      0.0018359364   0.16228985     742.04329     -2.8418648      739.20142    
    604000   299.34167      0.0018359364  -2.43136        742.67492     -2.5739317      740.10099    
    605000   293.46682      0.0018359364   1.201124       728.09926     -0.74570598     727.35356    
    606000   302.25373      0.0018359364   2.0760507      749.89984     -1.5685683      748.33128    
    607000   312.71193      0.0018359364   1.4431478      775.84691     -2.6855254      773.16139    
    608000   304.39833      0.0018359364  -1.3379224      755.22064     -4.3352851      750.88536    
    609000   295.05473      0.0018359364   1.3190466      732.03892     -3.9809043      728.05801    
    610000   304.0548       0.0018359364   2.9261646      754.36835     -2.6022433      751.7661     
    611000   315.10252      0.0018359364   2.4032755      781.77803     -2.4877192      779.29031    
    612000   297.43682      0.0018359364   0.39125944     737.94894     -3.2067361      734.74221    
    613000   285.82881      0.0018359364   2.5338761      709.14916     -2.9178716      706.23129    
    614000   304.03541      0.0018359364   1.1802602      754.32023     -2.4582339      751.862      
    615000   308.21363      0.0018359364  -0.26121287     764.6865      -3.050964       761.63554    
    616000   295.14513      0.0018359364   2.1714025      732.26319     -1.2870523      730.97614    
    617000   296.10844      0.0018359364   1.6174103      734.65321     -2.698234       731.95498    
    618000   306.34256      0.0018359364   1.6065126      760.04435     -2.8866098      757.15774    
    619000   301.72214      0.0018359364  -1.0955489      748.58094      0.55075152     749.1317     
    620000   298.03272      0.0018359364   1.5419867      739.42738     -3.0150211      736.41236    
    621000   304.037        0.0018359364   2.167902       754.32418     -1.7589274      752.56526    
    622000   307.20736      0.0018359364   0.30000903     762.18994     -0.8730921      761.31685    
    623000   293.31276      0.0018359364   0.31492818     727.71704     -1.1255328      726.5915     
    624000   303.71946      0.0018359364   2.2840374      753.53635     -2.5779437      750.95841    
    625000   294.86767      0.0018359364   2.708317       731.57482     -2.7090683      728.86576    
    626000   296.68565      0.0018359364   2.3022872      736.08528     -3.3397139      732.74556    
    627000   309.38139      0.0018359364   0.39122276     767.58375     -5.6994658      761.88428    
    628000   296.42841      0.0018359364   0.26904348     735.44705     -4.3719832      731.07507    
    629000   300.9765       0.0018359364   1.8126626      746.731       -2.714977       744.01602    
    630000   296.43091      0.0018359364   0.81613008     735.45325     -4.6772207      730.77603    
    631000   310.04549      0.0018359364   1.4584344      769.23141     -3.7009829      765.53043    
    632000   316.28174      0.0018359364   0.19822319     784.70372     -4.7691679      779.93456    
    633000   303.90045      0.0018359364   0.68793913     753.98539     -5.4190404      748.56635    
    634000   283.7555       0.0018359364   2.6691694      704.00521     -3.6433367      700.36187    
    635000   305.88794      0.0018359364   1.3673708      758.91641     -3.3177646      755.59865    
    636000   320.87666      0.0018359364  -1.104554       796.10384     -3.6418039      792.46203    
    637000   297.01525      0.0018359364   1.2718395      736.90301     -3.2270439      733.67597    
    638000   293.66949      0.0018359364   1.7136594      728.6021      -2.3322934      726.26981    
    639000   297.04342      0.0018359364   2.1734079      736.9729      -5.2195577      731.75335    
    640000   304.11625      0.0018359364  -0.64772353     754.52079     -5.9827419      748.53805    
    641000   297.1965       0.0018359364   0.99490849     737.3527      -2.5822334      734.77047    
    642000   297.82351      0.0018359364   1.1333043      738.90834     -2.9595269      735.94881    
    643000   305.78144      0.0018359364   1.2975121      758.65218     -5.8279753      752.82421    
    644000   301.95542      0.0018359364  -0.36527713     749.15973     -2.6463662      746.51336    
    645000   301.38037      0.0018359364   1.7040343      747.73301     -2.5839967      745.14902    
    646000   289.01315      0.0018359364   1.5032029      717.04959     -1.6884123      715.36117    
    647000   302.25592      0.0018359364   0.34443959     749.90528     -3.5223189      746.38296    
    648000   304.0096       0.0018359364   0.51637081     754.2562      -4.0248851      750.23132    
    649000   296.47748      0.0018359364   1.0154968      735.56881     -4.4097874      731.15902    
    650000   298.16427      0.0018359364   0.9422404      739.75377     -4.4518162      735.30196    
    651000   300.41922      0.0018359364   1.0107873      745.34837     -4.4052072      740.94317    
    652000   304.19161      0.0018359364   1.0069824      754.70777     -4.575537       750.13223    
    653000   303.18763      0.0018359364   1.3388228      752.21686     -4.1299061      748.08695    
    654000   289.58536      0.0018359364   0.86391285     718.46926     -3.8191025      714.65016    
    655000   302.02685      0.0018359364   0.83428979     749.33693     -4.2230258      745.11391    
    656000   309.97234      0.0018359364   0.98069114     769.04992     -3.2353013      765.81462    
    657000   311.04057      0.0018359364   1.4423353      771.70023     -3.5084595      768.19177    
    658000   302.25241      0.0018359364   1.0633647      749.89656     -4.1728876      745.72368    
    659000   286.62289      0.0018359364   0.68945378     711.11929     -2.2726911      708.8466     
    660000   310.54241      0.0018359364   0.91708448     770.46428     -3.5186891      766.94559    
    661000   308.00616      0.0018359364   1.1576138      764.17178     -2.2146098      761.95717    
    662000   294.79683      0.0018359364   1.013575       731.39907     -3.3315421      728.06753    
    663000   295.4381       0.0018359364   0.79617355     732.99006     -3.7797844      729.21027    
    664000   289.02241      0.0018359364   0.98253744     717.07255     -2.0382472      715.03431    
    665000   306.7507       0.0018359364   1.0437685      761.05694     -1.4869086      759.57003    
    666000   313.30628      0.0018359364   1.4148495      777.32151     -3.8393109      773.4822     
    667000   291.35019      0.0018359364   1.1199892      722.84784     -2.3895054      720.45834    
    668000   292.41649      0.0018359364   0.99197308     725.49338     -3.6167873      721.8766     
    669000   301.86882      0.0018359364   1.0800799      748.94487     -1.9996887      746.94518    
    670000   290.58115      0.0018359364   0.87351298     720.93984     -2.5444916      718.39534    
    671000   299.48904      0.0018359364   0.98097898     743.04057     -1.1514199      741.88915    
    672000   301.64192      0.0018359364   1.3296739      748.38193     -2.8997446      745.48218    
    673000   309.35443      0.0018359364   1.0393983      767.51686     -1.6006636      765.9162     
    674000   293.90933      0.0018359364   1.262824       729.19715     -2.4954665      726.70169    
    675000   277.33299      0.0018359364   0.7489721      688.0708      -2.6398398      685.43096    
    676000   308.24797      0.0018359364   0.87845959     764.77171     -1.7739839      762.99773    
    677000   314.24614      0.0018359364   1.1027865      779.65333     -2.9186835      776.73464    
    678000   298.7513       0.0018359364   1.1955947      741.21022     -3.9277316      737.28248    
    679000   290.36439      0.0018359364   0.99853374     720.40206     -3.2794778      717.12258    
    680000   307.4675       0.0018359364   1.0778496      762.83535     -2.5101881      760.32517    
    681000   304.73116      0.0018359364   1.0446815      756.0464      -2.9268434      753.11956    
    682000   300.58276      0.0018359364   0.94565394     745.75412     -3.0937271      742.66039    
    683000   287.10375      0.0018359364   1.0399541      712.31232     -3.9973496      708.31497    
    684000   304.09313      0.0018359364   1.1374386      754.46345     -1.9255412      752.53791    
    685000   314.05651      0.0018359364   1.2234498      779.18285     -2.8928375      776.29002    
    686000   294.16216      0.0018359364   0.71379527     729.82444     -4.5278705      725.29657    
    687000   288.0893       0.0018359364   1.2103441      714.75751     -4.0939837      710.66352    
    688000   326.17037      0.0018359364   1.1126493      809.23769     -4.3400876      804.8976     
    689000   297.81266      0.0018359364   1.0319205      738.88142     -4.5559353      734.32548    
    690000   290.07053      0.0018359364   1.0617563      719.67298     -3.3652129      716.30777    
    691000   291.20976      0.0018359364   0.56836549     722.49945     -3.4821968      719.01725    
    692000   320.5433       0.0018359364   0.43697706     795.27678     -3.7450497      791.53173    
    693000   305.6975       0.0018359364   1.1984612      758.44392     -6.032785       752.41113    
    694000   290.95007      0.0018359364   0.57729833     721.85513     -5.4360155      716.41912    
    695000   302.21809      0.0018359364   0.8979685      749.81142     -4.0674524      745.74396    
    696000   290.35636      0.0018359364   2.1121307      720.38214     -3.8073798      716.57477    
    697000   303.56975      0.0018359364   0.54762646     753.16492     -3.7735042      749.39142    
    698000   302.14813      0.0018359364   0.07845451     749.63784     -3.7688938      745.86894    
    699000   311.0666       0.0018359364   1.1015491      771.76481     -3.7028909      768.06192    
    700000   293.8709       0.0018359364   1.3424077      729.1018      -4.0019309      725.09987    
    701000   292.89035      0.0018359364   0.95629436     726.66902     -3.6669688      723.00205    
    702000   308.82447      0.0018359364   0.25585298     766.20202     -4.2299354      761.97209    
    703000   306.57018      0.0018359364   1.1852992      760.60906     -3.5526301      757.05643    
    704000   302.78601      0.0018359364   1.672345       751.22043     -1.7586392      749.4618     
    705000   296.15694      0.0018359364   1.1979708      734.77352     -1.8937839      732.87974    
    706000   296.15276      0.0018359364  -1.7335631      734.76315     -1.701904       733.06125    
    707000   300.84992      0.0018359364   1.6855423      746.41693     -2.2950879      744.12185    
    708000   289.41522      0.0018359364   1.5340588      718.04714     -2.115758       715.93138    
    709000   298.94395      0.0018359364   1.3560008      741.68818     -2.8218752      738.86631    
    710000   310.85047      0.0018359364  -0.48105507     771.22859     -2.1159536      769.11263    
    711000   296.82463      0.0018359364   1.473106       736.4301      -2.4210258      734.00907    
    712000   298.36085      0.0018359364   2.5207987      740.2415      -2.948649       737.29286    
    713000   301.12089      0.0018359364   1.0180845      747.08924     -2.6724545      744.41678    
    714000   310.9218       0.0018359364  -1.5048935      771.40556     -3.6340058      767.77156    
    715000   300.53245      0.0018359364   1.3634479      745.62929     -3.5828616      742.04642    
    716000   304.03323      0.0018359364   1.5778973      754.31483     -3.5109394      750.80389    
    717000   292.15331      0.0018359364   1.3821038      724.84041     -3.7079333      721.13248    
    718000   295.53997      0.0018359364  -0.078897353    733.2428      -1.0091707      732.23363    
    719000   319.12562      0.0018359364   1.4410457      791.75947     -2.757363       789.00211    
    720000   301.27271      0.0018359364   2.916506       747.4659      -2.8224765      744.64342    
    721000   281.81143      0.0018359364   1.2203662      699.18193     -2.0193899      697.16254    
    722000   303.74196      0.0018359364   0.066626746    753.59218     -4.1543831      749.43779    
    723000   319.95192      0.0018359364   0.89189768     793.80953     -3.5895531      790.21998    
    724000   300.14013      0.0018359364   1.1941491      744.65593     -2.3593621      742.29657    
    725000   287.60284      0.0018359364   0.65128659     713.55057     -3.4129108      710.13766    
    726000   290.35898      0.0018359364   0.81952233     720.38863     -2.3905163      717.99812    
    727000   312.75105      0.0018359364   1.0366941      775.94397     -2.2484127      773.69556    
    728000   310.47651      0.0018359364   1.0573141      770.30077     -3.0076297      767.29314    
    729000   291.63516      0.0018359364   0.92389872     723.55488     -2.9288103      720.62607    
    730000   293.09206      0.0018359364   1.0565145      727.16948     -2.3143119      724.85517    
    731000   313.90421      0.0018359364   1.2422277      778.80499     -2.8544155      775.95058    
    732000   301.82117      0.0018359364   0.61091197     748.82664      0.024460328    748.8511     
    733000   296.38145      0.0018359364   0.90270464     735.33054     -1.4481637      733.88238    
    734000   302.91469      0.0018359364   1.9942141      751.5397      -2.4212956      749.11841    
    735000   305.84798      0.0018359364   1.245385       758.81728     -2.3713022      756.44597    
    736000   300.73834      0.0018359364   1.0374467      746.14011     -2.5716379      743.56847    
    737000   289.4541       0.0018359364   0.61319021     718.1436      -1.0440685      717.09953    
    738000   296.52541      0.0018359364   0.93710097     735.68772     -1.5964287      734.09129    
    739000   309.29435      0.0018359364   0.76012154     767.3678      -2.7262032      764.6416     
    740000   305.67722      0.0018359364   1.2451248      758.39361     -3.61981        754.7738     
    741000   292.98531      0.0018359364   1.3164341      726.90462     -3.0419068      723.86271    
    742000   304.70368      0.0018359364   0.34118528     755.97823     -2.3307083      753.64753    
    743000   310.26912      0.0018359364   0.50920229     769.78624     -1.9511771      767.83506    
    744000   311.75154      0.0018359364   1.1561288      773.46417     -3.0823057      770.38186    
    745000   284.29167      0.0018359364   0.70990567     705.33546     -2.6647714      702.67069    
    746000   297.31837      0.0018359364   0.87293868     737.65507     -1.8804824      735.77458    
    747000   303.08617      0.0018359364   0.97122353     751.96515     -2.5189339      749.44622    
    748000   308.66681      0.0018359364   1.370311       765.81086     -3.221632       762.58923    
    749000   301.28856      0.0018359364   1.1177169      747.50522     -1.1970966      746.30812    
    750000   280.4892       0.0018359364   0.72221431     695.90144     -1.4380891      694.46335    
    751000   308.8513       0.0018359364   0.67008344     766.2686      -3.1796363      763.08896    
    752000   310.10136      0.0018359364   1.4466839      769.37003     -2.659036       766.71099    
    753000   300.71217      0.0018359364   1.4902745      746.07517     -3.9554148      742.11976    
    754000   290.89932      0.0018359364   1.1366301      721.72923     -2.4017492      719.32748    
    755000   299.20711      0.0018359364   0.84519504     742.34109     -3.6887927      738.6523     
    756000   316.45756      0.0018359364   1.2118201      785.13992     -4.7751418      780.36478    
    757000   295.01334      0.0018359364   1.1443232      731.93622     -3.9158978      728.02033    
    758000   294.86351      0.0018359364   0.72743738     731.5645      -4.658204       726.9063     
    759000   306.00434      0.0018359364   1.17768        759.20519     -5.304764       753.90043    
    760000   302.59696      0.0018359364   1.1694053      750.7514      -4.9581916      745.79321    
    761000   288.47096      0.0018359364   0.46702494     715.70441     -5.1950382      710.50938    
    762000   294.95438      0.0018359364   0.8037852      731.78995     -4.4885272      727.30142    
    763000   298.47439      0.0018359364   1.08607        740.5232      -6.0439362      734.47926    
    764000   297.82689      0.0018359364   0.99895548     738.91672     -3.1249803      735.79174    
    765000   302.83303      0.0018359364   1.0213054      751.33709     -3.7760566      747.56103    
    766000   308.13533      0.0018359364   1.0664318      764.49224     -6.676668       757.81557    
    767000   310.85723      0.0018359364   1.1764665      771.24537     -7.3684909      763.87688    
    768000   296.0273       0.0018359364   1.0815809      734.45188     -6.9586312      727.49325    
    769000   301.94447      0.0018359364   0.9737717      749.13256     -5.3595004      743.77306    
    770000   304.70863      0.0018359364   0.028641133    755.99052     -3.274949       752.71557    
    771000   296.12636      0.0018359364   1.6836237      734.69766     -3.4464493      731.25121    
    772000   295.56689      0.0018359364   1.0245593      733.3096      -3.06728        730.24232    
    773000   304.95294      0.0018359364   0.86429043     756.59665     -3.427989       753.16866    
    774000   305.68463      0.0018359364   0.69331292     758.412       -4.9065038      753.50549    
    775000   299.62934      0.0018359364   1.7852464      743.38866     -3.7287817      739.65988    
    776000   296.06002      0.0018359364   0.90535121     734.53308     -3.7320818      730.80099    
    777000   304.85924      0.0018359364   0.091134701    756.36417     -2.7612767      753.60289    
    778000   304.36127      0.0018359364   1.0201823      755.1287      -2.9452996      752.1834     
    779000   310.26328      0.0018359364   1.1280194      769.77175     -2.8263655      766.94539    
    780000   286.3521       0.0018359364   0.98489584     710.44746     -4.0539339      706.39353    
    781000   299.79253      0.0018359364   1.0806362      743.79353     -1.6968264      742.0967     
    782000   318.97484      0.0018359364   1.0890213      791.38537     -2.5904851      788.79488    
    783000   294.30508      0.0018359364   1.109391       730.17901     -4.0426984      726.13631    
    784000   289.30488      0.0018359364   1.0652548      717.77339     -4.1413751      713.63201    
    785000   297.64044      0.0018359364   1.0273072      738.45413     -4.0084826      734.44564    
    786000   308.64822      0.0018359364   1.0245402      765.76475     -3.677549       762.0872     
    787000   289.55307      0.0018359364   0.94773001     718.38915     -4.548705       713.84045    
    788000   292.12175      0.0018359364   0.79314681     724.76212     -4.8702195      719.8919     
    789000   303.56899      0.0018359364   1.0378767      753.16304     -4.7838211      748.37922    
    790000   308.54966      0.0018359364   1.1039765      765.52021     -5.2692655      760.25094    
    791000   291.89589      0.0018359364   0.95351447     724.20174     -7.9874251      716.21431    
    792000   292.81079      0.0018359364   0.98003182     726.47164     -8.6208058      717.85083    
    793000   304.43569      0.0018359364   1.0452502      755.31334     -7.5724634      747.74088    
    794000   304.83523      0.0018359364   0.75695836     756.30461     -7.7682065      748.5364     
    795000   285.38286      0.0018359364   0.93754412     708.04274     -3.7941933      704.24855    
    796000   286.96684      0.0018359364   0.60404587     711.97264     -5.1849173      706.78772    
    797000   313.47153      0.0018359364   1.0989717      777.7315      -5.121888       772.60961    
    798000   309.88913      0.0018359364   1.1200873      768.84346     -4.5026431      764.34082    
    799000   287.12242      0.0018359364   0.78498552     712.35863     -5.0062296      707.35241    
    800000   300.10694      0.0018359364   0.70749887     744.5736      -4.0181905      740.55541    
    801000   307.44106      0.0018359364   2.1671495      762.76975     -4.6512151      758.11854    
    802000   302.93439      0.0018359364   1.0783835      751.58856     -3.6390459      747.94952    
    803000   300.50132      0.0018359364   0.51937962     745.55205     -2.6599783      742.89207    
    804000   302.51614      0.0018359364   1.1434941      750.55087     -3.7449518      746.80592    
    805000   298.10178      0.0018359364   1.1869728      739.59874     -4.0432763      735.55547    
    806000   307.32654      0.0018359364   0.40164116     762.48563     -3.9097073      758.57592    
    807000   306.94283      0.0018359364   1.7829363      761.53362     -4.7257217      756.8079     
    808000   301.46753      0.0018359364   1.6224412      747.94924     -3.6509097      744.29834    
    809000   291.73185      0.0018359364  -0.19726883     723.79476     -4.5024678      719.29229    
    810000   304.98481      0.0018359364  -1.2650697      756.67571     -5.3932685      751.28244    
    811000   296.96157      0.0018359364   1.4981969      736.76984     -5.2923062      731.47753    
    812000   289.8635       0.0018359364   2.561846       719.15934     -5.4860176      713.67332    
    813000   302.3899       0.0018359364  -0.34344653     750.23767     -7.4864555      742.75121    
    814000   310.43565      0.0018359364   0.97681518     770.1994      -5.9164949      764.2829     
    815000   300.90179      0.0018359364   2.6869709      746.54563     -5.5526175      740.99302    
    816000   295.23536      0.0018359364   1.0369898      732.48707     -4.1415398      728.34553    
    817000   297.06294      0.0018359364  -0.84750262     737.02135     -5.5142832      731.50707    
    818000   322.53492      0.0018359364   2.4023167      800.21802     -6.9334923      793.28453    
    819000   295.37738      0.0018359364   1.1392069      732.83942     -5.8391705      727.00025    
    820000   299.41993      0.0018359364   0.51743677     742.8691      -6.2583238      736.61077    
    821000   314.16471      0.0018359364   1.8790476      779.45131     -5.230919       774.22039    
    822000   303.91199      0.0018359364   2.2854932      754.01403     -5.2938534      748.72018    
    823000   287.34484      0.0018359364  -0.66216264     712.91047     -6.2260399      706.68443    
    824000   295.25633      0.0018359364   1.2674447      732.53909     -6.9135259      725.62557    
    825000   302.66811      0.0018359364   2.2757516      750.92792     -7.6529835      743.27494    
    826000   287.77409      0.0018359364   1.1075971      713.97545     -8.5064087      705.46904    
    827000   301.55792      0.0018359364   0.41976863     748.17352     -5.7476912      742.42583    
    828000   316.36782      0.0018359364   0.88831749     784.91728     -4.8632612      780.05402    
    829000   297.90974      0.0018359364   1.528354       739.12228     -3.9896995      735.13258    
    830000   290.65113      0.0018359364   1.0608143      721.11346     -4.7514367      716.36203    
    831000   305.46819      0.0018359364  -0.63364346     757.87501     -2.8584385      755.01657    
    832000   311.54347      0.0018359364   1.557116       772.94795     -3.49144        769.45651    
    833000   299.72924      0.0018359364   1.0768284      743.63651     -3.4153169      740.22119    
    834000   280.90195      0.0018359364   0.19038357     696.92549     -2.5812679      694.34422    
    835000   311.77145      0.0018359364   0.98821621     773.51356     -4.1909546      769.32261    
    836000   304.09498      0.0018359364   1.7500219      754.46802     -4.1566268      750.31139    
    837000   290.22558      0.0018359364   1.1513453      720.05766     -3.2606576      716.797      
    838000   298.08605      0.0018359364   0.37144824     739.55971     -3.3871498      736.17256    
    839000   315.52726      0.0018359364   0.87719351     782.83183     -3.5973744      779.23446    
    840000   307.54958      0.0018359364   1.0872508      763.03898     -5.3789971      757.65998    
    841000   299.8133       0.0018359364   1.3741591      743.84507     -5.5653635      738.2797     
    842000   289.752        0.0018359364  -0.014608879    718.88269     -3.9188976      714.96379    
    843000   292.05269      0.0018359364   0.16825905     724.59078     -4.3629513      720.22783    
    844000   308.05907      0.0018359364   1.4887819      764.30304     -1.5157349      762.78731    
    845000   305.99428      0.0018359364   1.0780877      759.18025     -3.7008075      755.47944    
    846000   291.08828      0.0018359364   0.7827334      722.19804     -4.0047277      718.19331    
    847000   300.72266      0.0018359364   0.44938113     746.10121     -4.7600766      741.34114    
    848000   300.53745      0.0018359364   2.1024791      745.6417      -3.8874288      741.75427    
    849000   299.45382      0.0018359364   0.94547035     742.95317     -2.8319828      740.12119    
    850000   300.52911      0.0018359364   0.36372021     745.621       -5.6585301      739.96247    
    851000   304.32615      0.0018359364   0.30458504     755.04156     -6.2933453      748.74822    
    852000   299.81251      0.0018359364   0.94834142     743.8431      -5.5273995      738.3157     
    853000   289.381        0.0018359364   1.3056413      717.96224     -5.5908868      712.37135    
    854000   302.9097       0.0018359364   0.28186674     751.52733     -2.8925283      748.6348     
    855000   312.41693      0.0018359364   1.2813272      775.11501     -4.1035238      771.01148    
    856000   297.26251      0.0018359364   1.6654013      737.51649     -2.9778922      734.5386     
    857000   290.37768      0.0018359364   0.98368673     720.43502     -3.8128896      716.62214    
    858000   303.69574      0.0018359364   1.0594943      753.47749     -3.4236301      750.05386    
    859000   315.30265      0.0018359364   1.961191       782.27457     -3.0647471      779.20983    
    860000   297.64305      0.0018359364   1.0238659      738.46061     -2.8608194      735.59979    
    861000   304.43166      0.0018359364   0.92294083     755.30334     -4.2924171      751.01092    
    862000   300.95481      0.0018359364   0.50906944     746.67718     -2.8583729      743.81881    
    863000   295.56088      0.0018359364   2.0717063      733.29468     -4.8546701      728.44001    
    864000   297.82883      0.0018359364   1.3246185      738.92154     -4.2150126      734.70652    
    865000   317.0956       0.0018359364  -0.10601642     786.72293     -4.0113593      782.71157    
    866000   288.57563      0.0018359364   0.28761042     715.9641      -2.6548735      713.30923    
    867000   297.81014      0.0018359364   1.3571536      738.87516     -4.0972659      734.77789    
    868000   311.86342      0.0018359364   0.86704033     773.74173     -4.2794366      769.4623     
    869000   300.74344      0.0018359364   1.0413576      746.15276     -4.2199619      741.9328     
    870000   305.79531      0.0018359364   2.6744338      758.6866      -4.7408447      753.94575    
    871000   300.12065      0.0018359364   0.87798022     744.6076      -3.6461029      740.96149    
    872000   304.9588       0.0018359364   0.27911293     756.61119     -4.6002448      752.01095    
    873000   298.1849       0.0018359364   1.2536526      739.80496     -2.4967984      737.30817    
    874000   288.71258      0.0018359364   2.3965225      716.30388     -2.6045615      713.69932    
    875000   296.34407      0.0018359364   0.77566233     735.2378      -4.8878423      730.34995    
    876000   298.84483      0.0018359364   0.47790119     741.44227     -3.6101185      737.83215    
    877000   297.29284      0.0018359364   1.2275723      737.59172     -4.1123334      733.47939    
    878000   304.31542      0.0018359364   1.0566499      755.01495     -3.2000298      751.81492    
    879000   297.60467      0.0018359364   1.0716759      738.3654      -3.4865656      734.87883    
    880000   300.01391      0.0018359364   1.0461274      744.34278     -4.4471181      739.89566    
    881000   296.62666      0.0018359364   0.77373076     735.93893     -3.3514319      732.5875     
    882000   300.63591      0.0018359364   0.3480993      745.88599     -2.6650452      743.22094    
    883000   305.14404      0.0018359364   0.78942806     757.07076     -3.1785697      753.89219    
    884000   316.82906      0.0018359364   2.3635277      786.06164     -3.2055386      782.8561     
    885000   295.24178      0.0018359364   0.95410844     732.503       -4.3219708      728.18103    
    886000   289.12844      0.0018359364   0.91909724     717.33563     -3.1592307      714.17639    
    887000   303.33438      0.0018359364   0.69041419     752.58096     -2.5615126      750.01944    
    888000   314.0321       0.0018359364   1.5136004      779.1223      -3.1561221      775.96618    
    889000   296.03419      0.0018359364   1.1696671      734.46897     -3.0317306      731.43724    
    890000   278.02403      0.0018359364   0.72507288     689.78527     -3.9028185      685.88245    
    891000   309.01934      0.0018359364   0.63205772     766.68551     -3.2382178      763.44729    
    892000   314.90596      0.0018359364   1.7086161      781.29036     -3.7133855      777.57698    
    893000   289.45049      0.0018359364   1.559914       718.13463     -2.9091392      715.22549    
    894000   293.73434      0.0018359364   0.99098228     728.763       -2.6184518      726.14455    
    895000   295.07916      0.0018359364   1.5333191      732.09954     -4.8557432      727.24379    
    896000   288.61431      0.0018359364   0.4489824      716.06005     -3.1997672      712.86028    
    897000   303.51735      0.0018359364   0.85914251     753.03492     -2.6106306      750.42429    
    898000   307.82678      0.0018359364   1.7168806      763.72674     -1.9627981      761.76394    
    899000   303.54858      0.0018359364   1.094088       753.1124      -4.6133626      748.49904    
    900000   290.87415      0.0018359364   1.1245495      721.66677     -2.5849448      719.08183    
    901000   298.82541      0.0018359364   0.31256772     741.39409     -3.8263245      737.56776    
    902000   309.93967      0.0018359364   1.0484211      768.96886     -3.3701984      765.59866    
    903000   308.20935      0.0018359364   1.5365375      764.67588     -4.3496069      760.32628    
    904000   299.78316      0.0018359364   0.98833834     743.77028     -4.8949509      738.87533    
    905000   296.63659      0.0018359364   0.70978472     735.96356     -4.8248707      731.13869    
    906000   305.4804       0.0018359364   1.0518609      757.90528     -4.9899882      752.9153     
    907000   311.33906      0.0018359364   1.0976874      772.4408      -4.7707575      767.67004    
    908000   290.22094      0.0018359364   0.98118599     720.04615     -4.424121       715.62203    
    909000   304.10544      0.0018359364   0.65239464     754.49398     -5.1577898      749.33619    
    910000   313.30373      0.0018359364   1.7133503      777.3152      -4.6993888      772.61581    
    911000   289.58188      0.0018359364   0.97761725     718.46063     -7.0411071      711.41952    
    912000   300.29211      0.0018359364   0.87567666     745.033       -5.4989399      739.53406    
    913000   319.15873      0.0018359364   1.1702644      791.8416      -3.1243679      788.71724    
    914000   303.91022      0.0018359364   1.2117416      754.00964     -4.9148143      749.09483    
    915000   291.82413      0.0018359364   0.94617806     724.02371     -5.9465543      718.07715    
    916000   310.83665      0.0018359364   1.1807288      771.19431     -4.6953262      766.49898    
    917000   304.71161      0.0018359364   1.1937502      755.99792     -5.5916201      750.4063     
    918000   299.29426      0.0018359364   1.3501567      742.55731     -6.288888       736.26842    
    919000   281.26432      0.0018359364   0.78219121     697.82452     -7.2255149      690.59901    
    920000   290.80956      0.0018359364   1.0657524      721.50653     -4.2963311      717.2102     
    921000   302.15513      0.0018359364   0.9850375      749.6552      -4.8303988      744.82481    
    922000   310.34566      0.0018359364   1.4185104      769.97615     -3.1857253      766.79042    
    923000   283.94908      0.0018359364   0.98224062     704.48549     -3.5682886      700.9172     
    924000   297.95105      0.0018359364   1.2787687      739.22476     -1.9389623      737.2858     
    925000   303.26576      0.0018359364   0.27773237     752.41072     -4.0225682      748.38815    
    926000   295.53153      0.0018359364   1.3065878      733.22187     -6.576119       726.64575    
    927000   313.88751      0.0018359364   1.485411       778.76357     -5.1136831      773.64989    
    928000   299.83248      0.0018359364   0.95707623     743.89265     -5.1612229      738.73143    
    929000   292.68926      0.0018359364   0.61278395     726.17012     -3.8080849      722.36204    
    930000   305.3222       0.0018359364   2.5994664      757.5128      -4.35242        753.16038    
    931000   303.17477      0.0018359364   0.92767212     752.18497     -3.7509498      748.43402    
    932000   295.40083      0.0018359364  -0.35469493     732.89759     -4.293282       728.60431    
    933000   289.57676      0.0018359364   1.9803938      718.44791     -7.148709       711.2992     
    934000   295.72015      0.0018359364   1.6218357      733.68984     -7.334927       726.35491    
    935000   307.6696       0.0018359364   2.0759914      763.33676     -4.5184502      758.81831    
    936000   306.84675      0.0018359364   0.71175095     761.29524     -3.1653167      758.12992    
    937000   298.57778      0.0018359364   1.0893781      740.7797      -3.8841131      736.89559    
    938000   300.32899      0.0018359364   1.7250401      745.12451     -4.7589938      740.36551    
    939000   312.07055      0.0018359364   1.1927619      774.25564     -5.6712307      768.58441    
    940000   300.11879      0.0018359364   0.91161987     744.60299     -4.6505777      739.95242    
    941000   291.7217       0.0018359364   0.96751498     723.76957     -5.0278298      718.74174    
    942000   306.92226      0.0018359364   0.83313324     761.48259     -3.5076489      757.97495    
    943000   309.89476      0.0018359364   0.98329238     768.85743     -4.39907        764.45836    
    944000   293.86062      0.0018359364   0.88383324     729.0763      -3.5088753      725.56743    
    945000   285.52182      0.0018359364   0.89799398     708.3875      -5.4827175      702.90479    
    946000   301.41017      0.0018359364   1.5475276      747.80694     -4.6241617      743.18278    
    947000   326.36998      0.0018359364   0.39032099     809.73292     -4.4231433      805.30978    
    948000   307.52039      0.0018359364   0.75663894     762.96656     -4.9004232      758.06613    
    949000   295.02885      0.0018359364   0.98557902     731.97472     -4.0209106      727.95381    
    950000   308.84337      0.0018359364   1.1013885      766.24891     -2.3173651      763.93155    
    951000   315.44317      0.0018359364   1.0471066      782.62319     -1.0952007      781.52799    
    952000   290.85228      0.0018359364   0.8623988      721.61251     -2.7663839      718.84613    
    953000   298.81924      0.0018359364   1.0022715      741.37878     -0.82108105     740.55769    
    954000   302.29967      0.0018359364   1.0026193      750.01382     -1.5658458      748.44798    
    955000   294.18113      0.0018359364   1.2647         729.8715      -1.4841254      728.38738    
    956000   300.44357      0.0018359364   0.81090872     745.40879     -2.5185451      742.89025    
    957000   307.65553      0.0018359364   0.033983552    763.30185     -2.2899256      761.01192    
    958000   303.43138      0.0018359364   0.77477349     752.82163     -3.8176915      749.00394    
    959000   305.06538      0.0018359364   1.3090314      756.87562     -3.0581027      753.81752    
    960000   309.94785      0.0018359364   0.98837041     768.98916     -2.5309981      766.45816    
    961000   291.54286      0.0018359364   0.88576281     723.32587     -2.8052427      720.52063    
    962000   298.80124      0.0018359364   1.1830614      741.33411     -3.0065093      738.3276     
    963000   312.15701      0.0018359364   0.98114202     774.47015     -2.8430099      771.62714    
    964000   306.83131      0.0018359364   0.9626534      761.25695     -2.9608065      758.29614    
    965000   298.64514      0.0018359364   0.96709466     740.94683     -3.2536998      737.69313    
    966000   291.24152      0.0018359364   1.2487004      722.57825     -3.5153823      719.06287    
    967000   292.21202      0.0018359364   1.1652832      724.98606     -3.8983409      721.08772    
    968000   300.74936      0.0018359364   1.4876618      746.16746     -4.1774364      741.99002    
    969000   317.36247      0.0018359364   0.070341142    787.38503     -2.2133739      785.17165    
    970000   296.36866      0.0018359364   0.95033856     735.29882     -2.1437966      733.15503    
    971000   295.41927      0.0018359364   1.371215       732.94336     -1.9613623      730.98199    
    972000   309.37199      0.0018359364   1.1124429      767.56042     -3.8247126      763.73571    
    973000   293.60167      0.0018359364   0.27421231     728.43384     -5.4406875      722.99316    
    974000   286.67247      0.0018359364   1.2490581      711.2423      -3.722253       707.52005    
    975000   305.71536      0.0018359364   1.7792117      758.48825     -2.8412814      755.64696    
    976000   311.96608      0.0018359364   0.4127341      773.99645     -4.6863411      769.31011    
    977000   294.12517      0.0018359364   0.791269       729.73266     -4.3761238      725.35654    
    978000   294.15596      0.0018359364   1.0364195      729.80905     -4.9042317      724.90482    
    979000   306.3718       0.0018359364   1.3964232      760.11689     -6.1495735      753.96731    
    980000   300.67627      0.0018359364   1.0459203      745.98612     -5.2921864      740.69393    
    981000   303.76406      0.0018359364   1.1699305      753.64701     -8.1049639      745.54204    
    982000   303.22697      0.0018359364   1.2575355      752.31448     -7.9377903      744.37668    
    983000   303.03088      0.0018359364   0.72969658     751.82796     -3.5299931      748.29796    
    984000   300.6344       0.0018359364   0.68441028     745.88222     -5.8795911      740.00263    
    985000   293.15361      0.0018359364   1.4343199      727.32218     -4.5388373      722.78334    
    986000   295.81657      0.0018359364   1.3517009      733.92906     -2.8077231      731.12133    
    987000   300.25103      0.0018359364   1.0855824      744.93108     -3.1076746      741.82341    
    988000   301.63667      0.0018359364   1.3520119      748.36889     -3.2108879      745.158      
    989000   299.76888      0.0018359364   0.98512215     743.73485     -0.85012396     742.88473    
    990000   308.71065      0.0018359364   1.402223       765.91963     -2.7172194      763.20241    
    991000   283.35716      0.0018359364   0.89976962     703.01694     -4.0089476      699.00799    
    992000   307.58701      0.0018359364   0.91164202     763.13186     -3.4083282      759.72353    
    993000   318.90428      0.0018359364   1.1573613      791.21031     -5.2221688      785.98814    
    994000   294.50436      0.0018359364   0.93084477     730.67343     -3.5065485      727.16688    
    995000   289.21717      0.0018359364   1.01504        717.55578     -3.9558647      713.59991    
    996000   299.38684      0.0018359364   1.0100286      742.787       -2.5843448      740.20266    
    997000   308.19643      0.0018359364   1.0460866      764.64384     -2.7982145      761.84563    
    998000   303.1632       0.0018359364   1.1548864      752.15626     -4.5879978      747.56826    
    999000   292.58819      0.0018359364   1.3268461      725.91937     -4.1756695      721.7437     
   1000000   298.65286      0.0018359364   0.98747513     740.96597     -5.2779933      735.68797    
   1001000   305.7804       0.0018359364   0.76667694     758.64959     -7.1769383      751.47265    
   1002000   294.56755      0.0018359364   1.0266908      730.83021     -5.9060844      724.92412    
   1003000   303.14716      0.0018359364   1.0821644      752.11646     -5.7807871      746.33567    
   1004000   289.40549      0.0018359364   0.93548118     718.023       -4.3799311      713.64307    
   1005000   303.2706       0.0018359364   0.92665706     752.42272     -3.885905       748.53681    
   1006000   301.26767      0.0018359364   0.97996813     747.4534      -4.6232675      742.83013    
   1007000   298.89401      0.0018359364   0.91288611     741.56428     -4.3625735      737.2017     
   1008000   293.09535      0.0018359364   0.83939733     727.17763     -5.4383384      721.73929    
   1009000   302.09893      0.0018359364   1.4368683      749.51578     -4.6278809      744.88789    
   1010000   305.80028      0.0018359364   0.99839355     758.69892     -6.6033675      752.09556    
   1011000   277.01644      0.0018359364   0.77104923     687.28542     -5.754473       681.53094    
   1012000   301.20633      0.0018359364   1.2408924      747.3012      -5.0878152      742.21338    
   1013000   298.01845      0.0018359364   1.4702205      739.39198     -4.7211166      734.67086    
   1014000   309.96497      0.0018359364   1.1974624      769.03163     -4.374305       764.65732    
   1015000   305.58222      0.0018359364   0.76204668     758.15792     -5.6663175      752.49161    
   1016000   296.71209      0.0018359364   1.0669051      736.15087     -5.8859978      730.26487    
   1017000   298.64828      0.0018359364   1.013438       740.95462     -6.3290446      734.62557    
   1018000   305.72488      0.0018359364   0.58232043     758.51186     -5.2807359      753.23113    
   1019000   304.69268      0.0018359364   1.1017125      755.95094     -4.6236693      751.32727    
   1020000   298.81172      0.0018359364   1.0649259      741.36011     -7.3520712      734.00804    
   1021000   304.89876      0.0018359364   1.0092232      756.46224     -3.8563903      752.60585    
   1022000   301.83581      0.0018359364   0.8112671      748.86298     -4.3194813      744.5435     
   1023000   300.32172      0.0018359364   0.7777532      745.10646     -5.1266593      739.9798     
   1024000   291.53622      0.0018359364   0.89429236     723.3094      -7.1476146      716.16179    
   1025000   296.23769      0.0018359364   1.5285593      734.97387     -7.1482885      727.82558    
   1026000   309.50216      0.0018359364   1.0474459      767.88339     -3.4876885      764.3957     
   1027000   301.7745       0.0018359364   1.0633698      748.71084     -5.3609622      743.34988    
   1028000   284.56451      0.0018359364   1.6143946      706.01238     -4.7668151      701.24557    
   1029000   304.02845      0.0018359364   0.45602275     754.30297     -5.9770709      748.3259     
   1030000   309.23949      0.0018359364   1.5005742      767.23171     -5.223145       762.00856    
   1031000   306.32682      0.0018359364   1.3124245      760.00529     -4.322134       755.68315    
   1032000   290.40384      0.0018359364   1.0157605      720.49993     -4.7119674      715.78797    
   1033000   292.02165      0.0018359364   1.011876       724.51376     -5.4551965      719.05857    
   1034000   298.25525      0.0018359364   0.14892974     739.9795      -5.1308667      734.84863    
   1035000   308.24251      0.0018359364   0.74936282     764.75817     -5.8283664      758.92981    
   1036000   302.45971      0.0018359364   1.0980326      750.41088     -4.3162586      746.09462    
   1037000   290.33193      0.0018359364   1.1911701      720.32151     -3.7038449      716.61767    
   1038000   300.14789      0.0018359364   0.092755451    744.6752      -4.2845376      740.39066    
   1039000   313.67656      0.0018359364   1.7635683      778.2402      -4.6814435      773.55876    
   1040000   281.92538      0.0018359364   1.4471061      699.46464     -5.1410498      694.32359    
   1041000   292.85502      0.0018359364   0.012189455    726.58137     -4.1279258      722.45344    
   1042000   306.05643      0.0018359364   1.0499839      759.33445     -6.6290425      752.7054     
   1043000   305.81934      0.0018359364   1.9069057      758.74621     -5.3902699      753.35594    
   1044000   299.50654      0.0018359364   0.17059559     743.08398     -2.9648799      740.1191     
   1045000   316.37664      0.0018359364   0.68246513     784.93916     -4.9692221      779.96994    
   1046000   286.92073      0.0018359364   1.8280883      711.85825     -2.5982516      709.25999    
   1047000   297.56477      0.0018359364  -0.059342245    738.26641     -6.0022896      732.26412    
   1048000   311.2034       0.0018359364  -0.41880797     772.10422     -4.6352254      767.46899    
   1049000   301.30703      0.0018359364   1.7162872      747.55105     -6.0642937      741.48676    
   1050000   292.32071      0.0018359364   1.5210357      725.25574     -5.378908       719.87683    
   1051000   276.69049      0.0018359364   1.2325124      686.47672     -4.027061       682.44966    
   1052000   305.48605      0.0018359364   0.47172955     757.91931     -1.6726275      756.24668    
   1053000   315.63711      0.0018359364   1.2849732      783.10438     -3.9213594      779.18302    
   1054000   300.32746      0.0018359364   1.8050674      745.12071     -4.8303185      740.29039    
   1055000   288.46945      0.0018359364   1.3166964      715.70066     -6.3563495      709.34431    
   1056000   298.06779      0.0018359364  -0.0089317228   739.5144      -5.8309458      733.68345    
   1057000   318.28994      0.0018359364   0.87851801     789.68612     -6.7852216      782.90089    
   1058000   299.13353      0.0018359364   1.2190113      742.15853     -5.6642733      736.49426    
   1059000   288.56876      0.0018359364   0.91293734     715.94705     -6.5383428      709.40871    
   1060000   298.05097      0.0018359364   1.0333669      739.47267     -5.8251769      733.64749    
   1061000   304.94944      0.0018359364   1.0648675      756.58796     -6.2846137      750.30335    
   1062000   301.17153      0.0018359364   0.96006706     747.21488     -6.1825363      741.03234    
   1063000   303.45872      0.0018359364   0.80226207     752.88944     -5.5758112      747.31363    
   1064000   301.49234      0.0018359364   1.0281207      748.0108      -4.4991287      743.51167    
   1065000   309.52244      0.0018359364   1.0403987      767.9337      -4.7549235      763.17878    
   1066000   302.7082       0.0018359364   1.2461567      751.02739     -4.7774695      746.24992    
   1067000   290.64449      0.0018359364   0.83096591     721.09698     -2.6710289      718.42595    
   1068000   298.28608      0.0018359364   0.86722825     740.05599     -4.1573402      735.89865    
   1069000   304.68777      0.0018359364   0.69091095     755.93875     -3.8852704      752.05348    
   1070000   303.36393      0.0018359364   1.3829605      752.65428     -2.8370285      749.81725    
   1071000   297.66143      0.0018359364   0.84198773     738.50622     -2.2275049      736.27872    
   1072000   302.83112      0.0018359364   0.62696739     751.33236     -3.5797951      747.75257    
   1073000   305.95105      0.0018359364   1.0440033      759.073       -3.4555579      755.61744    
   1074000   287.14454      0.0018359364   0.63431778     712.41352     -6.2629029      706.15061    
   1075000   297.95348      0.0018359364   1.1517697      739.23079     -4.5767265      734.65406    
   1076000   306.80033      0.0018359364   1.4907958      761.18007     -7.028036       754.15203    
   1077000   309.7129       0.0018359364   1.3853857      768.40623     -7.1298307      761.2764     
   1078000   299.67245      0.0018359364   0.75339942     743.4956      -4.1876274      739.30797    
   1079000   299.58424      0.0018359364   0.52284549     743.27677     -5.7144503      737.56232    
   1080000   301.89002      0.0018359364   1.0943946      748.99747     -7.1876176      741.80985    
   1081000   304.59024      0.0018359364   1.2192676      755.69678     -6.1883583      749.50843    
   1082000   300.97993      0.0018359364   0.90461338     746.73951     -5.8930629      740.84645    
   1083000   297.96251      0.0018359364   0.83614773     739.25321     -5.2843296      733.96888    
   1084000   308.73361      0.0018359364   1.7927618      765.97659     -5.2475008      760.72909    
   1085000   305.29697      0.0018359364   1.1042101      757.45021     -7.7086019      749.74161    
   1086000   289.29102      0.0018359364   1.1082218      717.73899     -5.9860515      711.75294    
   1087000   295.15214      0.0018359364   0.76317174     732.2806      -8.0958245      724.18477    
   1088000   306.76429      0.0018359364   0.67247042     761.09065     -2.9724168      758.11824    
   1089000   298.47282      0.0018359364   2.0821241      740.51929     -4.0446739      736.47461    
   1090000   293.3633       0.0018359364   1.1081756      727.84243     -4.5734994      723.26893    
   1091000   289.8946       0.0018359364   0.80473882     719.2365      -6.0499905      713.18651    
   1092000   309.958        0.0018359364   0.95352165     769.01435     -3.3956581      765.6187     
   1093000   301.4379       0.0018359364   1.2916932      747.87573     -3.5812071      744.29452    
   1094000   295.10666      0.0018359364   1.2877301      732.16776     -3.5721274      728.59563    
   1095000   290.75684      0.0018359364   0.37468501     721.37573     -5.2857827      716.08995    
   1096000   307.93456      0.0018359364   0.96393265     763.99412     -1.4317529      762.56237    
   1097000   303.68667      0.0018359364   1.7265813      753.45499     -1.9736375      751.48136    
   1098000   289.67642      0.0018359364   0.98461931     718.69519     -2.8070006      715.88819    
   1099000   303.20908      0.0018359364   0.47812419     752.27008     -2.820876       749.4492     
   1100000   307.34481      0.0018359364   1.2713406      762.53095     -3.0797202      759.45123    
   1101000   293.67372      0.0018359364   1.3821707      728.61259     -1.9477229      726.66487    
   1102000   294.03618      0.0018359364   0.70850284     729.51186     -3.3378889      726.17397    
   1103000   300.89423      0.0018359364   0.93310391     746.52687     -2.1005068      744.42637    
   1104000   300.64263      0.0018359364   0.99631704     745.90264     -2.2587114      743.64393    
   1105000   299.25127      0.0018359364   1.2809312      742.45066     -2.4190875      740.03157    
   1106000   295.06314      0.0018359364   1.1068832      732.05979     -2.2239113      729.83587    
   1107000   294.19103      0.0018359364   0.87847925     729.89604     -3.1929194      726.70312    
   1108000   302.36838      0.0018359364   1.0292623      750.1843      -2.2109193      747.97338    
   1109000   307.27007      0.0018359364   1.0541854      762.34552     -3.3175448      759.02797    
   1110000   304.71769      0.0018359364   0.4009023      756.013       -4.4127456      751.60025    
   1111000   290.42508      0.0018359364   0.6089399      720.55264     -2.7390231      717.81361    
   1112000   296.02985      0.0018359364   1.2311819      734.45822     -3.8118022      730.64641    
   1113000   305.23539      0.0018359364   1.4661085      757.29742     -4.3881056      752.90931    
   1114000   318.79443      0.0018359364   0.36365873     790.93776     -3.8762375      787.06153    
   1115000   296.76801      0.0018359364   0.27983432     736.28962     -3.8962553      732.39337    
   1116000   282.77944      0.0018359364   2.7652824      701.58358     -2.837169       698.74641    
   1117000   285.6229       0.0018359364   1.8340854      708.6383      -2.6567928      705.9815     
   1118000   319.41356      0.0018359364   0.83621951     792.47385     -5.5506237      786.92323    
   1119000   292.46107      0.0018359364   0.79355237     725.60397     -4.6659106      720.93806    
   1120000   280.00297      0.0018359364   1.89409        694.69508     -4.5268085      690.16827    
   1121000   310.22433      0.0018359364   1.2732225      769.67511     -3.1628282      766.51228    
   1122000   308.64049      0.0018359364   0.31773484     765.74556     -3.6651759      762.08039    
   1123000   286.48957      0.0018359364   1.1359984      710.78852     -2.6982656      708.09025    
   1124000   298.6841       0.0018359364   1.4185456      741.04349     -1.950451       739.09304    
   1125000   305.76969      0.0018359364  -0.6291522      758.62303     -3.1588273      755.4642     
   1126000   304.35616      0.0018359364   0.53274578     755.11602     -3.1151109      752.00091    
   1127000   306.15557      0.0018359364   1.4217771      759.5804      -2.0713863      757.50902    
   1128000   299.81438      0.0018359364   1.1118343      743.84774     -2.2808453      741.5669     
   1129000   297.38793      0.0018359364   0.83829946     737.82766     -3.0418876      734.78577    
   1130000   301.0834       0.0018359364   0.18533413     746.99621     -3.6516448      743.34457    
   1131000   302.81103      0.0018359364   0.19875375     751.28252     -5.3124033      745.97012    
   1132000   297.28378      0.0018359364   1.3011317      737.56926     -4.3200957      733.24916    
   1133000   303.30077      0.0018359364   1.1762954      752.49758     -1.8916232      750.60596    
   1134000   311.10411      0.0018359364   0.79723147     771.85788     -2.8175417      769.04034    
   1135000   309.27653      0.0018359364   0.28837545     767.32361     -3.413738       763.90987    
   1136000   289.9435       0.0018359364   0.33835713     719.35781     -2.5397367      716.81808    
   1137000   298.29532      0.0018359364   1.7568601      740.0789      -5.5196374      734.55926    
   1138000   309.80704      0.0018359364   0.45302719     768.6398      -3.5830819      765.05672    
   1139000   304.48001      0.0018359364   0.13313234     755.42329     -2.3780673      753.04522    
   1140000   289.71231      0.0018359364   1.0937165      718.78423     -3.8112718      714.97296    
   1141000   300.34203      0.0018359364   1.6561177      745.15685     -2.8668025      742.29004    
   1142000   305.11065      0.0018359364   0.59773172     756.98794     -3.0858076      753.90213    
   1143000   307.3519       0.0018359364   0.87776058     762.54854     -5.0108526      757.53769    
   1144000   297.23945      0.0018359364   1.2246289      737.45926     -3.1517022      734.30756    
   1145000   307.36206      0.0018359364   0.8053138      762.57375     -2.3878429      760.1859     
   1146000   315.68074      0.0018359364   0.16981003     783.21261     -1.7474459      781.46516    
   1147000   292.36376      0.0018359364   0.70732719     725.36254     -2.2551381      723.1074     
   1148000   304.28611      0.0018359364   2.3075204      754.94223     -3.4948846      751.44735    
   1149000   306.33484      0.0018359364  -0.17928069     760.02518     -1.6978224      758.32736    
   1150000   308.06712      0.0018359364  -0.021034076    764.32302     -1.7153954      762.60763    
   1151000   294.48083      0.0018359364   2.7937914      730.61506     -6.1002263      724.51483    
   1152000   289.75465      0.0018359364   1.4967356      718.88927     -6.1274402      712.76183    
   1153000   306.13933      0.0018359364  -0.52163734     759.54013     -5.2369913      754.30314    
   1154000   299.60401      0.0018359364   0.29191054     743.32581     -3.1379345      740.18787    
   1155000   300.30263      0.0018359364   2.0395767      745.05909     -2.1033955      742.9557     
   1156000   304.33963      0.0018359364   1.9102332      755.07502     -2.293055       752.78196    
   1157000   305.70734      0.0018359364   0.63019668     758.46835     -1.1434654      757.32488    
   1158000   288.18085      0.0018359364   0.12688256     714.98463     -2.7429403      712.24169    
   1159000   303.80575      0.0018359364   0.97563641     753.75045     -3.2052241      750.54522    
   1160000   293.21452      0.0018359364   2.0209715      727.47331     -2.9336648      724.53964    
   1161000   286.66471      0.0018359364   1.2126333      711.22306     -1.3698431      709.85322    
   1162000   302.60083      0.0018359364   0.83316758     750.76099     -2.3275995      748.43339    
   1163000   299.15014      0.0018359364  -1.4129036      742.19975     -0.58389769     741.61585    
   1164000   288.85271      0.0018359364   2.1989882      716.65153     -1.6102782      715.04125    
   1165000   303.34888      0.0018359364   1.6676958      752.61694     -2.2317787      750.38516    
   1166000   310.45479      0.0018359364   0.44432737     770.24688     -1.4709317      768.77595    
   1167000   295.15089      0.0018359364   0.63213257     732.27749     -2.211451       730.06603    
   1168000   281.27046      0.0018359364  -1.7507974      697.83977     -2.009248       695.83052    
   1169000   294.3564       0.0018359364   2.0885766      730.30635     -0.61843337     729.68791    
   1170000   298.22949      0.0018359364   4.134696       739.91559     -2.8870444      737.02854    
   1171000   318.34582      0.0018359364  -0.88320544     789.82475     -2.8755468      786.9492     
   1172000   294.70236      0.0018359364   0.65043976     731.16469     -0.90488114     730.2598     
   1173000   301.08026      0.0018359364   2.278574       746.98843     -1.5500493      745.43838    
   1174000   294.37582      0.0018359364  -2.2910648      730.35451     -0.78982346     729.56469    
   1175000   295.67816      0.0018359364   1.0041248      733.58567     -1.5824984      732.00317    
   1176000   305.35082      0.0018359364   1.605775       757.58381     -2.6699298      754.91388    
   1177000   297.69913      0.0018359364   1.0370128      738.59974     -3.5249305      735.07481    
   1178000   285.03196      0.0018359364   0.54527397     707.17215     -1.9064138      705.26574    
   1179000   297.52977      0.0018359364   1.2683614      738.17956     -1.7022841      736.47728    
   1180000   298.40263      0.0018359364   1.4800136      740.34516      0.053954526    740.39911    
   1181000   307.99913      0.0018359364   0.55157533     764.15434     -1.2515889      762.90275    
   1182000   293.65445      0.0018359364   0.84209865     728.56478     -1.7309469      726.83383    
   1183000   289.50073      0.0018359364   1.2141203      718.25929     -1.7751457      716.48414    
   1184000   303.48503      0.0018359364   1.4209269      752.95472     -3.2255054      749.72922    
   1185000   324.23092      0.0018359364   1.1087217      804.42586     -2.6236428      801.80221    
   1186000   298.91308      0.0018359364   0.91516677     741.61158     -1.7145408      739.89704    
   1187000   286.74201      0.0018359364   0.91881243     711.41482     -2.6309467      708.78388    
   1188000   288.77998      0.0018359364   1.1214264      716.4711      -2.0556088      714.41549    
   1189000   308.62445      0.0018359364   1.1064041      765.70576     -3.1126495      762.59311    
   1190000   328.13839      0.0018359364   1.0512543      814.12038     -2.5430533      811.57733    
   1191000   294.26991      0.0018359364   0.85416065     730.09176     -1.9589558      728.13281    
   1192000   281.05292      0.0018359364   0.71241793     697.30004     -6.0979656      691.20207    
   1193000   294.34951      0.0018359364   1.9494142      730.28924     -2.4234602      727.86578    
   1194000   314.35169      0.0018359364   1.0318826      779.91521     -3.1046923      776.81051    
   1195000   300.90133      0.0018359364   0.84505745     746.54449     -1.0294339      745.51506    
   1196000   288.01129      0.0018359364   0.55970886     714.56394     -1.1682618      713.39568    
   1197000   290.19552      0.0018359364   1.5699523      719.98307     -2.2065803      717.77649    
   1198000   302.73713      0.0018359364   1.0658226      751.09917     -2.1639428      748.93523    
   1199000   305.72489      0.0018359364   0.012776684    758.51188     -2.2189334      756.29295    
   1200000   295.0393       0.0018359364   1.3271124      732.00065     -2.9035239      729.09712    
   1201000   289.50092      0.0018359364   1.8827966      718.25977     -4.3831159      713.87665    
   1202000   309.39839      0.0018359364   2.2972969      767.62593     -4.6849017      762.94103    
   1203000   312.00412      0.0018359364   0.44239298     774.09082     -2.3390459      771.75178    
   1204000   288.17226      0.0018359364  -0.41929171     714.96332     -4.1563559      710.80697    
   1205000   298.61556      0.0018359364   1.9570261      740.87343     -3.4494288      737.424      
   1206000   309.39865      0.0018359364   1.0836433      767.62659     -2.8358599      764.79073    
   1207000   310.74183      0.0018359364  -0.21290528     770.95904     -2.7245533      768.23449    
   1208000   287.15731      0.0018359364   0.68548367     712.44521     -3.7114724      708.73373    
   1209000   298.42295      0.0018359364   2.4001117      740.39556     -5.3653276      735.03024    
   1210000   309.30305      0.0018359364   0.91289122     767.38939     -8.4629514      758.92644    
   1211000   294.81131      0.0018359364  -0.56861549     731.43498     -7.4411911      723.99379    
   1212000   291.27755      0.0018359364   1.594859       722.66763     -6.2413244      716.4263     
   1213000   292.16978      0.0018359364   2.6857471      724.88127     -5.4504235      719.43085    
   1214000   303.31574      0.0018359364   1.2316463      752.53471     -7.0250769      745.50963    
   1215000   303.99506      0.0018359364   0.93678796     754.22011     -4.4934531      749.72666    
   1216000   304.24551      0.0018359364   0.38421724     754.84151     -3.6856804      751.15583    
   1217000   292.91799      0.0018359364   0.83326521     726.73761     -2.6657743      724.07184    
   1218000   301.82878      0.0018359364   1.9122934      748.84552     -2.7193358      746.12618    
   1219000   313.61546      0.0018359364   0.8509519      778.0886      -2.0248401      776.06376    
   1220000   304.85869      0.0018359364   0.96047586     756.3628      -4.7396976      751.6231     
   1221000   289.86831      0.0018359364   1.4471889      719.17127     -4.6616465      714.50962    
   1222000   309.02361      0.0018359364   1.4910669      766.69609     -3.7935244      762.90257    
   1223000   305.73422      0.0018359364  -0.45431294     758.53503     -3.0415445      755.49349    
   1224000   286.64981      0.0018359364   0.19341991     711.18608     -2.6534747      708.53261    
   1225000   291.39745      0.0018359364   2.3425772      722.9651      -4.3730387      718.59206    
   1226000   312.53097      0.0018359364   1.928427       775.39795     -3.8433531      771.5546     
   1227000   290.44573      0.0018359364  -0.08922828     720.60385     -5.0998599      715.50399    
   1228000   287.81225      0.0018359364   0.42473369     714.07013     -2.8613633      711.20877    
   1229000   295.60672      0.0018359364   2.2128516      733.40842     -2.7277845      730.68063    
   1230000   316.92002      0.0018359364   1.1173534      786.28732     -3.4251052      782.86221    
   1231000   293.97937      0.0018359364  -1.3863124      729.37091     -4.6115144      724.7594     
   1232000   283.74771      0.0018359364  -0.92993515     703.98589     -2.4086069      701.57728    
   1233000   301.63092      0.0018359364   2.328088       748.35463     -1.8982153      746.45642    
   1234000   315.81485      0.0018359364   2.4541882      783.54534     -1.6643048      781.88103    
   1235000   305.53619      0.0018359364  -1.3611497      758.04372     -3.7489071      754.29481    
   1236000   280.0342       0.0018359364  -0.6519223      694.77258     -3.2567208      691.51586    
   1237000   302.65146      0.0018359364   1.7638849      750.88662     -2.5846176      748.302      
   1238000   317.80866      0.0018359364  -0.03523649     788.49205     -2.2099833      786.28207    
   1239000   308.12767      0.0018359364   0.53465643     764.47325     -2.486202       761.98705    
   1240000   296.55953      0.0018359364   0.82740751     735.77237     -4.218471       731.5539     
   1241000   300.29495      0.0018359364   1.4671581      745.04004     -2.2304398      742.8096     
   1242000   307.4171       0.0018359364   2.765947       762.7103      -2.8805968      759.82971    
   1243000   312.38614      0.0018359364   2.0610287      775.03863     -4.3077638      770.73087    
   1244000   288.12211      0.0018359364  -0.52770702     714.83889     -2.4676975      712.37119    
   1245000   298.46412      0.0018359364   0.91658411     740.49771     -4.1726922      736.32502    
   1246000   294.56069      0.0018359364   4.0815453      730.8132      -2.2424951      728.5707     
   1247000   311.81697      0.0018359364   4.0503154      773.62649     -1.810583       771.81591    
   1248000   300.32453      0.0018359364  -0.49071202     745.11343     -2.8652084      742.24822    
   1249000   287.64991      0.0018359364  -0.27700056     713.66736     -0.63119105     713.03617    
   1250000   299.58425      0.0018359364   2.3091759      743.27677     -2.0851662      741.19161    
   1251000   310.9957       0.0018359364   0.79792603     771.58891     -1.7861208      769.80279    
   1252000   294.66817      0.0018359364   0.68731988     731.07985     -2.9995682      728.08028    
   1253000   292.9506       0.0018359364   2.4332486      726.81853     -1.7631813      725.05534    
   1254000   303.55335      0.0018359364   1.8354279      753.12423     -3.2571349      749.8671     
   1255000   308.61737      0.0018359364   0.33280066     765.6882      -1.7921456      763.89605    
   1256000   302.62857      0.0018359364  -0.51292        750.82981     -3.056422       747.77339    
   1257000   292.8665       0.0018359364   1.8498408      726.60987     -1.7542115      724.85566    
   1258000   300.10999      0.0018359364   3.050116       744.58116     -3.4277598      741.1534     
   1259000   307.6076       0.0018359364   0.76344655     763.18293     -4.643457       758.53948    
   1260000   307.04699      0.0018359364  -1.1994303      761.79205     -6.6551679      755.13688    
   1261000   294.41338      0.0018359364   0.71662419     730.44772     -4.0606216      726.3871     
   1262000   298.23712      0.0018359364   1.8665601      739.93451     -3.8823588      736.05215    
   1263000   312.6762       0.0018359364   1.9594156      775.75827     -5.7436361      770.01463    
   1264000   315.17196      0.0018359364   2.4605834      781.95031     -5.7337855      776.21653    
   1265000   287.82028      0.0018359364   0.33519127     714.09005     -3.1753484      710.9147     
   1266000   293.89006      0.0018359364   1.1824222      729.14934     -2.4426037      726.70674    
   1267000   298.71158      0.0018359364   1.7041037      741.11166     -1.9395786      739.17208    
   1268000   295.65422      0.0018359364  -0.37665271     733.52628     -2.0212317      731.50505    
   1269000   290.59822      0.0018359364   0.84094323     720.9822      -1.1554985      719.82671    
   1270000   302.70755      0.0018359364   2.0193924      751.02576     -2.2196644      748.8061     
   1271000   315.41625      0.0018359364   0.062931681    782.55642     -1.0841829      781.47223    
   1272000   293.97817      0.0018359364  -0.49821878     729.36793     -3.4991113      725.86882    
   1273000   289.41429      0.0018359364   1.0786097      718.04482     -3.6207732      714.42405    
   1274000   314.07482      0.0018359364   3.2905112      779.2283      -1.6132916      777.615      
   1275000   304.27329      0.0018359364   0.78563562     754.91042     -2.1011958      752.80922    
   1276000   278.46888      0.0018359364   0.94439028     690.88897     -2.4493864      688.43958    
   1277000   300.22968      0.0018359364   1.1405048      744.87811     -3.3928966      741.48521    
   1278000   311.53308      0.0018359364   0.57754436     772.92216     -2.4360631      770.4861     
   1279000   304.73632      0.0018359364   1.1681913      756.05922     -1.2521834      754.80704    
   1280000   297.58043      0.0018359364   1.5902602      738.30526     -2.4482753      735.85699    
   1281000   296.08462      0.0018359364   0.33493521     734.59411     -2.7881108      731.806      
   1282000   308.87899      0.0018359364   1.0268708      766.3373      -3.6719453      762.66536    
   1283000   292.58992      0.0018359364   1.3343502      725.92367     -1.7955547      724.12811    
   1284000   294.07338      0.0018359364   0.87303374     729.60417     -1.0726891      728.53148    
   1285000   297.78715      0.0018359364   0.54656796     738.81813     -2.3702539      736.44787    
   1286000   316.20065      0.0018359364   0.28025033     784.50254     -2.2576823      782.24486    
   1287000   302.43819      0.0018359364   1.5571035      750.35748     -2.8720376      747.48544    
   1288000   291.13623      0.0018359364  -0.020219129    722.31701     -2.4777558      719.83925    
   1289000   309.80181      0.0018359364   0.77109335     768.62682     -3.9022313      764.72459    
   1290000   312.71102      0.0018359364   2.1628606      775.84467     -3.8496323      771.99504    
   1291000   295.81614      0.0018359364   1.1190688      733.92799     -3.4010237      730.52696    
   1292000   300.48713      0.0018359364   0.59582606     745.51686     -4.448037       741.06882    
   1293000   302.28478      0.0018359364   1.1971549      749.97687     -2.9522245      747.02464    
   1294000   311.75176      0.0018359364   1.1741         773.46472     -1.4033132      772.06141    
   1295000   297.65999      0.0018359364   0.9601624      738.50263     -1.9014688      736.60116    
   1296000   298.70953      0.0018359364   1.1242775      741.10658     -3.2077715      737.89881    
   1297000   299.62296      0.0018359364   1.0530055      743.37281     -4.6492144      738.7236     
   1298000   311.5105       0.0018359364   1.0754392      772.86614     -3.5032417      769.3629     
   1299000   296.86334      0.0018359364   1.0583449      736.52612     -3.8465699      732.67955    
   1300000   294.53172      0.0018359364   0.95119017     730.74131     -5.4826689      725.25864    
   1301000   307.88456      0.0018359364   1.2714584      763.87008     -2.5519501      761.31813    
   1302000   304.62712      0.0018359364   1.0540684      755.78828     -1.6882536      754.10003    
   1303000   294.65712      0.0018359364   0.8190327      731.05244     -5.1205986      725.93184    
   1304000   298.0855       0.0018359364   0.97851574     739.55834     -2.9129983      736.64534    
   1305000   283.79102      0.0018359364   0.90656832     704.09334     -2.2542143      701.83912    
   1306000   306.65136      0.0018359364   1.3930322      760.81048     -2.3730806      758.4374     
   1307000   308.79007      0.0018359364   1.3683951      766.11669     -3.0348242      763.08186    
   1308000   305.64401      0.0018359364   1.4370294      758.31122     -2.5335025      755.77771    
   1309000   296.5029       0.0018359364   0.88424        735.63188     -3.629293       732.00258    
   1310000   299.628        0.0018359364   1.0960108      743.38533     -2.3250325      741.06029    
   1311000   300.89473      0.0018359364   1.1074952      746.52811     -4.5870759      741.94103    
   1312000   309.72242      0.0018359364   0.66875434     768.42986     -4.7261431      763.70372    
   1313000   297.54238      0.0018359364   0.97899851     738.21084     -4.8558826      733.35495    
   1314000   298.25422      0.0018359364   1.0667028      739.97694     -3.9071743      736.06977    
   1315000   302.65274      0.0018359364   1.0383498      750.8898      -2.3189551      748.57084    
   1316000   296.81447      0.0018359364   0.50341287     736.40489     -4.262733       732.14216    
   1317000   300.10945      0.0018359364   0.86741089     744.57982     -3.6865804      740.89324    
   1318000   287.62075      0.0018359364   0.87416691     713.59501     -2.9509796      710.64403    
   1319000   317.95525      0.0018359364   1.3150517      788.85575     -4.0545186      784.80123    
   1320000   301.53908      0.0018359364   1.0279177      748.12676     -5.3684274      742.75833    
   1321000   302.49836      0.0018359364   0.12298267     750.50677     -5.0614377      745.44534    
   1322000   306.19874      0.0018359364   1.3152903      759.68752     -4.9868594      754.70066    
   1323000   283.67435      0.0018359364   2.5470545      703.80388     -4.2359062      699.56797    
   1324000   293.52812      0.0018359364  -0.28360864     728.25136     -3.8573194      724.39404    
   1325000   308.09416      0.0018359364   0.86309141     764.39011     -0.30024258     764.08987    
   1326000   309.23452      0.0018359364   1.2367395      767.21937     -5.6176468      761.60173    
   1327000   298.78837      0.0018359364   1.4909963      741.30219     -5.5202868      735.7819     
   1328000   304.45647      0.0018359364   1.6314813      755.36489     -5.1554512      750.20944    
   1329000   310.82896      0.0018359364  -2.6972276      771.17523     -3.6634371      767.51179    
   1330000   312.59545      0.0018359364   1.1625478      775.55792     -4.4149552      771.14297    
   1331000   294.76598      0.0018359364   1.2100132      731.32251     -4.3667222      726.95579    
   1332000   291.72222      0.0018359364   0.49761125     723.77087     -4.6408496      719.13002    
   1333000   298.98349      0.0018359364  -0.82973737     741.78627     -4.3008172      737.48546    
   1334000   326.77228      0.0018359364  -1.634628       810.73103     -4.2682762      806.46276    
   1335000   291.35255      0.0018359364   2.9664274      722.8537      -4.6921534      718.16155    
   1336000   292.29945      0.0018359364   1.326811       725.20299     -5.4474449      719.75555    
   1337000   298.20033      0.0018359364  -1.1874351      739.84323     -4.521044       735.32219    
   1338000   304.57339      0.0018359364   2.4055894      755.65499     -3.9824193      751.67257    
   1339000   292.24593      0.0018359364   1.0897422      725.0702      -1.2102616      723.85994    
   1340000   293.52735      0.0018359364  -0.55941261     728.24945     -3.6269906      724.62246    
   1341000   306.88081      0.0018359364  -0.51555759     761.37976     -2.5709618      758.8088     
   1342000   310.06598      0.0018359364  -0.65440488     769.28225     -2.8698616      766.41239    
   1343000   292.92916      0.0018359364   3.441058       726.76531     -2.3727352      724.39258    
   1344000   288.98502      0.0018359364   0.96800393     716.9798      -2.9976578      713.98214    
   1345000   305.38527      0.0018359364  -4.13344        757.66927     -6.2656891      751.40358    
   1346000   307.52907      0.0018359364   0.067783756    762.9881      -2.3630954      760.625      
   1347000   292.59732      0.0018359364   4.8559047      725.94201     -2.8625016      723.07951    
   1348000   295.06814      0.0018359364   1.2930213      732.07219     -3.1423543      728.92983    
   1349000   305.204        0.0018359364  -2.264889       757.21953     -3.1753975      754.04413    
   1350000   301.55334      0.0018359364   1.2115901      748.16214     -3.963022       744.19912    
   1351000   295.61629      0.0018359364   2.9321166      733.43217     -3.4191511      730.01302    
   1352000   293.13254      0.0018359364  -1.6381085      727.26992     -5.169725       722.1002     
   1353000   316.3261       0.0018359364  -2.3526396      784.81378     -1.4078504      783.40593    
   1354000   319.58231      0.0018359364   0.6886799      792.89252     -2.1109305      790.78158    
   1355000   301.10036      0.0018359364   2.3294288      747.03829     -3.309912       743.72838    
   1356000   289.07655      0.0018359364   2.7870837      717.20688     -2.6588154      714.54807    
   1357000   283.61386      0.0018359364  -1.0827786      703.6538      -2.5800962      701.07371    
   1358000   304.76408      0.0018359364  -1.6357843      756.12809     -3.3803711      752.74771    
   1359000   307.26518      0.0018359364   4.4906195      762.33339     -2.8792323      759.45415    
   1360000   302.17505      0.0018359364   0.85616835     749.70463     -3.7681327      745.9365     
   1361000   309.73792      0.0018359364  -1.4917101      768.46831     -4.4996408      763.96867    
   1362000   302.88213      0.0018359364  -0.18922504     751.45891     -3.7617935      747.69712    
   1363000   295.86988      0.0018359364   6.2584833      734.06132     -2.9365464      731.12477    
   1364000   294.30674      0.0018359364   1.3592013      730.18313     -3.7277665      726.45536    
   1365000   314.16368      0.0018359364  -0.60484141     779.44875     -3.8638995      775.58485    
   1366000   297.83915      0.0018359364   5.6232414      738.94715     -4.9739362      733.97321    
   1367000   286.55252      0.0018359364   1.0355412      710.94471     -4.5491905      706.39552    
   1368000   310.88722      0.0018359364  -1.5922382      771.31977     -3.7118666      767.6079     
   1369000   313.2323       0.0018359364   1.3032092      777.13797     -3.8888576      773.24911    
   1370000   295.2425       0.0018359364   2.5483954      732.50477     -1.5199363      730.98483    
   1371000   292.45178      0.0018359364  -1.9633709      725.58093     -3.1655851      722.41535    
   1372000   299.68599      0.0018359364   1.3820537      743.52921     -1.4110832      742.11813    
   1373000   297.8341       0.0018359364   3.389719       738.93462     -0.24991953     738.6847     
   1374000   299.19108      0.0018359364   1.4306114      742.30132     -0.65898647     741.64233    
   1375000   298.49243      0.0018359364   0.70450617     740.56794     -2.3723499      738.19559    
   1376000   307.70483      0.0018359364   0.70819541     763.42415     -3.5342793      759.88988    
   1377000   296.12615      0.0018359364   1.5106443      734.69714     -3.0689978      731.62815    
   1378000   297.30524      0.0018359364   4.0570377      737.6225      -2.0290717      735.59343    
   1379000   298.17626      0.0018359364   1.2525761      739.78353     -2.5000963      737.28343    
   1380000   299.54629      0.0018359364  -1.5265653      743.18259     -2.5269781      740.65561    
   1381000   290.45358      0.0018359364   1.262245       720.62335     -3.0758035      717.54754    
   1382000   283.83876      0.0018359364   2.9233893      704.2118      -4.1449907      700.06681    
   1383000   296.45318      0.0018359364   0.043715581    735.50852     -4.9685598      730.53996    
   1384000   314.89457      0.0018359364   0.55021591     781.26211     -4.4360138      776.82609    
   1385000   298.59417      0.0018359364   1.8397365      740.82037     -4.4939765      736.3264     
   1386000   286.05123      0.0018359364  -0.12492389     709.70098     -4.0523482      705.64863    
   1387000   304.02126      0.0018359364   0.35542799     754.28512     -4.7154687      749.56965    
   1388000   303.47813      0.0018359364   1.4858909      752.9376      -2.6822142      750.25539    
   1389000   294.28679      0.0018359364   1.0598185      730.13363     -3.6977884      726.43584    
   1390000   295.38619      0.0018359364   0.58463097     732.86128     -2.8971084      729.96417    
   1391000   305.76006      0.0018359364   1.4090995      758.59914     -3.3538859      755.24526    
   1392000   296.45357      0.0018359364   1.6180903      735.50948     -1.6271516      733.88232    
   1393000   299.45377      0.0018359364   0.91261657     742.95305     -3.308222       739.64482    
   1394000   302.94669      0.0018359364   0.86547834     751.6191      -1.8339938      749.78511    
   1395000   301.94431      0.0018359364   0.97254406     749.13217     -3.6719973      745.46017    
   1396000   293.50115      0.0018359364   1.3701323      728.18443     -5.638726       722.54571    
   1397000   293.79411      0.0018359364   0.92125212     728.9113      -5.1470188      723.76428    
   1398000   297.90799      0.0018359364   1.4107341      739.11793     -2.5402629      736.57766    
   1399000   303.22163      0.0018359364   1.3994924      752.30123     -3.5488753      748.75235    
   1400000   304.43156      0.0018359364  -0.097148238    755.3031      -2.4009114      752.90219    
   1401000   289.82968      0.0018359364  -0.84800927     719.07543     -4.654527       714.4209     
   1402000   297.69218      0.0018359364   0.57503706     738.58251     -1.3962523      737.18626    
   1403000   299.55432      0.0018359364   1.9392885      743.20254     -1.084246       742.11829    
   1404000   301.04192      0.0018359364   0.84060664     746.8933      -1.1141706      745.77913    
   1405000   304.78837      0.0018359364   0.16792476     756.18835     -0.96132049     755.22703    
   1406000   305.01176      0.0018359364   0.97197769     756.74259     -1.4976676      755.24493    
   1407000   299.63983      0.0018359364   2.0854657      743.41469     -1.9505534      741.46414    
   1408000   288.32179      0.0018359364   1.338525       715.33431     -1.4536263      713.88068    
   1409000   307.85611      0.0018359364  -0.94749441     763.79949     -0.91104519     762.88845    
   1410000   306.79969      0.0018359364   0.59772782     761.1785      -1.4969689      759.68153    
   1411000   294.25903      0.0018359364   1.9439371      730.06478     -0.21419669     729.85058    
   1412000   293.99551      0.0018359364   3.6944478      729.41097     -1.3179544      728.09301    
   1413000   308.74341      0.0018359364   0.58090866     766.00092     -2.9463346      763.05458    
   1414000   289.03064      0.0018359364   0.1554885      717.09299     -3.4695008      713.62349    
   1415000   300.39725      0.0018359364  -1.3230374      745.29385     -4.0206945      741.27316    
   1416000   301.28896      0.0018359364   2.0164733      747.50622     -3.711157       743.79506    
   1417000   302.32458      0.0018359364  -0.38889433     750.07562     -3.0757571      746.99986    
   1418000   303.21194      0.0018359364  -0.24501724     752.27718     -2.1220324      750.15515    
   1419000   302.00764      0.0018359364  -0.19934285     749.28929     -3.3266558      745.96263    
   1420000   282.8795       0.0018359364   3.721161       701.83184     -1.6269482      700.20489    
   1421000   308.52891      0.0018359364   0.86208645     765.46873     -2.2371582      763.23157    
   1422000   304.24286      0.0018359364  -0.22055826     754.83492     -3.7473455      751.08757    
   1423000   297.3701       0.0018359364   0.33549663     737.78341     -2.3051686      735.47825    
   1424000   297.11369      0.0018359364   1.2489051      737.14727     -3.5761994      733.57107    
   1425000   300.93843      0.0018359364   1.4552408      746.63654     -1.2208373      745.4157     
   1426000   311.34936      0.0018359364   1.7165468      772.46633     -2.4104094      770.05592    
   1427000   293.7654       0.0018359364  -0.20817471     728.84005     -0.24902367     728.59102    
   1428000   291.00303      0.0018359364   3.1233967      721.98654     -1.4171542      720.56938    
   1429000   313.24598      0.0018359364   1.2422968      777.17192     -3.7695407      773.40238    
   1430000   299.72934      0.0018359364   0.66730707     743.63677     -4.0521017      739.58466    
   1431000   288.81658      0.0018359364   1.0095135      716.56189     -1.7417641      714.82013    
   1432000   298.50422      0.0018359364   1.1742899      740.5972      -1.1771405      739.42006    
   1433000   304.18924      0.0018359364   1.1618129      754.7019      -4.2082583      750.49364    
   1434000   302.78128      0.0018359364   1.1256036      751.2087      -1.7272468      749.48146    
   1435000   289.99304      0.0018359364   0.62839274     719.48073     -4.2592401      715.22149    
   1436000   296.34547      0.0018359364   0.79302778     735.24129     -2.1824281      733.05886    
   1437000   299.92743      0.0018359364   1.7021449      744.12822     -3.6836787      740.44454    
   1438000   307.22618      0.0018359364   1.0043321      762.23663     -3.8114769      758.42516    
   1439000   302.94705      0.0018359364   0.60120357     751.61998     -3.0642305      748.55575    
   1440000   286.01072      0.0018359364   1.3039149      709.60048     -2.8262436      706.77423    
   1441000   305.40657      0.0018359364   1.0871953      757.72212     -3.1779377      754.54418    
   1442000   305.90624      0.0018359364   0.88383081     758.96181     -3.9577126      755.0041     
   1443000   289.76301      0.0018359364   0.88070883     718.91001     -3.3633354      715.54667    
   1444000   304.21763      0.0018359364   0.7860731      754.77232     -2.9428797      751.82944    
   1445000   284.60905      0.0018359364   1.0771021      706.12289     -3.317499       702.80539    
   1446000   292.70784      0.0018359364   1.3169507      726.21622     -3.5533994      722.66282    
   1447000   311.48874      0.0018359364   1.155452       772.81216     -2.3571841      770.45498    
   1448000   305.4083       0.0018359364   0.85561378     757.72641     -2.1530839      755.57332    
   1449000   295.06124      0.0018359364   0.88650588     732.05507     -5.0200641      727.035      
   1450000   309.73317      0.0018359364   1.2490232      768.45654     -3.6885839      764.76795    
   1451000   299.62437      0.0018359364   0.95203218     743.37633     -4.3935849      738.98275    
   1452000   288.81161      0.0018359364   0.53211276     716.54957     -3.5670774      712.98249    
   1453000   302.40618      0.0018359364   1.0040504      750.27808     -2.9805789      747.2975     
   1454000   298.31907      0.0018359364   1.0058424      740.13783     -2.8557051      737.28213    
   1455000   302.30676      0.0018359364   1.0851404      750.03142     -4.2045039      745.82691    
   1456000   296.19843      0.0018359364   0.99844844     734.87646     -3.4135923      731.46287    
   1457000   302.29356      0.0018359364   1.0101344      749.99864     -4.4202531      745.57839    
   1458000   296.93222      0.0018359364   1.1857773      736.69702     -5.2492317      731.44779    
   1459000   302.75004      0.0018359364   1.0652939      751.13119     -3.4445148      747.68668    
   1460000   306.50018      0.0018359364   1.1370169      760.43539     -4.6778698      755.75752    
   1461000   285.65655      0.0018359364   0.98327907     708.72176     -4.7977186      703.92404    
   1462000   301.14802      0.0018359364   1.150487       747.15653     -4.3334213      742.82311    
   1463000   312.73564      0.0018359364   0.9397619      775.90575     -2.3913606      773.51439    
   1464000   295.9647       0.0018359364   0.80397167     734.29659     -2.9751681      731.32142    
   1465000   295.51816      0.0018359364   0.90732453     733.1887      -3.5465274      729.64217    
   1466000   294.78859      0.0018359364   0.88399659     731.37862     -3.5718354      727.80679    
   1467000   301.44249      0.0018359364   1.1744571      747.88712     -2.9097736      744.97735    
   1468000   293.24029      0.0018359364   1.018804       727.53724     -4.2434078      723.29383    
   1469000   294.44893      0.0018359364   0.99085553     730.53592     -3.66993        726.86599    
   1470000   294.39146      0.0018359364   0.94580737     730.39334     -3.1783956      727.21494    
   1471000   298.75376      0.0018359364   0.71931059     741.21631     -2.3037058      738.91261    
   1472000   302.0294       0.0018359364   1.1143779      749.34327     -2.0243685      747.3189     
   1473000   306.7483       0.0018359364   1.0884966      761.05099     -2.793222       758.25777    
   1474000   295.84169      0.0018359364   0.60718208     733.99139     -3.0264287      730.96496    
   1475000   302.14387      0.0018359364   1.0418483      749.62726     -2.4842221      747.14304    
   1476000   290.4313       0.0018359364   1.0602729      720.56807     -3.1915608      717.37651    
   1477000   303.60953      0.0018359364   1.1472404      753.2636      -5.3949373      747.86867    
   1478000   299.38378      0.0018359364   1.0718711      742.77941     -5.2204818      737.55893    
   1479000   301.59843      0.0018359364   0.83830187     748.27403     -5.5394177      742.73461    
   1480000   301.48474      0.0018359364   0.71996913     747.99195     -3.7926111      744.19934    
   1481000   287.95457      0.0018359364   1.1673874      714.42323     -3.3063448      711.11688    
   1482000   293.88643      0.0018359364   1.2307212      729.14034     -2.8287533      726.31159    
   1483000   315.00237      0.0018359364  -0.25340373     781.52956     -2.3659803      779.16358    
   1484000   296.41589      0.0018359364   1.1338976      735.41598     -2.0220666      733.39392    
   1485000   295.98102      0.0018359364   1.9738237      734.33706     -3.0173842      731.31967    
   1486000   300.28962      0.0018359364   0.74869708     745.02682     -3.3838888      741.64294    
   1487000   286.89684      0.0018359364   1.3581025      711.79897     -4.7647572      707.03421    
   1488000   303.89809      0.0018359364   2.9903249      753.97953     -2.9887486      750.99078    
   1489000   309.6154       0.0018359364   0.68332687     768.16433     -3.7000998      764.46423    
   1490000   289.78412      0.0018359364  -0.070862969    718.9624      -3.7659251      715.19648    
   1491000   300.64561      0.0018359364   1.0401173      745.91005     -2.9691913      742.94085    
   1492000   303.76096      0.0018359364   1.7235843      753.63932     -2.1907909      751.44853    
   1493000   302.08593      0.0018359364   1.1742935      749.48351     -2.8302158      746.6533     
   1494000   295.17551      0.0018359364  -0.59830099     732.33857     -3.3207026      729.01786    
   1495000   305.85662      0.0018359364   1.1839674      758.8387      -4.0058755      754.83282    
   1496000   303.58319      0.0018359364   1.2150044      753.19826     -3.0976716      750.10059    
   1497000   296.88906      0.0018359364   0.86570098     736.58993     -3.3587591      733.23117    
   1498000   298.46768      0.0018359364   0.85871205     740.50653     -4.0815307      736.425      
   1499000   295.33022      0.0018359364   1.6991763      732.72241     -4.1639424      728.55847    
   1500000   288.10531      0.0018359364   0.96933072     714.79721     -3.4064886      711.39072    
   1501000   288.10079      0.0018359364   2.4073461      714.78601     -6.7855526      708.00046    
   1502000   305.59173      0.0018359364   1.4290477      758.1815      -5.3866304      752.79487    
   1503000   296.22475      0.0018359364   0.58945517     734.94177     -3.4884715      731.4533     
   1504000   300.90123      0.0018359364   1.1348289      746.54425     -5.3983691      741.14588    
   1505000   297.66384      0.0018359364   1.086643       738.5122      -5.5625105      732.94969    
   1506000   299.21207      0.0018359364   0.67868071     742.35338     -5.9444833      736.4089     
   1507000   307.95546      0.0018359364   1.0649114      764.04598     -4.0920783      759.9539     
   1508000   293.97118      0.0018359364   0.67630453     729.3506      -3.7083305      725.64227    
   1509000   307.78503      0.0018359364   1.0371234      763.62315     -4.0671496      759.556      
   1510000   302.25203      0.0018359364   1.1440233      749.89561     -4.0741537      745.82145    
   1511000   300.19699      0.0018359364   1.3400871      744.79702     -4.3806819      740.41634    
   1512000   278.87346      0.0018359364   0.81669133     691.89273     -3.8195618      688.07317    
   1513000   304.57288      0.0018359364   0.50525765     755.65371     -1.687337       753.96637    
   1514000   315.37152      0.0018359364   0.95478327     782.44543     -0.90212187     781.54331    
   1515000   297.77966      0.0018359364   1.7407524      738.79954     -3.7324275      735.06711    
   1516000   289.40632      0.0018359364   0.81031495     718.02506     -4.42878        713.59628    
   1517000   311.28381      0.0018359364   0.61746086     772.30371     -2.2932467      770.01046    
   1518000   315.74469      0.0018359364   1.6235897      783.37128     -2.967332       780.40395    
   1519000   293.94106      0.0018359364   1.1367554      729.27587     -1.7622006      727.51367    
   1520000   294.94298      0.0018359364   0.87394054     731.76167     -0.89892919     730.86274    
   1521000   313.33419      0.0018359364   0.82593974     777.39075     -2.9894939      774.40126    
   1522000   309.53291      0.0018359364   1.1805278      767.95969     -2.2912302      765.66846    
   1523000   293.66858      0.0018359364   1.1602717      728.59983     -1.4528044      727.14703    
   1524000   301.52203      0.0018359364   0.97607137     748.08448     -2.075165       746.00932    
   1525000   311.2635       0.0018359364   0.88764618     772.25333     -1.3407024      770.91263    
   1526000   317.79139      0.0018359364   1.7063319      788.44919     -3.452911       784.99628    
   1527000   294.08881      0.0018359364   1.115745       729.64243     -2.3762561      727.26618    
   1528000   297.59057      0.0018359364   0.60758402     738.3304      -2.1676216      736.16278    
   1529000   308.53463      0.0018359364   0.68173959     765.48293     -1.7029542      763.77997    
   1530000   306.49115      0.0018359364   1.2440175      760.413       -2.2912112      758.12178    
   1531000   292.82838      0.0018359364   1.0262801      726.51527     -0.169593       726.34568    
   1532000   290.90078      0.0018359364   0.92568145     721.73285     -1.3832284      720.34962    
   1533000   312.77761      0.0018359364   0.95046553     776.00988     -1.3566307      774.65325    
   1534000   297.75923      0.0018359364   1.1554021      738.74885     -1.9967924      736.75206    
   1535000   282.21019      0.0018359364   1.0153025      700.17125     -2.5170188      697.65423    
   1536000   311.31119      0.0018359364   0.83972464     772.37164     -0.94887866     771.42276    
   1537000   299.10241      0.0018359364   1.1596204      742.08133     -1.6018122      740.47952    
   1538000   296.66825      0.0018359364   1.1614973      736.04211     -3.5785069      732.4636     
   1539000   307.72601      0.0018359364   1.3426241      763.47671     -3.3995951      760.07711    
   1540000   292.52398      0.0018359364   0.37872275     725.76007     -4.0635926      721.69648    
   1541000   305.44139      0.0018359364  -0.28478646     757.80852     -4.7441798      753.06434    
   1542000   320.11846      0.0018359364   1.6262635      794.22271     -3.7154041      790.50731    
   1543000   300.6885       0.0018359364   1.136382       746.01646     -3.8585948      742.15787    
   1544000   292.54192      0.0018359364   1.0331653      725.80456     -3.4646482      722.33991    
   1545000   294.37269      0.0018359364   0.78469816     730.34676     -3.1801639      727.1666     
   1546000   304.84832      0.0018359364   0.39803492     756.33708     -1.6813857      754.6557     
   1547000   293.34784      0.0018359364   1.8693198      727.80407     -1.0144679      726.78961    
   1548000   289.37289      0.0018359364   0.048643102    717.94211     -4.1009333      713.84118    
   1549000   296.92092      0.0018359364   0.023644562    736.66898     -4.5818396      732.08714    
   1550000   308.56966      0.0018359364   1.205438       765.56983     -6.1158742      759.45396    
   1551000   290.80798      0.0018359364   1.1534777      721.50261     -3.2447315      718.25788    
   1552000   296.49854      0.0018359364   0.6407116      735.62104     -6.2776133      729.34343    
   1553000   302.95693      0.0018359364   1.9816383      751.64449     -1.5069082      750.13758    
   1554000   298.94966      0.0018359364   1.3683036      741.70234     -4.7636444      736.9387     
   1555000   299.05246      0.0018359364   0.55549979     741.95741     -5.7205634      736.23684    
   1556000   307.18467      0.0018359364   0.894213       762.13362     -5.7072211      756.4264     
   1557000   311.58951      0.0018359364   1.0691182      773.06216     -7.2502906      765.81187    
   1558000   298.42448      0.0018359364   1.2214868      740.39936     -3.6277002      736.77166    
   1559000   290.22745      0.0018359364   0.78298961     720.06231     -3.8909248      716.17139    
   1560000   300.12763      0.0018359364   0.66617154     744.62492     -4.6495729      739.97534    
   1561000   314.59142      0.0018359364   0.97747133     780.50999     -4.4330851      776.0769     
   1562000   304.86544      0.0018359364   1.2830904      756.37955     -2.056046       754.32351    
   1563000   293.33811      0.0018359364   0.77915364     727.77993     -5.5263655      722.25356    
   1564000   301.97325      0.0018359364   1.0172007      749.20395     -2.9959022      746.20805    
   1565000   302.87733      0.0018359364   1.1151968      751.44699     -3.0022026      748.44479    
   1566000   305.63471      0.0018359364   0.97710344     758.28814     -2.6875099      755.60063    
   1567000   299.283        0.0018359364   0.97062315     742.52937     -2.7465638      739.7828     
   1568000   290.77038      0.0018359364   1.0137735      721.40932     -1.0043802      720.40494    
   1569000   305.2821       0.0018359364   1.2526936      757.4133      -1.0581412      756.35516    
   1570000   312.40614      0.0018359364   1.2881995      775.08823     -1.4457945      773.64244    
   1571000   301.55352      0.0018359364   0.88897952     748.1626      -2.6226207      745.53998    
   1572000   289.0293       0.0018359364   1.2354017      717.08965     -2.5116491      714.578      
   1573000   305.14685      0.0018359364   1.2242712      757.07774     -1.8566875      755.22105    
   1574000   308.92412      0.0018359364   0.73962486     766.44927     -1.0214991      765.42777    
   1575000   281.55262      0.0018359364   0.67468894     698.53981     -1.7276036      696.8122     
   1576000   298.89659      0.0018359364   1.5985981      741.57069     -3.2461494      738.32454    
   1577000   308.05897      0.0018359364   0.73490336     764.30281     -1.7633579      762.53945    
   1578000   300.94737      0.0018359364   0.96175138     746.65872     -1.8890009      744.76972    
   1579000   297.22997      0.0018359364   1.3963503      737.43575     -5.0158262      732.41992    
   1580000   294.34464      0.0018359364   1.19648        730.27717     -1.9228558      728.35431    
   1581000   303.62322      0.0018359364   0.40416037     753.29758     -2.9229127      750.37467    
   1582000   304.27906      0.0018359364   0.92543889     754.92473     -2.2454559      752.67928    
   1583000   301.36416      0.0018359364   1.1001745      747.6928      -2.6405195      745.05228    
   1584000   297.62241      0.0018359364   1.4410328      738.40939     -3.294679       735.11471    
   1585000   296.19676      0.0018359364   1.2212347      734.87233     -5.1592014      729.71313    
   1586000   300.36272      0.0018359364   0.18682666     745.20818     -3.8283354      741.37984    
   1587000   298.18026      0.0018359364   1.0872742      739.79344     -4.0020166      735.79143    
   1588000   313.20591      0.0018359364   0.92181952     777.07249     -3.1645691      773.90792    
   1589000   304.37508      0.0018359364   1.0861707      755.16295     -2.8670781      752.29588    
   1590000   291.80845      0.0018359364   1.0679378      723.9848      -3.8391877      720.14562    
   1591000   296.81609      0.0018359364   0.84009422     736.4089      -1.2427903      735.16611    
   1592000   324.54935      0.0018359364   1.0368663      805.2159      -1.7553209      803.46057    
   1593000   299.6236       0.0018359364   1.1418447      743.3744      -3.3665935      740.00781    
   1594000   291.97555      0.0018359364   0.99210389     724.39938     -2.0305219      722.36885    
   1595000   292.04412      0.0018359364   0.91988935     724.56951     -2.0078527      722.56166    
   1596000   300.76528      0.0018359364   0.92528186     746.20695     -2.7407763      743.46617    
   1597000   305.72906      0.0018359364   1.0334248      758.52223     -1.4129649      757.10926    
   1598000   294.74266      0.0018359364   1.0517879      731.26466     -3.1719285      728.09273    
   1599000   296.566        0.0018359364   1.1039823      735.78842     -1.7168134      734.07161    
   1600000   301.44679      0.0018359364   0.9531426      747.8978      -2.6033362      745.29446    
   1601000   306.38917      0.0018359364   1.336632       760.15998     -2.9247037      757.23528    
   1602000   300.32399      0.0018359364   0.98371589     745.1121      -3.31124        741.80086    
   1603000   292.27909      0.0018359364   0.58997369     725.15248     -4.5608062      720.59168    
   1604000   303.9701       0.0018359364   1.052227       754.15819     -2.9092061      751.24899    
   1605000   299.79327      0.0018359364   1.2164034      743.79536     -3.8340314      739.96133    
   1606000   300.73683      0.0018359364   1.0556077      746.13638     -4.3416238      741.79475    
   1607000   286.51818      0.0018359364   0.66198768     710.8595      -2.0048468      708.85465    
   1608000   296.19674      0.0018359364   0.92658023     734.87227     -2.7450219      732.12725    
   1609000   305.29657      0.0018359364   2.210829       757.44921     -3.0988622      754.35035    
   1610000   304.74768      0.0018359364   0.78981384     756.0874      -4.3679016      751.7195     
   1611000   287.51873      0.0018359364   0.43108974     713.3419      -3.9043822      709.43752    
   1612000   295.33429      0.0018359364   1.2765641      732.73252     -3.8671897      728.86533    
   1613000   304.491        0.0018359364   1.1119954      755.45056     -3.841916       751.60864    
   1614000   296.31072      0.0018359364   0.34222976     735.15507     -4.445055       730.71001    
   1615000   294.40343      0.0018359364   0.90641692     730.42303     -5.5696388      724.85339    
   1616000   295.5558       0.0018359364   1.0672929      733.28208     -6.455963       726.82612    
   1617000   302.00086      0.0018359364   1.0758128      749.27245     -4.2288792      745.04358    
   1618000   303.40051      0.0018359364   0.32428493     752.74503     -2.5976761      750.14735    
   1619000   284.38284      0.0018359364   0.99405592     705.56165     -2.2070439      703.35461    
   1620000   298.89787      0.0018359364   0.97387978     741.57386     -3.3628417      738.21102    
   1621000   305.77185      0.0018359364   1.2397248      758.6284      -3.9912697      754.63713    
   1622000   304.23837      0.0018359364   1.1455312      754.82379     -5.0614961      749.76229    
   1623000   299.42249      0.0018359364   0.72909931     742.87545     -4.6427831      738.23267    
   1624000   317.92197      0.0018359364   0.48493892     788.77316     -4.424254       784.34891    
   1625000   300.59718      0.0018359364   1.831208       745.7899      -3.8046861      741.98521    
   1626000   293.1513       0.0018359364   0.87655095     727.31645     -4.0074615      723.30899    
   1627000   307.90152      0.0018359364   0.8779429      763.91217     -4.1841502      759.72802    
   1628000   306.03606      0.0018359364   1.004007       759.2839      -4.3723378      754.91156    
   1629000   302.00334      0.0018359364   0.87900256     749.2786      -4.0242262      745.25438    
   1630000   296.04827      0.0018359364   0.82945802     734.50392     -3.5988786      730.90504    
   1631000   298.02379      0.0018359364   1.4239595      739.40524     -1.8410106      737.56423    
   1632000   301.23505      0.0018359364   1.2396254      747.37246     -2.7848622      744.58759    
   1633000   294.02685      0.0018359364   0.72557352     729.48872     -4.6085521      724.88017    
   1634000   297.03703      0.0018359364   0.7743213      736.95705     -4.7806798      732.17637    
   1635000   305.24674      0.0018359364   2.1179937      757.32557     -5.1878052      752.13777    
   1636000   300.00487      0.0018359364   0.69313535     744.32035     -6.1378523      738.1825     
   1637000   297.62939      0.0018359364   0.91430058     738.42672     -5.8520788      732.57464    
   1638000   302.43765      0.0018359364   1.1496542      750.35614     -3.8605597      746.49558    
   1639000   301.46075      0.0018359364   1.3383037      747.93242     -5.0050358      742.92738    
   1640000   290.29838      0.0018359364   0.20188858     720.23829     -3.4482017      716.79009    
   1641000   294.30712      0.0018359364   0.98206825     730.18408     -3.5998733      726.58421    
   1642000   309.74597      0.0018359364   1.5537801      768.4883      -3.2896318      765.19867    
   1643000   313.136        0.0018359364   0.6613201      776.89904     -4.9059521      771.99308    
   1644000   292.24952      0.0018359364   0.79267287     725.07911     -6.3880749      718.69103    
   1645000   297.93557      0.0018359364   2.7346371      739.18635     -3.2488477      735.93751    
   1646000   313.05446      0.0018359364   0.87052514     776.69675     -3.4206154      773.27614    
   1647000   304.85333      0.0018359364   1.5109504      756.34952     -3.7571763      752.59235    
   1648000   300.95595      0.0018359364   1.018882       746.68001     -3.2272108      743.4528     
   1649000   303.13973      0.0018359364   0.024659669    752.09802     -3.1786236      748.9194     
   1650000   293.48153      0.0018359364   0.64967099     728.13576     -4.5910177      723.54474    
   1651000   306.57156      0.0018359364   2.0645117      760.6125      -5.1656623      755.44684    
   1652000   301.40877      0.0018359364   2.1351177      747.80347     -4.7548284      743.04864    
   1653000   297.48152      0.0018359364   0.64454722     738.05986     -3.9503265      734.10954    
   1654000   289.6782       0.0018359364   0.097142204    718.69959     -4.7380215      713.96157    
   1655000   303.39412      0.0018359364   2.3068051      752.72918     -5.7104602      747.01872    
   1656000   303.00855      0.0018359364   1.4640409      751.77257     -4.3626214      747.40995    
   1657000   302.23184      0.0018359364   0.44222224     749.84553     -4.178248       745.66729    
   1658000   301.66971      0.0018359364   0.14446627     748.45087     -3.2542045      745.19667    
   1659000   306.54851      0.0018359364   1.036763       760.5553      -2.3366546      758.21865    
   1660000   301.94607      0.0018359364   2.1216396      749.13653     -2.4907472      746.64579    
   1661000   310.58097      0.0018359364   0.18580065     770.55995     -3.1829387      767.37701    
   1662000   311.39832      0.0018359364   0.4370593      772.58783     -3.0853669      769.50246    
   1663000   298.44336      0.0018359364   0.99018926     740.44621     -3.148987       737.29723    
   1664000   311.54187      0.0018359364   1.1362005      772.94396     -2.5910444      770.35292    
   1665000   302.17682      0.0018359364   1.0330608      749.70901     -3.6798052      746.02921    
   1666000   293.99918      0.0018359364   0.92358779     729.42006     -3.2110365      726.20903    
   1667000   288.6527       0.0018359364   1.0529699      716.15531     -3.4197013      712.73561    
   1668000   319.296        0.0018359364   1.1489984      792.18217     -1.0290335      791.15314    
   1669000   303.64438      0.0018359364   1.1719353      753.35007     -2.4095227      750.94054    
   1670000   286.99212      0.0018359364   0.88322102     712.03535     -3.6146577      708.42069    
   1671000   317.91728      0.0018359364   0.68292302     788.76153     -4.3494251      784.4121     
   1672000   311.67517      0.0018359364   2.2695874      773.27468     -4.0866448      769.18804    
   1673000   286.50654      0.0018359364   1.5397089      710.83063     -4.7630032      706.06763    
   1674000   291.91753      0.0018359364   0.42864564     724.25543     -3.8836854      720.37175    
   1675000   297.95257      0.0018359364  -0.52461119     739.22853     -2.7109125      736.51762    
   1676000   314.18649      0.0018359364   0.39304046     779.50535     -3.9977889      775.50756    
   1677000   306.07254      0.0018359364   1.3997026      759.37441     -2.3560809      757.01832    
   1678000   300.43168      0.0018359364   1.042892       745.37927     -3.6770364      741.70223    
   1679000   282.88236      0.0018359364   0.85743482     701.83893     -3.7190266      698.11991    
   1680000   294.42405      0.0018359364   0.34116765     730.47418     -2.7941226      727.68006    
   1681000   297.0506       0.0018359364   0.99211695     736.99072     -4.9859409      732.00477    
   1682000   305.64762      0.0018359364   2.4123494      758.32017     -2.3644826      755.95569    
   1683000   292.13649      0.0018359364   0.0022234371   724.79869     -2.4262782      722.37241    
   1684000   293.87632      0.0018359364   0.53794151     729.11524     -2.5721098      726.54313    
   1685000   304.96383      0.0018359364   1.5421249      756.62367     -2.6705783      753.95309    
   1686000   283.27541      0.0018359364   1.6649541      702.81411     -2.7101447      700.10396    
   1687000   311.74587      0.0018359364  -0.79988562     773.45009     -2.513926       770.93617    
   1688000   306.91887      0.0018359364   1.6372122      761.47418     -3.1020285      758.37215    
   1689000   303.53814      0.0018359364   2.8565103      753.0865      -2.7883638      750.29814    
   1690000   292.30675      0.0018359364   2.6874347      725.22112     -2.6757628      722.54535    
   1691000   299.53524      0.0018359364   0.30839588     743.15519     -3.1220928      740.0331     
   1692000   319.23282      0.0018359364   1.5503861      792.02544     -2.6012869      789.42415    
   1693000   302.31144      0.0018359364   2.0359701      750.04301     -4.7825697      745.26045    
   1694000   279.45232      0.0018359364   2.4049198      693.32891     -2.119503       691.20941    
   1695000   292.86788      0.0018359364  -0.08150662     726.61328     -3.4873445      723.12594    
   1696000   303.57153      0.0018359364  -1.737361       753.16934     -1.4940514      751.67529    
   1697000   302.88503      0.0018359364   3.1053181      751.4661      -3.6594407      747.80666    
   1698000   295.03705      0.0018359364   1.2877191      731.99505     -4.3213944      727.67366    
   1699000   286.07796      0.0018359364  -0.99400647     709.7673      -4.4281597      705.33914    
   1700000   294.6275       0.0018359364   1.0692136      730.97896     -5.4133128      725.56565    
   1701000   294.77349      0.0018359364   1.3096645      731.34114     -3.5012423      727.8399     
   1702000   296.02633      0.0018359364   1.6303548      734.44949     -2.7285296      731.72096    
   1703000   291.72936      0.0018359364  -0.35372805     723.78858     -2.1779514      721.61063    
   1704000   310.28838      0.0018359364  -0.79435111     769.83401     -2.5212678      767.31274    
   1705000   295.98638      0.0018359364   3.3697787      734.35036     -2.1815379      732.16882    
   1706000   294.77049      0.0018359364   0.73712093     731.33372     -3.1286415      728.20508    
   1707000   304.48002      0.0018359364  -1.2564944      755.42333     -4.0552019      751.36813    
   1708000   303.96201      0.0018359364   0.29940891     754.13814     -6.9971189      747.14102    
   1709000   304.52768      0.0018359364   1.6925748      755.54156     -3.7161544      751.82541    
   1710000   295.66216      0.0018359364   2.6464583      733.54597     -4.3609421      729.18503    
   1711000   299.16365      0.0018359364   1.5947255      742.23326     -2.2254943      740.00777    
   1712000   306.96195      0.0018359364  -1.6527439      761.58106     -3.7025873      757.87848    
   1713000   306.15545      0.0018359364   1.6375887      759.58011     -4.0541273      755.52598    
   1714000   292.88393      0.0018359364   0.87136161     726.65312     -4.8096295      721.84349    
   1715000   303.44344      0.0018359364   0.15778898     752.85153     -2.2497004      750.60183    
   1716000   308.25248      0.0018359364   0.16934063     764.78289     -3.7538498      761.02904    
   1717000   311.61902      0.0018359364   1.487456       773.13539     -3.8984938      769.23689    
   1718000   297.57798      0.0018359364   2.1086354      738.29916     -5.1371336      733.16203    
   1719000   293.24585      0.0018359364  -0.038832268    727.55102     -3.9142909      723.63673    
   1720000   303.08621      0.0018359364   0.89923492     751.96525     -2.3613923      749.60386    
   1721000   295.70157      0.0018359364   2.048621       733.64375     -1.5532093      732.09054    
   1722000   283.81397      0.0018359364   1.0866218      704.15029     -3.6314947      700.5188     
   1723000   304.84994      0.0018359364  -0.059998161    756.34112     -4.8341678      751.50695    
   1724000   311.83647      0.0018359364   1.1275958      773.67488     -3.5573921      770.11749    
   1725000   293.78837      0.0018359364   1.2939369      728.89704     -3.2024328      725.69461    
   1726000   291.81082      0.0018359364   0.94981511     723.99068     -4.3015258      719.68916    
   1727000   318.96958      0.0018359364   0.9510797      791.37232     -3.4352317      787.93709    
   1728000   309.55858      0.0018359364   1.0497654      768.02337     -4.9190066      763.10436    
   1729000   294.5953       0.0018359364   0.57192056     730.89905     -2.9157834      727.98327    
   1730000   287.04331      0.0018359364   1.0530629      712.16236     -3.2039972      708.95836    
   1731000   313.41222      0.0018359364   1.1992469      777.58435     -4.4972287      773.08712    
   1732000   311.31481      0.0018359364   0.47628353     772.38063     -5.1759465      767.20468    
   1733000   288.05177      0.0018359364   1.0502769      714.66438     -6.5403888      708.12399    
   1734000   305.0692       0.0018359364   1.1959265      756.8851      -7.0874995      749.7976     
   1735000   299.25288      0.0018359364   0.7227172      742.45465     -5.1546258      737.30002    
   1736000   301.69805      0.0018359364   0.78178508     748.52118     -5.1807511      743.34043    
   1737000   306.99193      0.0018359364   2.1491512      761.65543     -4.1904788      757.46495    
   1738000   304.2708       0.0018359364   2.0343172      754.90424     -4.6242388      750.28       
   1739000   292.18111      0.0018359364   1.8532851      724.90938     -5.326489       719.58289    
   1740000   300.70023      0.0018359364   1.0417283      746.04555     -3.0911587      742.95439    
   1741000   313.44324      0.0018359364  -0.25701359     777.66131     -3.9807505      773.68056    
   1742000   302.18998      0.0018359364   0.68093102     749.74166     -5.3621139      744.37955    
   1743000   284.3225       0.0018359364   1.0705321      705.41196     -4.1994296      701.21253    
   1744000   297.58972      0.0018359364   1.4842228      738.3283      -3.2021916      735.12611    
   1745000   314.80267      0.0018359364   1.0003905      781.0341      -3.8493209      777.18478    
   1746000   304.59106      0.0018359364   0.30524911     755.69883     -4.2542922      751.44453    
   1747000   293.14529      0.0018359364   1.1241022      727.30156     -2.790501       724.51105    
   1748000   301.95761      0.0018359364   1.1183458      749.16515     -3.3184233      745.84672    
   1749000   309.24944      0.0018359364   0.81309925     767.25638     -3.8292353      763.42714    
   1750000   293.25858      0.0018359364   1.0474147      727.58262     -4.0792746      723.50335    
   1751000   293.30542      0.0018359364   1.4648936      727.69882     -4.8274981      722.87132    
   1752000   313.41471      0.0018359364   1.1915631      777.59054     -3.9083287      773.68221    
   1753000   304.07362      0.0018359364   0.38642408     754.41503     -5.0431456      749.37188    
   1754000   283.58136      0.0018359364   1.1008323      703.57316     -3.6030799      699.97008    
   1755000   296.09565      0.0018359364   1.2254245      734.62146     -2.6491395      731.97232    
   1756000   313.43743      0.0018359364   1.1775202      777.64691     -3.5152501      774.13166    
   1757000   302.47568      0.0018359364   0.94369991     750.45051     -3.7592742      746.69123    
   1758000   286.63382      0.0018359364   0.93124458     711.14641     -4.7154083      706.431      
   1759000   310.85616      0.0018359364   1.86719        771.24269     -4.3820738      766.86062    
   1760000   319.71697      0.0018359364   1.073498       793.22661     -5.1412421      788.08536    
   1761000   314.28545      0.0018359364   1.0636236      779.75088     -4.1061558      775.64472    
   1762000   293.33338      0.0018359364   1.0748694      727.76821     -5.2902986      722.47791    
   1763000   305.24558      0.0018359364   1.1743424      757.32271     -5.2421946      752.08051    
   1764000   311.18826      0.0018359364   1.115648       772.06665     -5.2277057      766.83894    
   1765000   303.43786      0.0018359364   0.80920536     752.8377      -5.4138996      747.4238     
   1766000   294.81001      0.0018359364   1.0831498      731.43175     -2.4131014      729.01865    
   1767000   298.21108      0.0018359364   1.312442       739.86992     -2.5503665      737.31955    
   1768000   306.58176      0.0018359364   1.0671826      760.63779     -3.2339102      757.40388    
   1769000   302.43187      0.0018359364   0.77283599     750.34179     -4.6214821      745.72031    
   1770000   289.85753      0.0018359364   0.93450458     719.14453     -4.9219782      714.22255    
   1771000   292.95189      0.0018359364   1.2708145      726.82171     -4.0459596      722.77575    
   1772000   312.38942      0.0018359364   1.064101       775.04676     -5.5832552      769.4635     
   1773000   310.75166      0.0018359364  -0.85376949     770.98343     -4.3257864      766.65764    
   1774000   292.88554      0.0018359364  -0.19735293     726.6571      -5.6910842      720.96601    
   1775000   287.31782      0.0018359364   2.1315194      712.84343     -5.6659357      707.1775     
   1776000   314.00872      0.0018359364   1.2996579      779.0643      -1.2615423      777.80276    
   1777000   299.31516      0.0018359364   0.4722708      742.60915     -1.7886959      740.82045    
   1778000   288.27142      0.0018359364   3.3774711      715.20934     -2.554453       712.65488    
   1779000   288.02522      0.0018359364   1.7003598      714.59851     -2.7382124      711.8603     
   1780000   305.91304      0.0018359364  -0.082963302    758.97869     -3.1347982      755.8439     
   1781000   306.27007      0.0018359364   1.2159452      759.86449     -4.033086       755.8314     
   1782000   294.58643      0.0018359364   1.3942348      730.87707     -3.2781406      727.59892    
   1783000   305.26021      0.0018359364   3.0343524      757.35899     -3.9487816      753.41021    
   1784000   309.67079      0.0018359364  -0.69135064     768.30177     -3.559196       764.74258    
   1785000   300.75112      0.0018359364   0.94819118     746.17183     -4.5177919      741.65403    
   1786000   287.85641      0.0018359364   0.60784379     714.17968     -3.6604868      710.51919    
   1787000   294.88617      0.0018359364   2.0616671      731.62071     -3.3517137      728.26899    
   1788000   316.77624      0.0018359364   0.50557289     785.93058     -2.7039419      783.22663    
   1789000   310.80263      0.0018359364   0.4841126      771.1099      -1.7462354      769.36366    
   1790000   290.06645      0.0018359364   1.3917821      719.66285     -3.4261664      716.23669    
   1791000   287.36978      0.0018359364   1.7648804      712.97234     -3.5012892      709.47106    
   1792000   308.49022      0.0018359364   1.4457686      765.37273     -2.0808831      763.29185    
   1793000   297.52165      0.0018359364  -1.0611186      738.15941     -3.0306687      735.12874    
   1794000   295.71574      0.0018359364   1.7466657      733.67889     -4.3712354      729.30766    
   1795000   307.8883       0.0018359364   2.2985943      763.87935     -5.3186426      758.56071    
   1796000   312.72279      0.0018359364   0.80134193     775.87386     -2.4450336      773.42883    
   1797000   291.26326      0.0018359364   0.78031135     722.63217     -3.7941517      718.83802    
   1798000   286.82011      0.0018359364   1.1027024      711.60861     -4.3582658      707.25034    
   1799000   302.1052       0.0018359364   1.0600901      749.53132     -2.8518735      746.67944    
   1800000   302.90969      0.0018359364   1.0460288      751.52729     -3.8360945      747.6912     
   1801000   311.55946      0.0018359364   1.0567734      772.98761     -3.5134842      769.47413    
   1802000   287.41363      0.0018359364   1.0117626      713.08115     -2.8359119      710.24523    
   1803000   277.17051      0.0018359364   0.97670292     687.66769     -3.5382169      684.12947    
   1804000   310.27713      0.0018359364   1.1887606      769.80612     -4.4913363      765.31479    
   1805000   310.05757      0.0018359364   0.97812618     769.26137     -3.1229971      766.13837    
   1806000   290.51742      0.0018359364   0.93733746     720.78172     -2.9487352      717.83298    
   1807000   299.40305      0.0018359364   0.87428044     742.82722     -3.411387       739.41583    
   1808000   303.61486      0.0018359364   1.0318194      753.27685     -1.6998557      751.57699    
   1809000   304.23256      0.0018359364   1.2592112      754.80937     -3.3626412      751.44673    
   1810000   296.34904      0.0018359364   0.02705094     735.25013     -1.5614978      733.68864    
   1811000   300.06425      0.0018359364   1.4996148      744.46767     -3.7803637      740.68731    
   1812000   305.36947      0.0018359364   0.99331215     757.63008     -4.8069355      752.82314    
   1813000   300.04372      0.0018359364   0.95996956     744.41674     -4.3202457      740.09649    
   1814000   300.20116      0.0018359364   0.70742884     744.80735     -4.5601392      740.24721    
   1815000   310.98816      0.0018359364   1.0881848      771.5702      -3.3754568      768.19475    
   1816000   301.61429      0.0018359364   1.0177904      748.31336     -2.9977389      745.31562    
   1817000   287.51977      0.0018359364   1.2488345      713.34448     -4.0255033      709.31898    
   1818000   310.32912      0.0018359364   1.1873338      769.93511     -2.533591       767.40152    
   1819000   310.59154      0.0018359364   0.68658367     770.58618     -3.2585221      767.32766    
   1820000   293.91803      0.0018359364   0.83463791     729.21872     -3.2114363      726.00729    
   1821000   287.54432      0.0018359364   0.97280055     713.40538     -2.3424908      711.06289    
   1822000   298.28953      0.0018359364   1.026852       740.06454     -4.0334602      736.03108    
   1823000   307.30848      0.0018359364   1.0590017      762.4408      -3.025909       759.41489    
   1824000   299.43078      0.0018359364   0.99182662     742.89602     -5.4775149      737.41851    
   1825000   297.77576      0.0018359364   0.82899469     738.78987     -3.0460851      735.74378    
   1826000   308.13084      0.0018359364   0.95754355     764.48111     -6.3769274      758.10418    
   1827000   301.02908      0.0018359364   1.3056941      746.86144     -3.1395539      743.72188    
   1828000   295.51022      0.0018359364   1.2928455      733.169       -3.3017949      729.86721    
   1829000   293.66827      0.0018359364   0.7977274      728.59908     -2.7720905      725.82699    
   1830000   319.01379      0.0018359364   0.88522086     791.48201     -3.792898       787.68911    
   1831000   306.15829      0.0018359364   1.392752       759.58716     -2.5653232      757.02183    
   1832000   295.14137      0.0018359364   1.0284362      732.25387     -2.6677161      729.58616    
   1833000   291.77589      0.0018359364   0.74337562     723.90404     -3.9141272      719.98991    
   1834000   308.06411      0.0018359364   0.86643917     764.31555     -2.7517227      761.56383    
   1835000   286.96012      0.0018359364   1.5813169      711.95596     -3.9674156      707.98854    
   1836000   293.86136      0.0018359364   1.5787953      729.07814     -3.67465        725.40349    
   1837000   297.14735      0.0018359364   0.60437391     737.23077     -4.1117266      733.11904    
   1838000   293.95904      0.0018359364   0.60669362     729.32048     -2.3149837      727.0055     
   1839000   302.11079      0.0018359364   0.83592314     749.5452      -1.9952318      747.54997    
   1840000   322.74013      0.0018359364   1.8596841      800.72717     -3.7677891      796.95938    
   1841000   289.8363       0.0018359364   1.0169567      719.09185     -3.8983032      715.19355    
   1842000   302.19745      0.0018359364   1.0665512      749.76021     -3.6879128      746.07229    
   1843000   316.11803      0.0018359364   1.588415       784.29754     -5.2840489      779.0135     
   1844000   299.20814      0.0018359364   1.0030529      742.34364     -6.3326905      736.01095    
   1845000   294.66838      0.0018359364   0.91839898     731.08036     -4.6223888      726.45798    
   1846000   304.96089      0.0018359364   1.1128025      756.61638     -3.5744776      753.0419     
   1847000   309.29681      0.0018359364   1.6375214      767.37391     -3.2935383      764.08037    
   1848000   298.85636      0.0018359364   1.0604236      741.47088     -2.2162174      739.25466    
   1849000   295.70136      0.0018359364   0.54459863     733.64323     -1.4493824      732.19385    
   1850000   300.62338      0.0018359364   1.3002239      745.85489     -1.2394199      744.61547    
   1851000   306.20692      0.0018359364   1.5095436      759.70781     -1.1797718      758.52804    
   1852000   300.81724      0.0018359364   1.3370332      746.33587     -3.0031556      743.33271    
   1853000   293.06547      0.0018359364   0.29244516     727.10351     -2.4704609      724.63305    
   1854000   295.32244      0.0018359364   0.95623967     732.70311     -2.9127205      729.79039    
   1855000   295.91833      0.0018359364   1.1033936      734.18154     -2.4049333      731.7766     
   1856000   301.48958      0.0018359364   1.0525181      748.00396     -3.8671681      744.13679    
   1857000   305.87986      0.0018359364   0.81057423     758.89637     -3.0272753      755.86909    
   1858000   296.70904      0.0018359364   1.0240973      736.1433      -3.3109273      732.83237    
   1859000   309.76222      0.0018359364   1.0594228      768.52862     -3.7137657      764.81485    
   1860000   292.73783      0.0018359364   0.91778674     726.29062     -3.2582377      723.03238    
   1861000   294.68556      0.0018359364   1.0084697      731.123       -2.4900295      728.63297    
   1862000   309.49344      0.0018359364   1.0589417      767.86176     -1.8370353      766.02472    
   1863000   299.70667      0.0018359364   0.99335548     743.58052     -2.359072       741.22145    
   1864000   307.62332      0.0018359364   0.99018134     763.22194     -1.503023       761.71892    
   1865000   307.57707      0.0018359364   1.0771771      763.10718     -3.7506104      759.35657    
   1866000   291.38905      0.0018359364   0.98124015     722.94428     -3.2229529      719.72132    
   1867000   284.00676      0.0018359364   1.075368       704.62861     -3.4950916      701.13352    
   1868000   309.83047      0.0018359364   0.67218854     768.69795     -5.1431324      763.55481    
   1869000   309.90926      0.0018359364   1.6014309      768.89342     -1.2153227      767.6781     
   1870000   290.49637      0.0018359364   0.89259716     720.72949     -2.5227217      718.20677    
   1871000   303.32717      0.0018359364   0.58272358     752.56306     -2.7032135      749.85984    
   1872000   317.82996      0.0018359364   1.2125374      788.54489     -2.8509726      785.69392    
   1873000   297.82868      0.0018359364   1.0127689      738.92116     -2.653457       736.2677     
   1874000   288.33794      0.0018359364   0.7626216      715.37437     -1.7591558      713.61522    
   1875000   294.99013      0.0018359364   0.83943691     731.87864     -1.3141321      730.5645     
   1876000   307.00893      0.0018359364   0.80297255     761.69762     -1.6181548      760.07946    
   1877000   302.62782      0.0018359364   0.95268604     750.82796     -1.1748589      749.6531     
   1878000   296.73314      0.0018359364   1.1678989      736.2031      -3.621404       732.58169    
   1879000   287.96652      0.0018359364   0.95122914     714.45287     -2.9258854      711.52699    
   1880000   299.60476      0.0018359364   0.97992111     743.32768     -4.9850615      738.34262    
   1881000   296.74232      0.0018359364   0.74654504     736.22587     -0.82597364     735.3999     
   1882000   301.54813      0.0018359364   1.0457557      748.14923     -2.3284363      745.82079    
   1883000   308.42907      0.0018359364   1.3275459      765.22102     -1.2074902      764.01353    
   1884000   295.71346      0.0018359364   3.3942466      733.67324     -1.4521258      732.22111    
   1885000   300.31453      0.0018359364  -0.28804525     745.08863     -2.5284486      742.56018    
   1886000   294.70743      0.0018359364  -0.93345742     731.17725     -1.8852652      729.29198    
   1887000   308.59536      0.0018359364  -0.20228736     765.63359     -1.1452678      764.48833    
   1888000   290.52266      0.0018359364   2.5343533      720.79472      1.3993093      722.19403    
   1889000   299.7866       0.0018359364   2.6049083      743.77882     -2.721952       741.05687    
   1890000   301.07111      0.0018359364  -1.2484325      746.96573     -0.67679757     746.28893    
   1891000   301.85001      0.0018359364  -0.10256117     748.89819     -1.5340608      747.36413    
   1892000   301.21261      0.0018359364  -1.2189084      747.31679     -1.972434       745.34435    
   1893000   307.85075      0.0018359364   3.7942409      763.7862      -1.5964643      762.18973    
   1894000   293.79604      0.0018359364  -1.2889296      728.91607     -3.2133238      725.70274    
   1895000   303.05358      0.0018359364  -2.4493414      751.88428     -1.8955001      749.98878    
   1896000   288.58936      0.0018359364   2.349938       715.99815     -1.6436115      714.35454    
   1897000   293.02559      0.0018359364   0.25301116     727.00456     -2.2020572      724.8025     
   1898000   304.69703      0.0018359364  -1.1838271      755.96174     -2.9210608      753.04068    
   1899000   314.13654      0.0018359364   2.1680581      779.38142     -1.9728781      777.40854    
   1900000   282.86743      0.0018359364   2.133054       701.80188     -1.6402262      700.16166    
   1901000   303.06114      0.0018359364  -2.1602938      751.90305     -1.3491892      750.55386    
   1902000   308.09101      0.0018359364   2.1440715      764.38229     -2.6008163      761.78148    
   1903000   298.9112       0.0018359364   1.7075912      741.60693     -1.8601787      739.74676    
   1904000   295.50486      0.0018359364  -1.4519446      733.15571     -2.8356346      730.32007    
   1905000   296.72198      0.0018359364   1.3627913      736.17541     -2.3148998      733.86051    
   1906000   299.30567      0.0018359364   1.3813989      742.58562     -3.536792       739.04883    
   1907000   293.21435      0.0018359364  -1.5484333      727.47288     -4.9379658      722.53491    
   1908000   301.83232      0.0018359364   0.1142647      748.8543      -2.8374615      746.01684    
   1909000   298.7205       0.0018359364   1.9618605      741.13378     -3.3906843      737.7431     
   1910000   296.5651       0.0018359364   1.1953188      735.78618     -2.4761598      733.31002    
   1911000   300.00551      0.0018359364   0.37136539     744.32193     -1.0059752      743.31595    
   1912000   308.04345      0.0018359364  -0.33203193     764.2643      -2.1627139      762.10159    
   1913000   298.19222      0.0018359364   0.79421723     739.82311     -2.1217635      737.70135    
   1914000   297.91496      0.0018359364   1.2977467      739.13524     -2.5905928      736.54464    
   1915000   295.83358      0.0018359364   2.8928136      733.97126     -4.728831       729.24243    
   1916000   296.99533      0.0018359364  -1.1226475      736.8536      -4.6101645      732.24343    
   1917000   298.63302      0.0018359364   0.89092753     740.91675     -3.7275514      737.1892     
   1918000   304.98372      0.0018359364   2.199923       756.67302     -3.3234566      753.34956    
   1919000   307.96572      0.0018359364   2.3050576      764.07145     -3.4950305      760.57642    
   1920000   291.82954      0.0018359364   1.1308738      724.03713     -2.6293362      721.4078     
   1921000   294.57408      0.0018359364  -0.24464362     730.84641     -2.2273315      728.61908    
   1922000   312.19561      0.0018359364   1.6945323      774.56592     -2.4422         772.12372    
   1923000   298.17213      0.0018359364   1.3572989      739.77328     -3.7971443      735.97614    
   1924000   294.86446      0.0018359364  -0.44285155     731.56686     -3.9576542      727.60921    
   1925000   302.21284      0.0018359364   1.1455428      749.79839     -1.7705612      748.02782    
   1926000   305.28005      0.0018359364   1.7701282      757.40821     -3.9007514      753.50746    
   1927000   295.8658       0.0018359364   1.6134133      734.05119     -1.7034158      732.34778    
   1928000   297.78619      0.0018359364   0.89529413     738.81575     -3.9510946      734.86466    
   1929000   301.4963       0.0018359364   0.69663908     748.02063     -3.7312884      744.28934    
   1930000   297.92296      0.0018359364   1.0787852      739.15507     -2.3796387      736.77543    
   1931000   296.34797      0.0018359364   1.4275745      735.24748     -2.8926756      732.35481    
   1932000   299.40446      0.0018359364   0.83085225     742.83072     -3.634024       739.1967     
   1933000   298.69318      0.0018359364   0.65550757     741.06601     -2.807567       738.25844    
   1934000   300.69393      0.0018359364   1.0632245      746.02992     -6.0985391      739.93138    
   1935000   307.64099      0.0018359364   1.1199796      763.26578     -4.7339669      758.53182    
   1936000   288.1614       0.0018359364   0.36704734     714.93637     -4.7295424      710.20683    
   1937000   306.88595      0.0018359364   0.71488057     761.3925      -4.5814498      756.81105    
   1938000   310.76033      0.0018359364   1.1135655      771.00494     -2.5158401      768.4891     
   1939000   311.41576      0.0018359364   1.4257953      772.63108     -2.6584593      769.97262    
   1940000   297.98091      0.0018359364   0.9324215      739.29885     -2.1984991      737.10035    
   1941000   301.09171      0.0018359364   1.0827453      747.01682     -3.4689185      743.5479     
   1942000   305.90055      0.0018359364   1.049836       758.9477      -3.7429379      755.20476    
   1943000   296.74178      0.0018359364   0.93122308     736.22453     -4.4921043      731.73243    
   1944000   291.9376       0.0018359364   1.8226355      724.30524     -2.8155487      721.48969    
   1945000   293.89156      0.0018359364   1.0507809      729.15306     -2.9675424      726.18551    
   1946000   300.37169      0.0018359364   0.43035099     745.23044     -1.9414416      743.289      
   1947000   301.38584      0.0018359364   1.4945968      747.74658     -3.4939292      744.25265    
   1948000   289.27037      0.0018359364   1.0480447      717.68777     -4.1933368      713.49443    
   1949000   306.89508      0.0018359364   0.9909121      761.41515     -4.0366135      757.37853    
   1950000   306.49313      0.0018359364   0.37007185     760.41791     -3.0592872      757.35863    
   1951000   303.92766      0.0018359364   3.3515796      754.0529      -4.3982618      749.65464    
   1952000   299.27145      0.0018359364   1.357854       742.50073     -3.4885676      739.01216    
   1953000   307.01116      0.0018359364   0.7847518      761.70315     -2.6705938      759.03256    
   1954000   308.85711      0.0018359364   0.82245462     766.28301     -3.9060924      762.37691    
   1955000   298.83983      0.0018359364   0.90256322     741.42985     -2.744386       738.68546    
   1956000   305.2827       0.0018359364   0.90376555     757.41478     -3.2862659      754.12852    
   1957000   298.06177      0.0018359364   1.1440479      739.49948     -3.77646        735.72302    
   1958000   295.73294      0.0018359364   1.0047526      733.72158     -5.5251014      728.19648    
   1959000   297.10519      0.0018359364   0.98264574     737.12616     -5.578186       731.54798    
   1960000   307.5041       0.0018359364   1.2285514      762.92615     -4.4832276      758.44292    
   1961000   300.12855      0.0018359364   0.90661564     744.6272      -6.5126861      738.11452    
   1962000   295.85364      0.0018359364   1.0200568      734.02103     -4.3829092      729.63812    
   1963000   298.83585      0.0018359364   1.553126       741.41998     -5.6198092      735.80017    
   1964000   306.99711      0.0018359364   1.7209762      761.66829     -4.7230951      756.94519    
   1965000   292.48513      0.0018359364   1.028193       725.66368     -5.1240801      720.5396     
   1966000   301.19937      0.0018359364   0.49111414     747.28393     -4.0310592      743.25287    
   1967000   296.8644       0.0018359364   1.1855678      736.52876     -2.352662       734.1761     
   1968000   301.88585      0.0018359364   2.8642258      748.98712     -3.2114431      745.77568    
   1969000   295.12282      0.0018359364   0.59032527     732.20786     -3.0389085      729.16895    
   1970000   301.42028      0.0018359364   0.74002549     747.83203     -3.9625219      743.86951    
   1971000   293.51673      0.0018359364   2.0924685      728.22311     -3.4762191      724.74689    
   1972000   307.19074      0.0018359364   1.251802       762.14868     -3.4790269      758.66966    
   1973000   298.31274      0.0018359364   0.46781459     740.12213     -5.3078045      734.81432    
   1974000   302.66605      0.0018359364   1.3524044      750.92282     -5.5194232      745.4034     
   1975000   299.6363       0.0018359364   0.84799349     743.40592     -6.5999283      736.80599    
   1976000   301.89858      0.0018359364   0.15755722     749.01869     -5.2876015      743.73109    
   1977000   301.7071       0.0018359364   1.1993218      748.54363     -3.3040259      745.2396     
   1978000   303.28524      0.0018359364   1.2663088      752.45904     -4.5226156      747.93642    
   1979000   295.58811      0.0018359364   1.1150362      733.36225     -4.1136017      729.24865    
   1980000   297.19241      0.0018359364   0.9243159      737.34257     -2.6460201      734.69655    
   1981000   285.81759      0.0018359364   0.83063229     709.12132     -3.3624169      705.75891    
   1982000   303.97127      0.0018359364   0.85460392     754.1611      -2.8540476      751.30706    
   1983000   311.91549      0.0018359364   1.0898575      773.87094     -2.7810093      771.08993    
   1984000   295.8615       0.0018359364   1.5212798      734.04053     -3.1392886      730.90124    
   1985000   295.88119      0.0018359364   0.76974874     734.08939     -3.8764209      730.21297    
   1986000   310.12144      0.0018359364   1.0608461      769.41984     -2.2181135      767.20173    
   1987000   299.37918      0.0018359364   1.6935208      742.76801     -2.9758851      739.79212    
   1988000   291.82775      0.0018359364   1.0642117      724.0327      -2.8464039      721.18629    
   1989000   298.07846      0.0018359364   0.39818422     739.54087     -3.5796595      735.96121    
   1990000   314.25728      0.0018359364   1.0104051      779.68099     -3.2485958      776.43239    
   1991000   308.56499      0.0018359364   1.162917       765.55825     -2.5672658      762.99099    
   1992000   289.53407      0.0018359364   1.1480422      718.34202     -3.1614398      715.18058    
   1993000   286.57276      0.0018359364   0.75565522     710.99492     -2.2789973      708.71593    
   1994000   296.08354      0.0018359364   1.065191       734.59143     -1.8210942      732.77034    
   1995000   303.32763      0.0018359364   1.0026317      752.56421     -2.2913685      750.27284    
   1996000   305.85026      0.0018359364   1.1117887      758.82292     -4.3355152      754.48741    
   1997000   300.73886      0.0018359364   1.0481472      746.1414      -4.6042007      741.5372     
   1998000   293.44844      0.0018359364   0.86102117     728.05366     -4.9876577      723.066      
   1999000   301.99115      0.0018359364   1.0678848      749.24836     -4.0841997      745.16416    
   2000000   313.16609      0.0018359364   1.3519755      776.9737      -4.1515991      772.8221     
   2001000   296.3793       0.0018359364   0.86628071     735.32522     -1.8381834      733.48704    
   2002000   278.631        0.0018359364   1.3452913      691.2912      -1.8109946      689.48021    
   2003000   315.33798      0.0018359364   1.2394655      782.36221     -0.9003392      781.46187    
   2004000   308.75765      0.0018359364   0.97631197     766.03624     -1.5022024      764.53403    
   2005000   292.59486      0.0018359364   1.0413783      725.9359      -2.0369374      723.89896    
   2006000   297.36705      0.0018359364   1.1226054      737.77585      0.013541397    737.78939    
   2007000   324.90616      0.0018359364   1.1204945      806.10115     -2.3305629      803.77058    
   2008000   294.41891      0.0018359364   1.0651412      730.46143     -1.9508734      728.51056    
   2009000   293.02858      0.0018359364   0.8758047      727.01199     -1.8670339      725.14496    
   2010000   317.98964      0.0018359364   1.1244947      788.94106     -2.9206244      786.02043    
   2011000   296.06075      0.0018359364   1.3061715      734.53487     -4.3578746      730.177      
   2012000   289.97554      0.0018359364   0.94917741     719.43731     -4.1980152      715.23929    
   2013000   296.87348      0.0018359364   0.63367171     736.55128     -1.3518714      735.19941    
   2014000   312.65731      0.0018359364   1.089657       775.7114      -3.5562916      772.1551     
   2015000   291.89058      0.0018359364   1.1686324      724.18858     -4.404135       719.78444    
   2016000   293.13681      0.0018359364   0.94665717     727.2805      -5.0915947      722.1889     
   2017000   305.18776      0.0018359364   0.57952228     757.17924     -3.7866183      753.39262    
   2018000   306.13052      0.0018359364   0.9701983      759.51825     -4.5740889      754.94416    
   2019000   310.13868      0.0018359364   1.0478781      769.46262     -5.8134645      763.64916    
   2020000   283.8132       0.0018359364   1.0455462      704.14838     -2.455691       701.69269    
   2021000   297.39785      0.0018359364   1.0517012      737.85226     -2.4624628      735.3898     
   2022000   311.20601      0.0018359364   1.0424544      772.11069     -3.0403193      769.07037    
   2023000   296.31581      0.0018359364   1.014248       735.16769     -3.9379131      731.22977    
   2024000   295.83341      0.0018359364   1.01025        733.97084     -4.6367446      729.3341     
   2025000   308.2252       0.0018359364   1.1649548      764.71522     -2.4503588      762.26486    
   2026000   314.77252      0.0018359364   0.78762        780.9593      -3.5618306      777.39747    
   2027000   299.61994      0.0018359364   0.46639997     743.36533     -3.4735294      739.8918     
   2028000   289.03308      0.0018359364   1.3320471      717.09903     -3.5556411      713.54339    
   2029000   304.98886      0.0018359364   1.0832177      756.68577     -2.9551093      753.73066    
   2030000   295.1258       0.0018359364   1.0507422      732.21525     -2.1954014      730.01985    
   2031000   298.07766      0.0018359364   1.1297535      739.5389      -3.3779694      736.16093    
   2032000   307.40809      0.0018359364   1.0205184      762.68794     -2.7974993      759.89044    
   2033000   296.69911      0.0018359364   1.1522447      736.11868     -1.3460568      734.77262    
   2034000   288.83738      0.0018359364   0.66151604     716.61351     -3.2099279      713.40358    
   2035000   322.93855      0.0018359364   1.0587873      801.21944     -3.6066201      797.61282    
   2036000   305.23056      0.0018359364   1.3987056      757.28543     -2.0057685      755.27966    
   2037000   290.7093       0.0018359364   1.1314035      721.25778     -2.6827147      718.57507    
   2038000   281.23347      0.0018359364   0.73265829     697.748       -3.4733074      694.27469    
   2039000   304.09911      0.0018359364   0.76008966     754.47826     -4.2228966      750.25537    
   2040000   310.83313      0.0018359364   1.5422116      771.18557     -5.8244696      765.3611     
   2041000   296.15458      0.0018359364   1.2783058      734.76768     -3.5087231      731.25896    
   2042000   293.18553      0.0018359364   0.50346025     727.40139     -1.8627265      725.53866    
   2043000   307.60723      0.0018359364   0.71869505     763.18201     -2.8070914      760.37492    
   2044000   298.08817      0.0018359364   1.8426175      739.56498     -2.4789116      737.08607    
   2045000   295.09701      0.0018359364   1.6136593      732.14381     -2.3465393      729.79727    
   2046000   305.16515      0.0018359364  -1.2968168      757.12316     -3.8570914      753.26607    
   2047000   310.60241      0.0018359364   2.1786638      770.61314     -0.77153605     769.84161    
   2048000   288.11705      0.0018359364   1.0095552      714.82633     -1.8985845      712.92775    
   2049000   301.56         0.0018359364  -0.075540408    748.17867     -2.1138396      746.06483    
   2050000   305.93941      0.0018359364   2.703784       759.04411     -2.5244308      756.51968    
   2051000   293.46711      0.0018359364   1.0405006      728.09998     -2.4795801      725.6204     
   2052000   290.77207      0.0018359364  -0.010104497    721.41351     -0.87967905     720.53383    
   2053000   306.57607      0.0018359364   1.0840079      760.62367     -2.0909121      758.53276    
   2054000   306.47902      0.0018359364   4.555837       760.38289     -1.0341246      759.34876    
   2055000   293.50255      0.0018359364   0.75065977     728.18792     -0.88769072     727.30023    
   2056000   284.56757      0.0018359364  -1.000139       706.02        -2.1909375      703.82906    
   2057000   317.26992      0.0018359364   0.054763035    787.15542     -1.0321548      786.12326    
   2058000   300.80665      0.0018359364   2.6272556      746.3096      -2.6128814      743.69672    
   2059000   292.09583      0.0018359364   0.84585831     724.6978      -3.1926666      721.50513    
   2060000   298.75469      0.0018359364  -0.94382608     741.21862     -3.0202347      738.19838    
   2061000   304.55303      0.0018359364   2.8889203      755.60447     -2.2711574      753.33331    
   2062000   303.02512      0.0018359364   2.2587414      751.81367     -3.8076085      748.00606    
   2063000   290.69348      0.0018359364  -0.34248371     721.21853     -2.5213198      718.69721    
   2064000   294.22902      0.0018359364   0.212454       729.99031     -3.6417067      726.3486     
   2065000   311.87794      0.0018359364   0.18715657     773.77777     -3.9395266      769.83824    
   2066000   310.2843       0.0018359364   1.9578995      769.82391     -2.5240683      767.29984    
   2067000   298.42668      0.0018359364   1.5711387      740.40482     -2.9913802      737.41344    
   2068000   285.22343      0.0018359364   0.53681564     707.64719     -2.0355221      705.61167    
   2069000   282.04474      0.0018359364   0.32007711     699.76078     -2.5622738      697.19851    
   2070000   303.45937      0.0018359364  -1.9574459      752.89105     -3.085553       749.8055     
   2071000   317.87706      0.0018359364   0.44749233     788.66174     -2.6417251      786.02002    
   2072000   296.77748      0.0018359364   1.8507777      736.3131      -2.5336354      733.77947    
   2073000   296.90618      0.0018359364   0.83946982     736.63243     -2.9072506      733.72517    
   2074000   308.87484      0.0018359364   0.59764353     766.32699     -3.431659       762.89533    
   2075000   307.83822      0.0018359364   2.3039422      763.75512     -2.5687831      761.18633    
   2076000   290.47262      0.0018359364   0.77075999     720.67058     -4.8466544      715.82393    
   2077000   293.88127      0.0018359364   0.200088       729.12753     -4.2862403      724.84128    
   2078000   306.34133      0.0018359364  -0.15531012     760.04128     -1.8277118      758.21357    
   2079000   311.16434      0.0018359364   1.0495703      772.00729     -2.1298129      769.87748    
   2080000   299.84573      0.0018359364   1.7821955      743.92551     -1.0341673      742.89134    
   2081000   300.09201      0.0018359364   0.53252529     744.53656     -2.2785303      742.25803    
   2082000   314.9732       0.0018359364   0.94154614     781.45718     -1.0804713      780.37671    
   2083000   296.93527      0.0018359364   1.3528219      736.7046      -1.2022734      735.50232    
   2084000   292.68811      0.0018359364   0.72397322     726.16728     -1.5769496      724.59033    
   2085000   303.93518      0.0018359364   0.4486446      754.07155     -2.1504484      751.9211     
   2086000   313.56818      0.0018359364   1.1474461      777.97129     -1.9673184      776.00397    
   2087000   303.2567       0.0018359364   1.4879741      752.38822     -2.9009264      749.4873     
   2088000   291.82892      0.0018359364   1.2984917      724.03559     -3.5157826      720.51981    
   2089000   292.45428      0.0018359364   0.88121714     725.58714     -2.9351932      722.65195    
   2090000   306.61257      0.0018359364   0.68098821     760.71424     -2.3675984      758.34665    
   2091000   320.99566      0.0018359364   2.3047238      796.39909     -2.0688763      794.33021    
   2092000   313.89403      0.0018359364   1.147265       778.77975     -3.8255122      774.95424    
   2093000   300.66441      0.0018359364   1.4169639      745.9567      -3.0712972      742.8854     
   2094000   305.14916      0.0018359364   0.9845016      757.08348     -2.1620339      754.92145    
   2095000   300.38628      0.0018359364   0.23564478     745.26665     -4.2084432      741.0582     
   2096000   310.08642      0.0018359364   1.9325799      769.33297     -2.1832446      767.14972    
   2097000   294.67241      0.0018359364   3.0323576      731.09037     -2.7520318      728.33834    
   2098000   305.80764      0.0018359364  -0.96885585     758.71718     -3.8417085      754.87548    
   2099000   303.73301      0.0018359364   1.6257556      753.56996     -1.8477772      751.72219    
   2100000   292.23827      0.0018359364   1.5926588      725.05119     -2.6182278      722.43297    
   2101000   288.02393      0.0018359364   0.45644162     714.5953      -1.3453702      713.24993    
   2102000   312.73061      0.0018359364   0.1245574      775.89326     -2.0651323      773.82813    
   2103000   306.69639      0.0018359364   1.931007       760.92219     -2.3345804      758.58761    
   2104000   288.94654      0.0018359364   1.3589285      716.88432     -2.8941336      713.99019    
   2105000   309.43149      0.0018359364  -1.1940563      767.70804     -3.9723119      763.73573    
   2106000   309.70118      0.0018359364   2.1050539      768.37717     -2.1441089      766.23306    
   2107000   294.3412       0.0018359364   1.5522211      730.26863     -4.0205988      726.24803    
   2108000   294.43262      0.0018359364   1.0741987      730.49545     -3.7260038      726.76944    
   2109000   294.28772      0.0018359364  -0.0025439964   730.13594     -2.2840853      727.85185    
   2110000   303.27806      0.0018359364   1.0419251      752.44124     -3.2693146      749.17192    
   2111000   307.42928      0.0018359364   2.0026277      762.74051     -3.3360977      759.40441    
   2112000   296.55803      0.0018359364   0.93386174     735.76864     -2.7656185      733.00302    
   2113000   302.2185       0.0018359364   0.78244072     749.81243     -4.7142643      745.09817    
   2114000   306.35318      0.0018359364   2.0259618      760.07069     -3.6010485      756.46965    
   2115000   315.92283      0.0018359364   2.0456762      783.81326     -4.1422696      779.67099    
   2116000   287.98603      0.0018359364   1.0145033      714.50128     -1.9027281      712.59855    
   2117000   295.81747      0.0018359364   0.80992061     733.9313      -4.0972554      729.83404    
   2118000   311.1597       0.0018359364   2.5592133      771.9958      -2.3236326      769.67217    
   2119000   302.39161      0.0018359364   0.58432581     750.24191     -3.1535688      747.08834    
   2120000   298.5931       0.0018359364  -0.085262434    740.81772     -2.4777688      738.33996    
   2121000   309.23411      0.0018359364   2.8431261      767.21835     -2.4581686      764.76018    
   2122000   295.7455       0.0018359364   1.1917674      733.75275     -5.8261263      727.92662    
   2123000   312.28099      0.0018359364   0.09991533     774.77775     -2.953029       771.82472    
   2124000   304.58459      0.0018359364   1.9714356      755.68275     -4.6848668      750.99789    
   2125000   292.04342      0.0018359364   0.91147235     724.56778     -5.3503134      719.21747    
   2126000   286.63502      0.0018359364   0.069279345    711.14939     -3.6378437      707.51155    
   2127000   314.95305      0.0018359364   1.3486671      781.4072      -4.9184189      776.48878    
   2128000   301.16924      0.0018359364   1.3180036      747.20918     -2.6631728      744.54601    
   2129000   300.44655      0.0018359364   1.3118828      745.41616     -3.9330266      741.48314    
   2130000   290.97838      0.0018359364   1.000176       721.92538     -2.909092       719.01629    
   2131000   303.10368      0.0018359364   0.63444764     752.00857     -3.5463931      748.46218    
   2132000   311.28949      0.0018359364   0.33983012     772.3178      -3.4760716      768.84172    
   2133000   309.56669      0.0018359364   1.1318327      768.04348     -2.8272642      765.21621    
   2134000   295.57798      0.0018359364   1.1450171      733.33711     -2.1456143      731.19149    
   2135000   290.21082      0.0018359364   1.1066911      720.02104     -1.585006       718.43604    
   2136000   301.20292      0.0018359364   0.91965629     747.29274     -3.4591228      743.83361    
   2137000   307.58184      0.0018359364   1.1322471      763.11901     -3.0894158      760.0296     
   2138000   287.55106      0.0018359364   0.80271391     713.42211     -2.2330378      711.18908    
   2139000   291.93782      0.0018359364   1.0464593      724.30579     -3.7856984      720.52009    
   2140000   305.97734      0.0018359364   1.0616795      759.13822     -4.2535443      754.88468    
   2141000   310.07131      0.0018359364   1.4473934      769.29548     -4.6724588      764.62302    
   2142000   288.07602      0.0018359364   0.99184944     714.72456     -5.8921688      708.83239    
   2143000   287.31971      0.0018359364   0.99710002     712.84813     -2.2691453      710.57898    
   2144000   312.10839      0.0018359364   0.98309599     774.34951     -2.3058417      772.04367    
   2145000   310.66446      0.0018359364   1.0543537      770.76709     -3.139851       767.62724    
   2146000   292.09423      0.0018359364   1.1633578      724.69385     -2.8137651      721.88008    
   2147000   299.23901      0.0018359364   0.96195049     742.42024     -3.0798623      739.34038    
   2148000   308.83023      0.0018359364   0.93799161     766.21631     -3.8277891      762.38852    
   2149000   297.14908      0.0018359364   1.0096329      737.23505     -2.8299008      734.40515    
   2150000   301.27047      0.0018359364   0.84118791     747.46035     -2.0906323      745.36972    
   2151000   299.35345      0.0018359364   1.0788896      742.70416     -2.5149851      740.18918    
   2152000   297.9835       0.0018359364   1.1075011      739.30528     -4.3666857      734.93859    
   2153000   306.30411      0.0018359364   1.1421178      759.94894     -2.2009459      757.74799    
   2154000   309.3292       0.0018359364   0.9067473      767.45426     -2.9914536      764.46281    
   2155000   303.29728      0.0018359364   1.442337       752.48891     -4.3049367      748.18397    
   2156000   300.38345      0.0018359364   0.62200517     745.25961     -4.4243192      740.83529    
   2157000   302.98537      0.0018359364   1.1329827      751.71506     -3.1022797      748.61279    
   2158000   298.3806       0.0018359364   1.0655789      740.29049     -2.5554686      737.73502    
   2159000   305.73689      0.0018359364   1.0437594      758.54166     -3.8476735      754.69399    
   2160000   293.37569      0.0018359364   0.86849786     727.87318     -3.8444267      724.02876    
   2161000   286.30998      0.0018359364   0.58268081     710.34296     -1.958135       708.38483    
   2162000   314.03892      0.0018359364   0.93346215     779.13922     -3.0357358      776.10348    
   2163000   302.80119      0.0018359364   0.88832468     751.2581      -2.872453       748.38565    
   2164000   290.89687      0.0018359364   0.97837599     721.72315     -1.9498123      719.77334    
   2165000   285.73953      0.0018359364   0.82195857     708.92765     -3.780648       705.147      
   2166000   290.41643      0.0018359364   0.72158232     720.53117     -4.0113542      716.51981    
   2167000   308.76216      0.0018359364   1.2381479      766.04743     -3.5978678      762.44957    
   2168000   303.24911      0.0018359364   1.0048201      752.36941     -2.8030208      749.56639    
   2169000   296.0965       0.0018359364   0.86976521     734.62358     -2.8845831      731.73899    
   2170000   297.59162      0.0018359364   0.96861525     738.33302     -3.1076346      735.22539    
   2171000   292.38858      0.0018359364   0.97168957     725.42413     -4.0651711      721.35896    
   2172000   297.50329      0.0018359364   1.4485933      738.11386     -3.6413146      734.47255    
   2173000   301.37359      0.0018359364   0.86032426     747.71619     -1.7197818      745.99641    
   2174000   302.50056      0.0018359364   1.132381       750.51222     -1.8642426      748.64798    
   2175000   299.27136      0.0018359364   1.0300343      742.50049     -3.5836108      738.91688    
   2176000   300.74982      0.0018359364   0.98927888     746.16859     -3.877851       742.29074    
   2177000   307.25054      0.0018359364   0.92836261     762.29707     -2.4635392      759.83353    
   2178000   296.76927      0.0018359364   1.0398673      736.29274     -3.7476112      732.54513    
   2179000   296.49451      0.0018359364   0.92931701     735.61106     -2.6122951      732.99876    
   2180000   303.2688       0.0018359364   1.0800151      752.41824     -2.7546572      749.66358    
   2181000   297.66586      0.0018359364   0.96820539     738.51721     -7.1374281      731.37978    
   2182000   310.18237      0.0018359364   1.5239086      769.57101     -3.1041322      766.46688    
   2183000   302.05831      0.0018359364   1.0282417      749.41498     -5.4263208      743.98866    
   2184000   288.84918      0.0018359364   0.83681281     716.64279     -4.1550398      712.48775    
   2185000   309.12786      0.0018359364   1.1214939      766.95475     -3.8856811      763.06907    
   2186000   307.4641       0.0018359364   1.0761538      762.82691     -3.3715465      759.45537    
   2187000   299.91579      0.0018359364   0.47850463     744.09933     -4.2517589      739.84757    
   2188000   291.99847      0.0018359364   0.9465056      724.45626     -4.3265288      720.12973    
   2189000   312.2075       0.0018359364   1.2294108      774.59542     -2.8377132      771.75771    
   2190000   311.58022      0.0018359364   1.0241412      773.03911     -1.4531536      771.58596    
   2191000   292.98295      0.0018359364   0.88003875     726.89877     -1.4953702      725.4034     
   2192000   288.26203      0.0018359364   0.96519245     715.18604     -0.3953032      714.79074    
   2193000   302.64603      0.0018359364   0.65141511     750.87314     -0.47939117     750.39375    
   2194000   314.18549      0.0018359364   0.82408895     779.50287     -2.870565       776.6323     
   2195000   293.31542      0.0018359364   1.3983143      727.72364     -3.5392517      724.18439    
   2196000   280.17037      0.0018359364   0.61635028     695.11042     -3.9412933      691.16913    
   2197000   306.49718      0.0018359364   0.08719133     760.42796     -4.6813922      755.74657    
   2198000   297.82597      0.0018359364   0.52242904     738.91443     -2.8326574      736.08177    
   2199000   301.72612      0.0018359364   1.7306887      748.59081     -3.9362021      744.65461    
   2200000   299.84738      0.0018359364   1.3053877      743.92962     -2.571937       741.35769    
   2201000   304.53223      0.0018359364  -0.63779776     755.55286     -3.4999862      752.05287    
   2202000   300.81923      0.0018359364   1.1808469      746.34081     -2.5517184      743.78909    
   2203000   298.20669      0.0018359364   1.8580524      739.85901     -2.1752324      737.68377    
   2204000   300.27543      0.0018359364  -0.40810926     744.99162     -1.913823       743.0778     
   2205000   311.24221      0.0018359364   0.14776569     772.2005      -3.1542544      769.04625    
   2206000   301.35132      0.0018359364   1.6869603      747.66094     -4.1293048      743.53164    
   2207000   299.69631      0.0018359364   1.3408356      743.5548      -3.3449914      740.20981    
   2208000   307.46199      0.0018359364  -1.3533988      762.82166     -5.226852       757.59481    
   2209000   302.96199      0.0018359364   1.1730058      751.65705     -3.5359165      748.12113    
   2210000   298.90181      0.0018359364   1.4321704      741.58363     -3.7623283      737.8213     
   2211000   300.90058      0.0018359364   1.1961128      746.54263     -4.4882835      742.05434    
   2212000   295.56742      0.0018359364   0.76385519     733.3109      -3.5351826      729.77572    
   2213000   289.1294       0.0018359364   0.20674048     717.33801     -1.9088371      715.42917    
   2214000   303.42764      0.0018359364   0.98434666     752.81235     -1.1451103      751.66724    
   2215000   293.19491      0.0018359364   1.3740367      727.42465     -3.1196076      724.30504    
   2216000   294.13073      0.0018359364   0.59229019     729.74646     -1.5731846      728.17328    
   2217000   303.97655      0.0018359364   0.2374731      754.17421     -2.3540842      751.82013    
   2218000   302.52079      0.0018359364   0.58913131     750.56242     -3.6440509      746.91837    
   2219000   317.04278      0.0018359364   0.8518942      786.59187     -4.696341       781.89553    
   2220000   295.48386      0.0018359364   1.2905999      733.1036      -4.5028998      728.6007     
   2221000   286.96294      0.0018359364   1.2495929      711.96296     -5.3220619      706.6409     
   2222000   295.87138      0.0018359364  -0.27621966     734.06504     -3.9498508      730.11519    
   2223000   305.79843      0.0018359364   0.74797277     758.69435     -3.3972996      755.29705    
   2224000   313.81553      0.0018359364   1.11868        778.58499     -1.9494849      776.63551    
   2225000   300.61878      0.0018359364   1.1409451      745.84349     -1.9182746      743.92521    
   2226000   282.97343      0.0018359364   0.99662738     702.06488     -2.0929531      699.97192    
   2227000   305.47641      0.0018359364   1.156128       757.89538     -1.6173521      756.27803    
   2228000   317.08483      0.0018359364   1.0109234      786.69621     -3.1440856      783.55213    
   2229000   300.33341      0.0018359364   1.088176       745.13547     -2.9984321      742.13704    
   2230000   287.37918      0.0018359364   1.5490639      712.99566     -3.470816       709.52484    
   2231000   291.54945      0.0018359364  -0.1521059      723.34222     -3.2897898      720.05243    
   2232000   313.29743      0.0018359364   1.004416       777.29957     -1.2406573      776.05891    
   2233000   300.69401      0.0018359364   1.4432837      746.03012     -2.0197587      744.01036    
   2234000   291.34487      0.0018359364   1.0197366      722.83465     -1.5809225      721.25373    
   2235000   310.83924      0.0018359364   0.88851517     771.20073     -1.3629153      769.83781    
   2236000   306.73873      0.0018359364   1.0749329      761.02724     -3.0258274      758.00142    
   2237000   295.97532      0.0018359364   1.2192226      734.32292     -1.3368084      732.98611    
   2238000   295.72274      0.0018359364   0.64636319     733.69628     -2.3213124      731.37497    
   2239000   294.4948       0.0018359364   1.0034808      730.64972     -3.7980412      726.85168    
   2240000   302.27169      0.0018359364   1.1531402      749.9444      -3.1481848      746.79621    
   2241000   307.88316      0.0018359364   1.0941321      763.8666      -2.3812317      761.48537    
   2242000   286.61733      0.0018359364   1.0516631      711.1055      -3.4213334      707.68417    
   2243000   295.03644      0.0018359364   1.1435946      731.99353     -3.474176       728.51936    
   2244000   310.22532      0.0018359364   0.99951239     769.67758     -5.6469395      764.03064    
   2245000   302.11642      0.0018359364   0.98381815     749.55917     -3.1154271      746.44375    
   2246000   295.68776      0.0018359364   1.1620429      733.60949     -3.2278281      730.38166    
   2247000   300.49792      0.0018359364   1.0287034      745.54361     -5.8852219      739.65839    
   2248000   293.99095      0.0018359364   1.0460014      729.39964     -4.3093144      725.09033    
   2249000   289.70153      0.0018359364   1.0115717      718.75747     -3.6240232      715.13345    
   2250000   303.35574      0.0018359364   0.99893514     752.63395     -4.3093776      748.32457    
   2251000   296.78606      0.0018359364   0.8609528      736.3344      -4.0520034      732.2824     
   2252000   305.32941      0.0018359364   1.032113       757.53068     -1.8411766      755.6895     
   2253000   310.15928      0.0018359364   0.974422       769.51373     -3.951769       765.56196    
   2254000   286.23103      0.0018359364   1.1197316      710.14708     -2.6796573      707.46742    
   2255000   299.29281      0.0018359364   0.98041093     742.55371     -1.4929838      741.06073    
   2256000   318.06852      0.0018359364   1.0210546      789.13677     -1.899857       787.23692    
   2257000   292.62866      0.0018359364   0.93671186     726.01976     -3.1997777      722.81999    
   2258000   298.2881       0.0018359364   1.3363163      740.06101     -2.1984199      737.86259    
   2259000   308.83353      0.0018359364   0.80463779     766.2245      -0.64951209     765.57499    
   2260000   299.67342      0.0018359364  -0.054287659    743.49801     -1.1712326      742.32678    
   2261000   286.61947      0.0018359364  -0.16502009     711.1108      -2.6686337      708.44217    
   2262000   305.67293      0.0018359364   1.6008658      758.38296     -1.6899856      756.69298    
   2263000   313.07505      0.0018359364   0.11780643     776.74783     -1.946566       774.80126    
   2264000   288.31822      0.0018359364  -0.28240432     715.32546     -1.0835486      714.24191    
   2265000   289.75132      0.0018359364   0.14856345     718.881       -3.2211481      715.65985    
   2266000   310.23648      0.0018359364   1.5067812      769.70525     -1.2579231      768.44733    
   2267000   307.70168      0.0018359364   1.7516445      763.41636     -0.91714531     762.49921    
   2268000   302.89792      0.0018359364   1.1761784      751.49809     -1.0074214      750.49067    
   2269000   311.58289      0.0018359364   0.58505041     773.04574     -1.6497536      771.39599    
   2270000   301.81197      0.0018359364   0.90256229     748.80381     -2.2624045      746.54141    
   2271000   293.44699      0.0018359364   1.4088541      728.05007     -1.8722145      726.17785    
   2272000   301.85356      0.0018359364   0.86907348     748.90701     -4.2139344      744.69307    
   2273000   311.28612      0.0018359364   1.2624065      772.30944     -4.2394912      768.06994    
   2274000   300.33532      0.0018359364   0.90947323     745.1402      -4.9388462      740.20136    
   2275000   283.64191      0.0018359364   1.220849       703.7234      -3.8072145      699.91619    
   2276000   298.04282      0.0018359364   1.4394336      739.45245     -2.7478556      736.70459    
   2277000   309.5571       0.0018359364   0.89104251     768.0197      -1.9575705      766.06213    
   2278000   298.4146       0.0018359364   0.98008796     740.37484     -1.7036955      738.67114    
   2279000   304.57846      0.0018359364   0.92287016     755.66756     -1.2764533      754.3911     
   2280000   297.10979      0.0018359364   1.0512231      737.13759     -2.7193828      734.41821    
   2281000   303.01547      0.0018359364   1.2192871      751.78972     -2.66421        749.12551    
   2282000   300.94057      0.0018359364   1.1119459      746.64186     -1.4156626      745.22619    
   2283000   284.64159      0.0018359364   1.0495011      706.20363     -0.99660035     705.20703    
   2284000   304.3916       0.0018359364   1.0829647      755.20396     -5.0437121      750.16025    
   2285000   314.85         0.0018359364   0.55861419     781.15152     -4.190802       776.96072    
   2286000   304.43942      0.0018359364   0.76427487     755.32259     -2.3307069      752.99189    
   2287000   278.70614      0.0018359364   1.8570509      691.47761     -4.4030517      687.07456    
   2288000   312.44627      0.0018359364   2.8505101      775.1878      -4.4691374      770.71866    
   2289000   315.50877      0.0018359364   1.0272321      782.78596     -2.8036873      779.98227    
   2290000   301.20384      0.0018359364   0.71278018     747.29504     -2.6015334      744.6935     
   2291000   297.06697      0.0018359364   1.7992981      737.03133     -3.0214746      734.00986    
   2292000   306.71736      0.0018359364   0.8958982      760.97422     -2.1752018      758.79901    
   2293000   306.31624      0.0018359364   0.58785874     759.97903     -2.185077       757.79396    
   2294000   290.56919      0.0018359364   1.5755212      720.91016     -3.4316027      717.47856    
   2295000   307.1653       0.0018359364   1.2019458      762.08557     -0.72740037     761.35817    
   2296000   299.96059      0.0018359364   0.29221624     744.21049     -1.8208021      742.38969    
   2297000   301.7021       0.0018359364   0.25250312     748.53123     -3.611234       744.92       
   2298000   299.88927      0.0018359364   2.7024349      744.03354     -3.5460486      740.48749    
   2299000   305.88858      0.0018359364   1.8815229      758.91801     -5.1963787      753.72163    
   2300000   299.86028      0.0018359364  -1.5662134      743.96162     -4.849795       739.11183    
   2301000   295.90357      0.0018359364   1.9516516      734.14492     -4.5172903      729.62763    
   2302000   314.61136      0.0018359364   0.89580174     780.55945     -4.8536547      775.70579    
   2303000   304.9542       0.0018359364  -0.42781512     756.59978     -3.8278808      752.7719     
   2304000   290.58874      0.0018359364   0.25401812     720.95867     -3.0569169      717.90176    
   2305000   296.64306      0.0018359364   2.549166       735.97962     -4.0758255      731.90379    
   2306000   312.46207      0.0018359364   1.0345926      775.22701     -3.7798393      771.44717    
   2307000   296.04034      0.0018359364   0.20122109     734.48425     -2.8981246      731.58612    
   2308000   291.95774      0.0018359364  -0.11438211     724.35521     -4.4132344      719.94197    
   2309000   292.72739      0.0018359364   1.8349852      726.26473     -4.6295284      721.6352     
   2310000   310.0246       0.0018359364   2.004681       769.17958     -5.4934243      763.68615    
   2311000   302.13614      0.0018359364   1.4536279      749.60809     -5.5683546      744.03974    
   2312000   303.79756      0.0018359364   1.5408701      753.73013     -3.6288567      750.10127    
   2313000   300.15819      0.0018359364  -0.55126659     744.70073     -3.3900171      741.31071    
   2314000   302.81078      0.0018359364   2.2292395      751.2819      -2.8703721      748.41153    
   2315000   307.87829      0.0018359364   0.86853234     763.85451     -2.4019827      761.45253    
   2316000   301.74601      0.0018359364  -1.3374734      748.64016     -1.7202319      746.91993    
   2317000   295.39449      0.0018359364   0.99313446     732.88187     -1.8247103      731.05716    
   2318000   298.34557      0.0018359364   2.4324187      740.20359     -2.3074858      737.8961     
   2319000   308.93646      0.0018359364   0.65428151     766.47988     -2.1945071      764.28538    
   2320000   293.65727      0.0018359364  -0.016218112    728.57178     -1.4328395      727.13894    
   2321000   297.3359       0.0018359364   1.5367529      737.69855     -1.7337712      735.96478    
   2322000   302.76226      0.0018359364   2.2701823      751.16152     -1.5660156      749.5955     
   2323000   296.18294      0.0018359364   0.41324494     734.83805     -3.1822756      731.65577    
   2324000   299.26354      0.0018359364   0.97903558     742.48109     -1.7526436      740.72845    
   2325000   303.62935      0.0018359364   2.0988328      753.3128      -1.3890797      751.92372    
   2326000   297.79699      0.0018359364   1.6976509      738.84254     -3.027019       735.81552    
   2327000   304.23013      0.0018359364  -0.72782843     754.80333     -1.5250534      753.27828    
   2328000   290.45879      0.0018359364  -0.91758188     720.63626     -2.9599672      717.67629    
   2329000   308.38394      0.0018359364   2.4381817      765.10905     -2.7067649      762.40229    
   2330000   304.45758      0.0018359364   1.786475       755.36765     -2.7289791      752.63867    
   2331000   295.1045       0.0018359364   0.53225217     732.16239     -2.2768817      729.88551    
   2332000   301.37003      0.0018359364  -0.10807449     747.70736     -3.3788782      744.32848    
   2333000   291.15172      0.0018359364   3.5258988      722.35545     -1.2123918      721.14306    
   2334000   301.61593      0.0018359364   2.887184       748.31743     -2.1413257      746.1761     
   2335000   314.86011      0.0018359364   1.9270894      781.1766      -1.8810599      779.29554    
   2336000   302.13561      0.0018359364   1.2789574      749.60677     -3.1965471      746.41022    
   2337000   300.52894      0.0018359364  -0.59900565     745.62057     -5.7351212      739.88545    
   2338000   298.28296      0.0018359364   0.26448557     740.04824     -0.91430401     739.13394    
   2339000   301.98957      0.0018359364   3.330426       749.24444     -2.2232353      747.02121    
   2340000   298.31741      0.0018359364  -0.55742185     740.13372     -4.025688       736.10803    
   2341000   297.70933      0.0018359364   1.3026609      738.62505     -2.2560023      736.36905    
   2342000   298.36001      0.0018359364   1.6585718      740.2394      -3.2021764      737.03722    
   2343000   309.93149      0.0018359364   0.99717023     768.94857     -3.172462       765.77611    
   2344000   281.83119      0.0018359364  -1.2414812      699.23094     -5.0999326      694.13101    
   2345000   296.01486      0.0018359364   0.58432718     734.42103     -3.770205       730.65083    
   2346000   295.41577      0.0018359364   1.9611618      732.93467     -1.9157886      731.01888    
   2347000   297.09334      0.0018359364   1.1023093      737.09678     -1.6486514      735.44813    
   2348000   303.04195      0.0018359364   0.3875269      751.85542     -0.94168198     750.91374    
   2349000   290.55861      0.0018359364   1.2491441      720.88392     -1.2582465      719.62568    
   2350000   308.94688      0.0018359364   1.5258804      766.50573     -0.58572201     765.92001    
   2351000   290.40048      0.0018359364   0.068472588    720.49161     -2.9602275      717.53138    
   2352000   296.08246      0.0018359364   1.3767069      734.58875     -2.291667       732.29708    
   2353000   313.14087      0.0018359364   1.4048067      776.91114     -1.0806042      775.83054    
   2354000   311.72135      0.0018359364  -0.27183203     773.38925     -1.8988615      771.49039    
   2355000   293.57338      0.0018359364   1.0537014      728.36364     -2.3410047      726.02263    
   2356000   300.05788      0.0018359364   1.5352952      744.45188     -2.487722       741.96416    
   2357000   309.73095      0.0018359364  -0.17258519     768.45103     -1.5268905      766.92414    
   2358000   296.86054      0.0018359364   0.23257073     736.51919     -3.4568796      733.06231    
   2359000   280.40396      0.0018359364   2.8562104      695.68995     -2.6841957      693.00575    
   2360000   304.45388      0.0018359364   1.1375726      755.35848     -2.88665        752.47183    
   2361000   309.00424      0.0018359364   0.72575088     766.64803     -1.4174375      765.23059    
   2362000   298.61636      0.0018359364   0.71329999     740.87542     -4.0628459      736.81257    
   2363000   281.55894      0.0018359364   0.46362297     698.5555      -2.4185306      696.13697    
   2364000   309.85878      0.0018359364   2.6828233      768.76818     -2.2290498      766.53913    
   2365000   316.50912      0.0018359364   1.37073        785.26786     -1.1705693      784.09729    
   2366000   302.1506       0.0018359364   0.14774448     749.64396     -1.548757       748.0952     
   2367000   304.94138      0.0018359364   1.1389992      756.56798     -2.356913       754.21107    
   2368000   314.71903      0.0018359364   1.5162609      780.82659     -2.2247498      778.60184    
   2369000   294.47912      0.0018359364   0.71378889     730.61081     -2.653          727.95781    
   2370000   301.56398      0.0018359364   0.83258891     748.18856     -3.5389915      744.64957    
   2371000   293.67855      0.0018359364   0.88507569     728.62457     -1.8362829      726.78829    
   2372000   302.66317      0.0018359364   1.0013022      750.91568     -1.7299975      749.18568    
   2373000   304.1993       0.0018359364   1.0261738      754.72686     -1.2086576      753.5182     
   2374000   291.66773      0.0018359364   1.0082661      723.63569     -1.6843914      721.95129    
   2375000   278.80129      0.0018359364   1.1036091      691.71368     -2.7955478      688.91813    
   2376000   303.85412      0.0018359364   1.0525773      753.87045     -2.4827446      751.38771    
   2377000   313.7226       0.0018359364   1.2578071      778.35443     -2.3628709      775.99156    
   2378000   299.87543      0.0018359364   1.4319599      743.99921     -1.690864       742.30835    
   2379000   287.00359      0.0018359364   0.98823097     712.06381     -1.7482897      710.31552    
   2380000   298.22876      0.0018359364   0.74579549     739.91376     -3.2929024      736.62086    
   2381000   291.42108      0.0018359364   1.6710904      723.02374     -5.9670847      717.05666    
   2382000   294.59908      0.0018359364   0.75317131     730.90843     -3.2341283      727.67431    
   2383000   303.60378      0.0018359364   0.75999644     753.24934     -3.6972944      749.55205    
   2384000   308.24321      0.0018359364   1.2788728      764.75989     -2.966541       761.79335    
   2385000   291.37795      0.0018359364   1.1232367      722.91672     -4.4411873      718.47554    
   2386000   302.51719      0.0018359364   0.7449874      750.55349     -3.1902132      747.36328    
   2387000   308.91414      0.0018359364   1.0458743      766.42448     -3.6958084      762.72868    
   2388000   288.22745      0.0018359364   0.99502705     715.10024     -2.0178299      713.08241    
   2389000   293.33805      0.0018359364   0.66533247     727.77979     -2.8437897      724.936      
   2390000   309.13481      0.0018359364   1.1080186      766.97199     -2.1665453      764.80544    
   2391000   297.65348      0.0018359364   1.156531       738.48648     -3.5000817      734.9864     
   2392000   290.63067      0.0018359364   0.6929596      721.06272     -3.0254567      718.03726    
   2393000   307.00759      0.0018359364   0.56566773     761.69429     -2.7191047      758.97519    
   2394000   311.53566      0.0018359364   1.5252628      772.92856     -4.3358172      768.59275    
   2395000   297.81124      0.0018359364   1.8040431      738.87788     -4.717222       734.16066    
   2396000   285.78866      0.0018359364   1.1583765      709.04955     -4.3437746      704.70578    
   2397000   295.34873      0.0018359364   0.54586332     732.76833     -4.6679991      728.10033    
   2398000   304.56583      0.0018359364   1.0010907      755.63621     -4.3876146      751.2486     
   2399000   312.42257      0.0018359364   0.86737509     775.12902     -3.1132769      772.01574    
   2400000   288.55404      0.0018359364   1.0258514      715.91052     -3.3917611      712.51876    
   2401000   291.27782      0.0018359364   0.59759946     722.6683      -3.559452       719.10885    
   2402000   310.81741      0.0018359364   0.86041593     771.14656     -2.1947362      768.95182    
   2403000   306.60628      0.0018359364   1.3866834      760.69863     -1.2149279      759.4837     
   2404000   297.43347      0.0018359364   1.1062447      737.94063     -2.0097324      735.9309     
   2405000   298.10561      0.0018359364   0.65876205     739.60823     -0.67131339     738.93692    
   2406000   309.72186      0.0018359364   0.86320176     768.42848     -0.31694402     768.11153    
   2407000   300.61132      0.0018359364   2.0521285      745.82497     -0.12996894     745.695      
   2408000   286.54259      0.0018359364   1.4807471      710.92006     -2.0642103      708.85585    
   2409000   298.87474      0.0018359364   1.1125307      741.51648     -2.3245611      739.19191    
   2410000   307.15386      0.0018359364   0.30733314     762.05719     -2.1364775      759.92072    
   2411000   298.69919      0.0018359364   1.7360672      741.08093     -0.76164882     740.31929    
   2412000   291.5679       0.0018359364   1.0208396      723.38799     -0.6980449      722.68995    
   2413000   307.90304      0.0018359364   0.15386881     763.91594     -1.6108413      762.3051     
   2414000   302.41724      0.0018359364   1.1765857      750.3055      -2.0900706      748.21543    
   2415000   298.49931      0.0018359364   1.1174751      740.58501     -1.1658595      739.41915    
   2416000   306.36436      0.0018359364   1.0585724      760.09841     -0.66009994     759.43831    
   2417000   300.65081      0.0018359364   1.0256091      745.92295     -2.5309759      743.39197    
   2418000   291.59433      0.0018359364   0.92652532     723.45358     -1.8943577      721.55923    
   2419000   291.89278      0.0018359364   1.1726433      724.19404     -3.6572795      720.53676    
   2420000   300.77316      0.0018359364   1.0459628      746.22649     -1.8871079      744.33939    
   2421000   299.63633      0.0018359364   0.9817319      743.40598     -2.9544081      740.45158    
   2422000   292.15243      0.0018359364   1.1074761      724.83824     -3.4841501      721.35409    
   2423000   298.59146      0.0018359364   1.3756713      740.81365     -3.9912381      736.82242    
   2424000   306.27186      0.0018359364   0.95416813     759.86892     -2.7037915      757.16513    
   2425000   316.42493      0.0018359364   1.0050503      785.05897     -3.77493        781.28404    
   2426000   304.73383      0.0018359364   0.1601082      756.05302     -2.625366       753.42766    
   2427000   282.8468       0.0018359364   0.74281391     701.7507      -1.714555       700.03615    
   2428000   295.11577      0.0018359364   1.1569354      732.19035     -4.3030212      727.88733    
   2429000   307.17349      0.0018359364   1.7999757      762.1059      -3.4168991      758.689      
   2430000   311.32586      0.0018359364   1.3269654      772.40803     -3.6232237      768.7848     
   2431000   303.9915       0.0018359364  -0.61131187     754.21128     -1.7188088      752.49247    
   2432000   285.68159      0.0018359364   1.077337       708.7839      -1.5139897      707.26991    
   2433000   316.28914      0.0018359364   2.3037197      784.72207     -1.5276887      783.19438    
   2434000   312.36444      0.0018359364   1.2448117      774.9848      -1.4610528      773.52374    
   2435000   294.06856      0.0018359364   0.50911112     729.5922      -1.0910078      728.50119    
   2436000   288.77567      0.0018359364   0.94310824     716.46039     -0.69903422     715.76136    
   2437000   298.98923      0.0018359364   1.4237209      741.80053     -1.9958197      739.80471    
   2438000   318.16612      0.0018359364   1.7664973      789.37891     -2.3158523      787.06305    
   2439000   300.75756      0.0018359364   0.72044998     746.18781     -3.9189049      742.2689     
   2440000   291.54628      0.0018359364   1.8622774      723.33435     -3.2807681      720.05358    
   2441000   302.9243       0.0018359364   1.6292542      751.56353     -5.7575241      745.80601    
   2442000   311.00779      0.0018359364   0.39106174     771.61891     -4.8854144      766.73349    
   2443000   301.8147       0.0018359364   0.25014524     748.8106      -1.5846114      747.22599    
   2444000   282.56176      0.0018359364  -0.37954767     701.04351     -2.0356841      699.00783    
   2445000   290.39449      0.0018359364   2.008316       720.47673     -3.1919325      717.2848     
   2446000   288.57632      0.0018359364   3.0746622      715.96581     -1.7201572      714.24566    
   2447000   308.62695      0.0018359364   1.0146764      765.71197     -2.1014417      763.61052    
   2448000   304.54333      0.0018359364  -0.22233699     755.5804      -1.7047999      753.8756     
   2449000   286.64134      0.0018359364   0.66996419     711.16507     -3.6453282      707.51974    
   2450000   301.06395      0.0018359364   1.4658398      746.94795     -5.3425177      741.60543    
   2451000   318.85481      0.0018359364   0.20722112     791.08757     -5.5094333      785.57813    
   2452000   306.28601      0.0018359364   0.8636938      759.90404     -6.3180742      753.58596    
   2453000   286.765        0.0018359364   1.6651262      711.47187     -7.0482706      704.4236     
   2454000   304.44342      0.0018359364   0.60158025     755.33252     -6.0600238      749.2725     
   2455000   295.40555      0.0018359364   0.71039031     732.90932     -3.9686261      728.94069    
   2456000   302.51333      0.0018359364   0.9898917      750.5439      -3.5971191      746.94679    
   2457000   316.19818      0.0018359364   1.5690551      784.49639     -2.3481831      782.14821    
   2458000   316.10896      0.0018359364   1.1275926      784.27504     -2.7308258      781.54422    
   2459000   292.82392      0.0018359364  -0.049769648    726.50421     -2.8701468      723.63406    
   2460000   300.02982      0.0018359364   1.2960636      744.38225     -1.2611551      743.12109    
   2461000   316.83373      0.0018359364   1.604416       786.07321     -0.58145108     785.49176    
   2462000   298.79053      0.0018359364   0.49555656     741.30755     -0.53917734     740.76838    
   2463000   296.05163      0.0018359364   0.71787165     734.51225     -1.4013172      733.11093    
   2464000   285.02667      0.0018359364   0.03119436     707.15901     -2.0457985      705.11322    
   2465000   302.0142       0.0018359364   1.7584967      749.30555     -2.3115485      746.994      
   2466000   309.7678       0.0018359364   1.692988       768.54244     -3.5966836      764.94576    
   2467000   295.64909      0.0018359364  -0.13655712     733.51355     -3.4080388      730.10551    
   2468000   297.10257      0.0018359364   1.4458625      737.11966     -3.6819287      733.43773    
   2469000   314.55849      0.0018359364   0.52633187     780.42829     -4.0774977      776.35079    
   2470000   305.22049      0.0018359364  -0.39305068     757.26045     -3.1038396      754.15661    
   2471000   290.15807      0.0018359364   1.2646427      719.89018     -3.656952       716.23323    
   2472000   291.21647      0.0018359364   1.7463118      722.51608     -4.1947301      718.32135    
   2473000   313.95752      0.0018359364   1.1062059      778.93726     -4.4878312      774.44943    
   2474000   307.42176      0.0018359364   0.67913577     762.72186     -4.5277818      758.19408    
   2475000   290.27613      0.0018359364   0.87918299     720.18307     -3.3298403      716.85323    
   2476000   296.47642      0.0018359364   0.94343232     735.56617     -3.0443209      732.52185    
   2477000   303.1932       0.0018359364   0.99225149     752.2307      -2.7991731      749.43152    
   2478000   294.94528      0.0018359364   0.97710518     731.76737     -3.1175081      728.64986    
   2479000   314.86459      0.0018359364   1.1259335      781.18774     -3.6502385      777.5375     
   2480000   299.57435      0.0018359364   0.87813302     743.25221     -4.7487709      738.50344    
   2481000   292.8097       0.0018359364   1.0718405      726.46895     -4.1673912      722.30156    
   2482000   292.2136       0.0018359364   0.76524525     724.99        -3.0770757      721.91292    
   2483000   295.33767      0.0018359364   1.1247072      732.7409      -6.1595516      726.58134    
   2484000   299.69765      0.0018359364   1.0287531      743.55813     -5.4498701      738.10826    
   2485000   299.11963      0.0018359364   0.90346657     742.12404     -2.7481948      739.37585    
   2486000   304.6746       0.0018359364   1.089064       755.90608     -3.3996253      752.50646    
   2487000   300.47605      0.0018359364   1.0425589      745.48937     -3.5025641      741.98681    
   2488000   296.10422      0.0018359364   0.90579516     734.64274     -1.2548497      733.38789    
   2489000   283.04251      0.0018359364   0.95327683     702.23628     -3.181542       699.05473    
   2490000   293.13233      0.0018359364   0.79098483     727.2694      -2.2974488      724.97195    
   2491000   308.18025      0.0018359364   1.0479131      764.6037      -3.5859442      761.01775    
   2492000   303.35961      0.0018359364   1.617856       752.64355     -3.407978       749.23557    
   2493000   296.81325      0.0018359364   1.0477702      736.40186     -4.6922439      731.70961    
   2494000   295.82013      0.0018359364   0.94383288     733.9379      -3.2652231      730.67268    
   2495000   302.36424      0.0018359364   0.71598138     750.17401     -3.0497177      747.12429    
   2496000   303.22562      0.0018359364   1.0514364      752.31112     -2.583705       749.72741    
   2497000   296.72043      0.0018359364   0.75046408     736.17156     -3.2677461      732.90381    
   2498000   280.9524       0.0018359364   0.8425693      697.05065     -2.2510048      694.79964    
   2499000   305.18224      0.0018359364   1.3907152      757.16554     -3.5054083      753.66013    
   2500000   299.84355      0.0018359364   0.14285895     743.92011     -3.5033574      740.41675    
   2501000   296.13369      0.0018359364   1.653332       734.71585     -4.5659869      730.14987    
   2502000   312.38382      0.0018359364   1.0700443      775.03286     -3.6252692      771.40759    
   2503000   298.08041      0.0018359364   0.79015304     739.54571     -4.9980592      734.54765    
   2504000   286.76939      0.0018359364  -0.037765236    711.48277     -3.7505331      707.73223    
   2505000   313.5739       0.0018359364   1.912808       777.98548     -4.1564471      773.82904    
   2506000   304.23405      0.0018359364   0.032106212    754.81307     -3.4531657      751.3599     
   2507000   292.81643      0.0018359364   0.66377736     726.48564     -4.7660867      721.71955    
   2508000   290.42698      0.0018359364   0.043927644    720.55734     -3.8244441      716.7329     
   2509000   309.11114      0.0018359364   2.0972717      766.91326     -4.7908688      762.12239    
   2510000   301.49681      0.0018359364   0.11442407     748.02188     -4.2184714      743.80341    
   2511000   294.89364      0.0018359364  -0.0074579829   731.63924     -3.3960662      728.24317    
   2512000   304.4582       0.0018359364   2.3143732      755.36919     -4.1958905      751.1733     
   2513000   310.27004      0.0018359364   2.325676       769.78853     -3.612227       766.1763     
   2514000   311.69017      0.0018359364  -0.82777329     773.31191     -3.3407516      769.97115    
   2515000   295.89232      0.0018359364   0.65690246     734.117       -2.5824631      731.53454    
   2516000   300.64921      0.0018359364   1.2207644      745.91897     -2.0911779      743.8278     
   2517000   311.00502      0.0018359364   1.4761941      771.61202     -3.1369124      768.47511    
   2518000   316.56063      0.0018359364  -0.70990668     785.39566     -2.6003184      782.79534    
   2519000   285.913        0.0018359364  -2.0475554      709.35803     -2.2515257      707.1065     
   2520000   295.56038      0.0018359364   1.706984       733.29345     -3.4294982      729.86395    
   2521000   309.36258      0.0018359364   1.2396731      767.53709     -2.9759771      764.56112    
   2522000   296.37482      0.0018359364   0.52908952     735.31409     -3.0131005      732.30099    
   2523000   293.20977      0.0018359364   0.74603836     727.46151     -3.1627793      724.29873    
   2524000   290.10662      0.0018359364   2.3024172      719.76251     -2.2662743      717.49624    
   2525000   304.52046      0.0018359364   3.2211022      755.52366     -3.2962549      752.2274     
   2526000   300.0236       0.0018359364   0.26087863     744.36682     -3.2161693      741.15065    
   2527000   287.25165      0.0018359364   0.7108388      712.67927     -3.3879564      709.29132    
   2528000   301.79642      0.0018359364   1.6185492      748.76523     -2.7318445      746.03338    
   2529000   303.8544       0.0018359364   3.2995827      753.87113     -1.3649538      752.50618    
   2530000   302.93786      0.0018359364   0.40294637     751.59718     -2.8096804      748.7875     
   2531000   301.37646      0.0018359364  -0.12243092     747.72331     -1.4814116      746.2419     
   2532000   292.69677      0.0018359364   1.5536285      726.18876     -2.3037889      723.88497    
   2533000   308.99104      0.0018359364   2.0161397      766.6153      -3.0783829      763.53692    
   2534000   302.32226      0.0018359364   0.93382774     750.06986     -3.7886434      746.28121    
   2535000   296.65233      0.0018359364   0.039295444    736.00261     -3.6856634      732.31694    
   2536000   301.63446      0.0018359364   1.2780623      748.36341     -3.2244904      745.13892    
   2537000   306.19173      0.0018359364   1.1549758      759.67013     -3.1803899      756.48974    
   2538000   301.97464      0.0018359364   1.3014101      749.2074      -2.6157074      746.59169    
   2539000   306.2224       0.0018359364   0.59703829     759.74621     -1.2376439      758.50857    
   2540000   303.9874       0.0018359364   0.82603155     754.20112     -3.1191211      751.082      
   2541000   290.73129      0.0018359364   1.4737106      721.31234     -1.2284973      720.08384    
   2542000   301.36134      0.0018359364   1.2890184      747.68579     -2.8926297      744.79316    
   2543000   304.34573      0.0018359364   0.82493481     755.09014     -1.7108093      753.37934    
   2544000   298.49555      0.0018359364   0.76527081     740.5757      -1.2158919      739.35981    
   2545000   286.66821      0.0018359364   3.5930389      711.23174     -1.2634323      709.96831    
   2546000   301.10055      0.0018359364   1.0824213      747.03877     -1.1826449      745.85613    
   2547000   303.98087      0.0018359364   0.7689897      754.18492     -1.4864391      752.69848    
   2548000   292.87247      0.0018359364   0.1552612      726.62467     -0.031147232    726.59352    
   2549000   298.18479      0.0018359364   1.4334619      739.80467     -2.9269294      736.87774    
   2550000   298.48399      0.0018359364   1.2720245      740.54701     -2.0192988      738.52771    
   2551000   302.81943      0.0018359364   0.9337874      751.30334     -0.67997126     750.62337    
   2552000   297.8485       0.0018359364   0.97851511     738.97035     -2.1952072      736.77514    
   2553000   301.38119      0.0018359364   1.065369       747.73504     -3.0374837      744.69755    
   2554000   305.3418       0.0018359364   1.3142412      757.56142     -3.612785       753.94863    
   2555000   302.47517      0.0018359364   0.010210713    750.44923     -3.0836071      747.36562    
   2556000   303.01755      0.0018359364   0.82391297     751.7949      -2.1059469      749.68896    
   2557000   292.8822       0.0018359364   1.9053481      726.6488      -3.0990249      723.54978    
   2558000   304.82958      0.0018359364   0.96365759     756.29059     -2.4368229      753.85376    
   2559000   305.06383      0.0018359364   0.9500335      756.87178     -2.9626209      753.90916    
   2560000   308.53084      0.0018359364   1.1467668      765.47351     -0.78686615     764.68665    
   2561000   301.20478      0.0018359364   0.84181608     747.29736     -2.2768707      745.02049    
   2562000   285.19717      0.0018359364   0.89248862     707.58205     -2.1802062      705.40184    
   2563000   303.90876      0.0018359364   1.4712029      754.00602     -1.1524101      752.85361    
   2564000   296.58835      0.0018359364   1.245471       735.84387     -2.0209675      733.8229     
   2565000   297.13427      0.0018359364   0.95780298     737.19832     -1.8669654      735.33136    
   2566000   303.29019      0.0018359364   0.46620101     752.47132     -1.1277135      751.34361    
   2567000   301.49908      0.0018359364   0.94058431     748.02752     -2.5254561      745.50207    
   2568000   286.35069      0.0018359364   0.9389612      710.44395     -0.97544004     709.46851    
   2569000   294.9786       0.0018359364   0.79652985     731.85004     -1.3298989      730.52014    
   2570000   301.58859      0.0018359364   1.0370293      748.2496      -1.5544959      746.69511    
   2571000   296.005        0.0018359364   1.2858057      734.39657     -1.7859299      732.61064    
   2572000   312.33802      0.0018359364   0.58765328     774.91925     -1.5217506      773.3975     
   2573000   312.28446      0.0018359364   0.56612705     774.78636     -2.0491578      772.7372     
   2574000   296.75075      0.0018359364   1.048301       736.24678     -1.9985363      734.24824    
   2575000   297.94251      0.0018359364   1.1105652      739.20358     -1.7328474      737.47074    
   2576000   297.77197      0.0018359364   0.98019935     738.78045     -4.2905989      734.48985    
   2577000   304.05953      0.0018359364   0.7868499      754.38008     -3.1659311      751.21415    
   2578000   304.45945      0.0018359364   0.93793423     755.37229     -2.845293       752.527      
   2579000   300.34303      0.0018359364   1.4240025      745.15933     -4.9050009      740.25433    
   2580000   298.89429      0.0018359364   1.0261687      741.56497     -3.4265437      738.13843    
   2581000   300.19587      0.0018359364  -0.28965964     744.79422     -2.3415515      742.45267    
   2582000   306.81178      0.0018359364   0.56832886     761.20848     -2.834404       758.37408    
   2583000   295.00779      0.0018359364   2.3683949      731.92245     -3.0244507      728.898      
   2584000   283.33295      0.0018359364   0.73951044     702.95685     -3.421102       699.53575    
   2585000   299.06922      0.0018359364   0.80997511     741.99899     -2.2508546      739.74813    
   2586000   313.98511      0.0018359364   1.0023183      779.00572     -3.4990078      775.50671    
   2587000   302.63653      0.0018359364   1.3674658      750.84958     -2.3848179      748.46476    
   2588000   292.57931      0.0018359364   1.4666859      725.89734     -1.6247269      724.27261    
   2589000   290.97665      0.0018359364  -0.16224189     721.92108     -2.2177816      719.7033     
   2590000   306.1545       0.0018359364   0.6589038      759.57775     -2.186543       757.39121    
   2591000   299.76397      0.0018359364   2.1184577      743.72266     -1.2073353      742.51533    
   2592000   304.47013      0.0018359364   1.8905568      755.39878     -2.3469015      753.05188    
   2593000   283.62687      0.0018359364   1.3818858      703.68608     -1.1530229      702.53306    
   2594000   290.57056      0.0018359364   0.57277443     720.91356     -2.1665114      718.74705    
   2595000   308.85029      0.0018359364   0.8532121      766.26609     -2.0272618      764.23883    
   2596000   302.29989      0.0018359364   2.7958943      750.01436     -2.3771319      747.63723    
   2597000   309.70615      0.0018359364   1.0033485      768.38949     -3.5500494      764.83944    
   2598000   296.18313      0.0018359364   0.42839428     734.83851     -2.7019323      732.13658    
   2599000   302.9608       0.0018359364   0.84914337     751.65409     -2.0322887      749.62181    
   2600000   301.74566      0.0018359364   1.8997768      748.63931     -2.6627106      745.9766     
   2601000   300.37893      0.0018359364   1.3566784      745.24841     -2.6496949      742.59871    
   2602000   293.78308      0.0018359364   0.56113299     728.88391     -3.0452412      725.83867    
   2603000   301.44728      0.0018359364   0.42113577     747.89901     -3.3841599      744.51485    
   2604000   297.44         0.0018359364   1.9370858      737.95684     -2.8906667      735.06618    
   2605000   289.72472      0.0018359364   0.920261       718.81503     -3.7580821      715.05694    
   2606000   301.25541      0.0018359364   0.29987167     747.42298     -4.7204345      742.70254    
   2607000   307.95377      0.0018359364   2.7002492      764.0418      -3.3140323      760.72777    
   2608000   291.49354      0.0018359364   1.3442647      723.20351     -2.0325478      721.17097    
   2609000   289.29147      0.0018359364   0.71459296     717.7401      -2.0253484      715.71475    
   2610000   303.73638      0.0018359364   0.2005928      753.57833     -3.0108559      750.56747    
   2611000   305.85601      0.0018359364   1.1547475      758.83719     -2.9308716      755.90632    
   2612000   306.56874      0.0018359364   1.2890576      760.6055      -2.4642346      758.14126    
   2613000   292.03047      0.0018359364   1.4647905      724.53565     -3.8144845      720.72117    
   2614000   291.8238       0.0018359364   0.018253322    724.0229       0.1174997      724.1404     
   2615000   309.62037      0.0018359364   3.1457282      768.17668     -3.077716       765.09897    
   2616000   308.60204      0.0018359364   1.8364906      765.65018     -1.7336435      763.91653    
   2617000   290.65408      0.0018359364   0.071638297    721.12078     -2.804728       718.31605    
   2618000   294.32028      0.0018359364   0.56990287     730.21674     -2.4217259      727.79501    
   2619000   300.63983      0.0018359364   1.2126592      745.8957      -2.6829368      743.21276    
   2620000   293.58434      0.0018359364   2.1879589      728.39085     -4.5908814      723.79997    
   2621000   292.9318       0.0018359364   0.61540403     726.77186     -4.5423257      722.22954    
   2622000   314.52933      0.0018359364  -0.13879949     780.35595     -3.914941       776.44101    
   2623000   300.98817      0.0018359364   3.8235842      746.75995     -3.3195518      743.4404     
   2624000   297.20054      0.0018359364   0.9321708      737.36274     -3.4503238      733.91242    
   2625000   305.14946      0.0018359364   0.57527791     757.08423     -3.6557341      753.4285     
   2626000   301.42714      0.0018359364   0.36465432     747.84905     -2.7784019      745.07065    
   2627000   310.3206       0.0018359364   3.3727557      769.91397     -1.94619        767.96778    
   2628000   295.855        0.0018359364   0.99500901     734.02441     -3.8627465      730.16167    
   2629000   314.19715      0.0018359364   0.59944571     779.53178     -4.7239542      774.80783    
   2630000   298.43507      0.0018359364   1.6213718      740.42564     -4.1789736      736.24666    
   2631000   285.61304      0.0018359364  -1.2369146      708.61383     -3.9532922      704.66054    
   2632000   297.76744      0.0018359364   1.1016543      738.76922     -3.0090601      735.76016    
   2633000   302.68685      0.0018359364   0.5702497      750.97442     -2.7079848      748.26644    
   2634000   305.35124      0.0018359364   2.1222821      757.58484     -2.7258008      754.85904    
   2635000   304.03716      0.0018359364   1.6975938      754.32456     -0.85308729     753.47148    
   2636000   308.48893      0.0018359364  -1.9358291      765.36955     -1.0398545      764.3297     
   2637000   302.72916      0.0018359364   1.1638154      751.0794      -1.1693117      749.91008    
   2638000   305.59243      0.0018359364   2.6281047      758.18325     -1.652205       756.53104    
   2639000   297.10489      0.0018359364   1.3934163      737.12542     -0.71389856     736.41152    
   2640000   294.32245      0.0018359364   0.34720879     730.22212     -1.4675233      728.7546     
   2641000   295.80555      0.0018359364   1.1011279      733.90172     -2.1222411      731.77948    
   2642000   290.03071      0.0018359364   1.1464101      719.57418     -3.1715814      716.4026     
   2643000   306.0802       0.0018359364   1.0831198      759.39342     -3.766766       755.62665    
   2644000   304.54548      0.0018359364   1.0599811      755.58574     -3.3107273      752.27501    
   2645000   309.83754      0.0018359364   0.97109214     768.71547     -4.3453345      764.37014    
   2646000   300.46356      0.0018359364   0.86991442     745.45837     -3.8489416      741.60943    
   2647000   297.55293      0.0018359364   1.4118195      738.23702     -2.461581       735.77544    
   2648000   307.80065      0.0018359364   1.0628158      763.6619      -2.0651565      761.59674    
   2649000   299.76632      0.0018359364   0.63185359     743.7285      -1.9309012      741.7976     
   2650000   305.03172      0.0018359364   0.72763848     756.7921      -2.6739082      754.11819    
   2651000   293.04374      0.0018359364   1.1423105      727.04959     -2.8483014      724.20129    
   2652000   292.61109      0.0018359364   1.9701854      725.97618      0.29851265     726.2747     
   2653000   309.73032      0.0018359364   0.95042123     768.44946     -2.6367418      765.81272    
   2654000   302.65361      0.0018359364   0.83638698     750.89195     -0.92278517     749.96917    
   2655000   293.41203      0.0018359364   1.1082257      727.96333     -2.9485742      725.01476    
   2656000   298.93602      0.0018359364   1.087123       741.6685      -3.3461526      738.32235    
   2657000   302.66572      0.0018359364   0.98464698     750.922       -3.8199453      747.10205    
   2658000   299.94537      0.0018359364   0.60884985     744.17273     -2.6955131      741.47722    
   2659000   292.9969       0.0018359364   1.6611946      726.93338     -1.2963581      725.63702    
   2660000   297.26078      0.0018359364   2.2209408      737.51218     -1.3540455      736.15813    
   2661000   314.18667      0.0018359364   1.2986577      779.5058      -1.1940331      778.31177    
   2662000   301.97972      0.0018359364  -0.076677095    749.22        -1.8162758      747.40372    
   2663000   286.07161      0.0018359364   1.3328198      709.75155     -5.3899107      704.36164    
   2664000   306.65662      0.0018359364   1.7389575      760.82352     -3.1392737      757.68425    
   2665000   314.63698      0.0018359364   0.62383141     780.62302     -2.9572094      777.66581    
   2666000   296.9399       0.0018359364   0.83927847     736.71608     -3.2174206      733.49866    
   2667000   296.51828      0.0018359364   1.8891222      735.67002     -1.2483344      734.42169    
   2668000   309.52042      0.0018359364   1.0580642      767.9287      -2.010987       765.91772    
   2669000   304.40775      0.0018359364   0.27996356     755.24401     -1.6661155      753.57789    
   2670000   287.60043      0.0018359364   0.96001829     713.5446      -1.6362803      711.90832    
   2671000   286.92827      0.0018359364   1.6397769      711.87696     -1.470314       710.40665    
   2672000   309.31156      0.0018359364   2.1050139      767.4105      -1.561952       765.84855    
   2673000   309.28734      0.0018359364   1.5217711      767.35042     -1.2005802      766.14984    
   2674000   307.23238      0.0018359364   0.41708474     762.25201     -2.1470393      760.10497    
   2675000   294.12673      0.0018359364   0.93937536     729.73652     -3.0127779      726.72374    
   2676000   318.24605      0.0018359364   3.1723758      789.57722     -2.6616232      786.91559    
   2677000   300.42259      0.0018359364   0.011161059    745.35673     -1.3898439      743.96688    
   2678000   295.73312      0.0018359364   0.73962316     733.72202     -1.4368645      732.28515    
   2679000   296.87859      0.0018359364   1.0535446      736.56398     -1.5643369      734.99964    
   2680000   305.8275       0.0018359364   1.9380636      758.76646     -1.9586196      756.80784    
   2681000   307.13419      0.0018359364  -1.0929778      762.00839     -1.978247       760.03014    
   2682000   292.72898      0.0018359364   1.1685472      726.26868     -3.1243113      723.14437    
   2683000   305.05864      0.0018359364   2.2309743      756.85889     -3.4048602      753.45403    
   2684000   306.46059      0.0018359364   0.061636415    760.33716     -3.2969162      757.04025    
   2685000   292.78965      0.0018359364  -1.1363453      726.41919     -3.0963234      723.32286    
   2686000   292.24057      0.0018359364   1.0904437      725.0569      -3.0831991      721.9737     
   2687000   306.16553      0.0018359364   1.3522337      759.60513     -1.8096826      757.79544    
   2688000   297.22735      0.0018359364   1.1072467      737.42925     -2.661647       734.76761    
   2689000   282.60532      0.0018359364  -1.0341434      701.15158     -2.0762491      699.07533    
   2690000   293.89879      0.0018359364   2.0664099      729.171       -2.9805446      726.19046    
   2691000   314.74965      0.0018359364   0.54734696     780.90256     -1.6167142      779.28584    
   2692000   304.79502      0.0018359364  -0.11353405     756.20485     -1.5368383      754.66802    
   2693000   285.01098      0.0018359364   2.1947841      707.12009     -2.522917       704.59717    
   2694000   303.3912       0.0018359364   1.835865       752.72194     -1.3001667      751.42177    
   2695000   290.96635      0.0018359364  -2.5677685      721.89553     -1.0488875      720.84664    
   2696000   305.53454      0.0018359364   2.3402566      758.03961     -1.8568288      756.18278    
   2697000   309.05654      0.0018359364   4.4327595      766.7778      -1.8142447      764.96356    
   2698000   291.20979      0.0018359364   0.57363547     722.49951     -2.2330496      720.26646    
   2699000   278.3483       0.0018359364  -0.3001383      690.5898      -2.5400947      688.04971    
   2700000   298.5699       0.0018359364   1.6367365      740.76014     -2.8806557      737.87949    
   2701000   321.18427      0.0018359364   2.7937496      796.86703     -3.4671755      793.39985    
   2702000   299.9018       0.0018359364   0.4436889      744.06463     -2.5891402      741.47549    
   2703000   274.79283      0.0018359364   0.25552861     681.76859     -2.0161938      679.7524     
   2704000   295.25085      0.0018359364   2.4920104      732.5255      -3.1404477      729.38505    
   2705000   305.40393      0.0018359364   1.2887988      757.71558     -3.8973716      753.8182     
   2706000   298.04689      0.0018359364   0.8216949      739.46256     -3.0766944      736.38587    
   2707000   293.34223      0.0018359364   0.50202948     727.79015     -3.7022361      724.08791    
   2708000   312.29774      0.0018359364   2.5901351      774.8193      -2.9860171      771.83328    
   2709000   307.32857      0.0018359364   0.40766227     762.49066     -2.9712856      759.51938    
   2710000   280.37468      0.0018359364   0.77354907     695.6173      -2.8462449      692.77106    
   2711000   296.3492       0.0018359364   1.4800539      735.25054     -3.497369       731.75317    
   2712000   307.32341      0.0018359364   1.5113966      762.47786     -2.940932       759.53693    
   2713000   303.96748      0.0018359364   0.80099522     754.1517      -3.681608       750.47009    
   2714000   295.21634      0.0018359364   0.65538598     732.43989     -2.6455286      729.79436    
   2715000   299.32449      0.0018359364   0.65394622     742.63231     -2.2350973      740.39721    
   2716000   300.88696      0.0018359364   1.3187162      746.50884     -2.9041014      743.60474    
   2717000   305.79628      0.0018359364   1.0204503      758.689       -1.6535122      757.03549    
   2718000   291.0008       0.0018359364   0.5348103      721.98102     -1.8126993      720.16832    
   2719000   298.05444      0.0018359364   0.97780911     739.48128     -2.943877       736.53741    
   2720000   291.526        0.0018359364   0.77537812     723.28404     -2.2050357      721.079      
   2721000   300.56317      0.0018359364   1.0068604      745.70551     -1.6032012      744.1023     
   2722000   285.89403      0.0018359364   1.095545       709.31097     -1.8098036      707.50117    
   2723000   288.18718      0.0018359364   0.96718854     715.00033     -2.292468       712.70786    
   2724000   300.63919      0.0018359364   0.94023951     745.89413     -2.5894763      743.30465    
   2725000   307.52916      0.0018359364   1.1150946      762.98832     -1.3643724      761.62394    
   2726000   297.76663      0.0018359364   1.0459751      738.76722     -1.6528343      737.11438    
   2727000   288.99035      0.0018359364   0.96416863     716.99303     -2.8799278      714.11311    
   2728000   308.77034      0.0018359364   1.0742014      766.06774     -3.2941775      762.77356    
   2729000   311.62439      0.0018359364   1.0625779      773.1487      -3.0119219      770.13678    
   2730000   300.49126      0.0018359364   0.83229482     745.5271      -4.7923693      740.73473    
   2731000   295.48555      0.0018359364   0.88674769     733.10779     -5.8167775      727.29101    
   2732000   308.59753      0.0018359364   0.93334754     765.63897     -4.5373592      761.10161    
   2733000   294.80382      0.0018359364   0.90040378     731.4164      -5.1456105      726.27079    
   2734000   289.49213      0.0018359364   1.3156055      718.23795     -4.6095798      713.62837    
   2735000   309.8659       0.0018359364   1.5111986      768.78584     -8.1435765      760.64226    
   2736000   297.43838      0.0018359364   1.1357878      737.95283     -7.0988973      730.85393    
   2737000   300.80785      0.0018359364   0.92670672     746.31258     -4.6072018      741.70537    
   2738000   298.6145       0.0018359364   0.78587228     740.87081     -4.1814843      736.68933    
   2739000   300.53735      0.0018359364   1.3691109      745.64145     -3.925193       741.71626    
   2740000   297.93427      0.0018359364   0.90294416     739.18314     -5.7752632      733.40788    
   2741000   295.27037      0.0018359364   0.16113287     732.57392     -5.7167113      726.85721    
   2742000   292.04478      0.0018359364   1.4046237      724.57114     -7.2901878      717.28095    
   2743000   302.84577      0.0018359364   1.8487158      751.36869     -5.1761787      746.19252    
   2744000   295.02166      0.0018359364   1.5570368      731.95688     -3.5150493      728.44183    
   2745000   304.63823      0.0018359364   0.59536541     755.81585     -4.4127671      751.40308    
   2746000   307.99559      0.0018359364  -0.050206201    764.14554     -4.2712216      759.87432    
   2747000   295.89169      0.0018359364   1.9401268      734.11544     -4.0887139      730.02672    
   2748000   298.87687      0.0018359364   2.5936053      741.52174     -4.6956501      736.82609    
   2749000   298.52083      0.0018359364   1.6331037      740.63842     -4.6237984      736.01462    
   2750000   305.26162      0.0018359364  -0.17356975     757.36249     -4.7743428      752.58815    
   2751000   301.27611      0.0018359364   0.89002553     747.47433     -5.3725093      742.10182    
   2752000   294.47125      0.0018359364   1.7188656      730.59128     -5.7754683      724.81581    
   2753000   288.92003      0.0018359364   0.91899916     716.81856     -5.1526965      711.66586    
   2754000   302.8586       0.0018359364   0.40470907     751.40054     -5.3409262      746.05961    
   2755000   295.75206      0.0018359364   0.95856543     733.76901     -4.9454151      728.8236     
   2756000   303.05406      0.0018359364   2.6806031      751.88549     -5.2136418      746.67184    
   2757000   305.59798      0.0018359364   1.0976676      758.19702     -5.8740188      752.323      
   2758000   300.4894       0.0018359364  -1.0027929      745.52249     -5.8906851      739.63181    
   2759000   299.1857       0.0018359364   1.309209       742.28797     -7.0423209      735.24565    
   2760000   302.85902      0.0018359364   3.5249769      751.40158     -4.7107752      746.69081    
   2761000   312.50024      0.0018359364   3.3382892      775.3217      -2.2338335      773.08787    
   2762000   297.994        0.0018359364   0.04763561     739.33134     -2.4661817      736.86516    
   2763000   303.71253      0.0018359364   0.93625593     753.51916     -2.3425144      751.17665    
   2764000   297.39281      0.0018359364   1.5316042      737.83975      0.054938734    737.89469    
   2765000   305.36234      0.0018359364   1.6070055      757.61239     -2.0696702      755.54272    
   2766000   308.39045      0.0018359364   0.89747343     765.12521     -3.2784165      761.84679    
   2767000   298.75249      0.0018359364   0.41815602     741.21316     -3.3836713      737.82949    
   2768000   299.94061      0.0018359364   1.2854263      744.16091     -3.0442606      741.11665    
   2769000   304.45368      0.0018359364   1.6271093      755.35797     -2.245579       753.11239    
   2770000   313.11513      0.0018359364   0.84926763     776.84727     -2.2653902      774.58188    
   2771000   312.86354      0.0018359364   0.46416252     776.22307     -3.6390961      772.58398    
   2772000   286.57148      0.0018359364   0.56202491     710.99175     -5.1934001      705.79835    
   2773000   299.1075       0.0018359364   1.6604085      742.09396     -5.1532119      736.94075    
   2774000   314.23009      0.0018359364   1.7190571      779.61351     -6.825834       772.78768    
   2775000   297.11062      0.0018359364   1.028691       737.13964     -5.5491533      731.59049    
   2776000   294.75563      0.0018359364   0.8781728      731.29684     -3.7409988      727.55584    
   2777000   301.30339      0.0018359364   0.96264099     747.54201     -3.3395226      744.20249    
   2778000   306.13188      0.0018359364   1.2333247      759.52163     -4.358558       755.16307    
   2779000   304.6578       0.0018359364   1.1467002      755.8644      -5.3913537      750.47304    
   2780000   290.03675      0.0018359364   0.64155541     719.58917     -4.8761415      714.71303    
   2781000   291.08303      0.0018359364   1.3457874      722.18501     -3.1474054      719.03761    
   2782000   300.74737      0.0018359364   1.1663168      746.16252     -3.83661        742.32591    
   2783000   293.62429      0.0018359364   1.3675347      728.48996     -6.0019358      722.48802    
   2784000   313.36996      0.0018359364   1.7015403      777.4795      -4.2454989      773.234      
   2785000   305.30133      0.0018359364   1.0792796      757.46101     -3.2909917      754.17002    
   2786000   292.6547       0.0018359364   0.83537173     726.08439     -3.5607374      722.52365    
   2787000   301.33274      0.0018359364   0.96907231     747.61485     -1.8615905      745.75325    
   2788000   302.60468      0.0018359364   1.3651603      750.77056     -3.544424       747.22614    
   2789000   306.53802      0.0018359364   0.48818407     760.52928     -1.9149888      758.61429    
   2790000   282.65379      0.0018359364   1.0520388      701.27183     -1.6466007      699.62523    
   2791000   304.97802      0.0018359364   1.1730366      756.65888     -1.9077577      754.75113    
   2792000   309.31452      0.0018359364   0.94047421     767.41786     -2.3470772      765.07078    
   2793000   298.33119      0.0018359364   0.9741974      740.1679      -4.3100284      735.85787    
   2794000   295.37722      0.0018359364   1.1356019      732.83901     -3.5841273      729.25489    
   2795000   304.38724      0.0018359364   1.1570566      755.19312     -2.2340027      752.95912    
   2796000   302.5498       0.0018359364   0.4666137      750.63439     -2.4284924      748.2059     
   2797000   299.33136      0.0018359364   1.3472249      742.64935     -2.9357869      739.71357    
   2798000   307.58591      0.0018359364   0.82465849     763.12912     -2.856088       760.27304    
   2799000   292.71461      0.0018359364   0.86832248     726.23301     -6.9224267      719.31058    
   2800000   291.83604      0.0018359364   0.86681505     724.05327     -5.7358797      718.31739    
   2801000   290.69009      0.0018359364   1.2044046      721.21012     -5.2669197      715.9432     
   2802000   308.80641      0.0018359364   1.5288028      766.15721     -3.5673545      762.58985    
   2803000   296.73694      0.0018359364   0.79156893     736.21254     -3.0061542      733.20638    
   2804000   300.92526      0.0018359364   0.54585188     746.60387     -3.826166       742.77771    
   2805000   302.79809      0.0018359364   1.582971       751.2504      -2.1082101      749.14219    
   2806000   281.15145      0.0018359364   1.6550354      697.54449     -2.1059139      695.43857    
   2807000   298.03776      0.0018359364   1.3381484      739.4399      -7.7282241      731.71168    
   2808000   316.67344      0.0018359364   0.19850091     785.67554     -6.6216611      779.05388    
   2809000   288.76113      0.0018359364   0.51201643     716.42432     -4.0511031      712.37322    
   2810000   294.43501      0.0018359364   1.8946145      730.50137     -3.9373876      726.56398    
   2811000   309.58202      0.0018359364   0.1929873      768.08152     -4.9172764      763.16425    
   2812000   305.75836      0.0018359364   0.86928802     758.59493     -5.3858142      753.20912    
   2813000   299.43196      0.0018359364   1.1240548      742.89895     -7.068828       735.83012    
   2814000   298.61095      0.0018359364   1.024685       740.86199     -5.1109554      735.75104    
   2815000   295.62562      0.0018359364   0.49081766     733.45531     -8.5736361      724.88167    
   2816000   300.63724      0.0018359364   0.86194781     745.88928     -8.7841704      737.1051     
   2817000   283.36785      0.0018359364   0.95284338     703.04344     -5.8356857      697.20775    
   2818000   299.8799       0.0018359364   1.0041231      744.0103      -5.6984658      738.31184    
   2819000   306.14218      0.0018359364   1.2509583      759.5472      -5.3312477      754.21595    
   2820000   297.28425      0.0018359364   1.0957905      737.57043     -4.108981       733.46144    
   2821000   296.50744      0.0018359364   0.99090412     735.64313     -3.8863818      731.75675    
   2822000   307.86648      0.0018359364   1.0283864      763.82523     -3.4027021      760.42253    
   2823000   310.96523      0.0018359364   1.0100921      771.51332     -3.8503164      767.663      
   2824000   302.14336      0.0018359364   0.7248984      749.62599     -3.6781503      745.94784    
   2825000   287.00446      0.0018359364   1.0074437      712.06597     -3.7847937      708.28117    
   2826000   293.7584       0.0018359364   1.8251121      728.8227      -3.8114255      725.01127    
   2827000   310.42939      0.0018359364   0.72073085     770.18387     -4.9577621      765.2261     
   2828000   289.8332       0.0018359364   0.83330061     719.08415     -4.8022996      714.28185    
   2829000   299.40186      0.0018359364   1.0540129      742.82428     -5.4586456      737.36563    
   2830000   307.42064      0.0018359364   1.3848384      762.71909     -4.7778686      757.94122    
   2831000   301.31324      0.0018359364   1.0656461      747.56645     -5.2580972      742.30835    
   2832000   301.32104      0.0018359364   0.41160238     747.5858      -4.8214299      742.76437    
   2833000   294.06028      0.0018359364   1.1238686      729.57167     -5.8308272      723.74085    
   2834000   304.57515      0.0018359364   1.1602934      755.65933     -4.6145522      751.04478    
   2835000   306.12856      0.0018359364   0.80125442     759.51339     -6.0462906      753.4671     
   2836000   287.49827      0.0018359364   0.86889595     713.29114     -4.8030234      708.48812    
   2837000   306.92298      0.0018359364   1.5154656      761.48437     -4.6873189      756.79705    
   2838000   309.17675      0.0018359364   1.0591213      767.07604     -3.467876       763.60817    
   2839000   305.35371      0.0018359364   0.66078887     757.59096     -3.7328581      753.8581     
   2840000   298.24823      0.0018359364   1.0531282      739.96209     -3.4823719      736.47972    
   2841000   291.8422       0.0018359364   0.77256165     724.06853     -3.6188321      720.4497     
   2842000   301.23739      0.0018359364   1.0966445      747.37826     -0.79631268     746.58195    
   2843000   287.32034      0.0018359364   1.4083199      712.84969     -3.1364938      709.7132     
   2844000   286.40875      0.0018359364   0.80639085     710.58801     -3.9221036      706.66591    
   2845000   299.26474      0.0018359364   0.95819245     742.48406     -2.0923392      740.39172    
   2846000   299.43791      0.0018359364   1.1055386      742.91371     -2.2421196      740.67159    
   2847000   306.274        0.0018359364   1.207463       759.87424     -3.376086       756.49815    
   2848000   297.97444      0.0018359364   1.3455601      739.28279     -2.8903561      736.39243    
   2849000   286.30844      0.0018359364   1.0297168      710.33914     -3.3387895      707.00035    
   2850000   312.6877       0.0018359364   0.54561078     775.78681     -3.0282524      772.75856    
   2851000   311.73484      0.0018359364   1.5527821      773.42273     -2.8901276      770.53261    
   2852000   284.2167       0.0018359364   1.6974335      705.14947     -2.2925787      702.85689    
   2853000   296.34763      0.0018359364   0.50393657     735.24663     -3.9838856      731.26274    
   2854000   312.77899      0.0018359364   0.48337049     776.01331     -3.9147393      772.09857    
   2855000   301.31837      0.0018359364   1.2933499      747.57919     -3.9695732      743.60962    
   2856000   284.20851      0.0018359364   0.92896006     705.12916     -4.7833853      700.34577    
   2857000   311.57984      0.0018359364   1.0063521      773.03817     -4.2502995      768.78787    
   2858000   292.02895      0.0018359364   1.0285542      724.53188     -5.5935705      718.93831    
   2859000   295.06033      0.0018359364   1.3623059      732.05281     -6.4046551      725.64815    
   2860000   300.78261      0.0018359364   1.0430135      746.24996     -4.4879519      741.76201    
   2861000   293.97211      0.0018359364   1.1307405      729.35292     -5.4414364      723.91148    
   2862000   316.79658      0.0018359364   1.0069669      785.98105     -4.0087114      781.97234    
   2863000   296.84383      0.0018359364   0.95926161     736.47772     -3.1751752      733.30255    
   2864000   291.36619      0.0018359364   1.2013983      722.88756     -2.1205297      720.76703    
   2865000   296.39164      0.0018359364   1.5152927      735.35582     -2.3763953      732.97942    
   2866000   316.5989       0.0018359364   0.90488534     785.4906      -1.6244764      783.86613    
   2867000   315.4434       0.0018359364   1.3206982      782.62377     -1.5035862      781.12018    
   2868000   281.88528      0.0018359364   1.1018573      699.36515     -2.2168191      697.14833    
   2869000   299.20355      0.0018359364   0.78693847     742.33227     -2.3746184      739.95765    
   2870000   310.48409      0.0018359364   1.2429027      770.31958     -2.9178817      767.4017     
   2871000   300.25006      0.0018359364   1.2944141      744.92869     -4.0687872      740.8599     
   2872000   288.63757      0.0018359364   1.2062797      716.11778     -3.6321887      712.48559    
   2873000   295.5718       0.0018359364   0.94419717     733.32178     -1.8735266      731.44825    
   2874000   310.93222      0.0018359364   1.0511039      771.43141     -3.4708117      767.96059    
   2875000   307.32816      0.0018359364   1.1696869      762.48964     -2.5922171      759.89742    
   2876000   286.63872      0.0018359364   0.98802569     711.15856     -3.6876334      707.47093    
   2877000   290.63648      0.0018359364   1.1475963      721.07712     -3.1711921      717.90593    
   2878000   310.14345      0.0018359364   1.1501721      769.47445     -5.0063708      764.46808    
   2879000   300.79501      0.0018359364   0.60412278     746.28072     -4.5379045      741.74281    
   2880000   285.68504      0.0018359364   1.2693709      708.79246     -5.0555266      703.73693    
   2881000   299.82875      0.0018359364   1.2325756      743.88339     -5.5321988      738.35119    
   2882000   309.93042      0.0018359364   0.49743954     768.9459      -4.8928848      764.05302    
   2883000   288.19383      0.0018359364   0.73829616     715.01683     -4.653507       710.36332    
   2884000   290.3747       0.0018359364   1.2501344      720.42763     -3.2707584      717.15687    
   2885000   311.36125      0.0018359364   1.0972375      772.49585     -4.3923251      768.10352    
   2886000   306.20652      0.0018359364   0.65274008     759.7068      -4.5853619      755.12144    
   2887000   291.01628      0.0018359364   1.0352559      722.01942     -2.5069701      719.51245    
   2888000   310.82572      0.0018359364   1.2490621      771.16719     -3.5975712      767.56962    
   2889000   314.74564      0.0018359364   0.99470154     780.89261     -3.7541129      777.13849    
   2890000   295.92629      0.0018359364   0.88885113     734.20129     -2.9190557      731.28224    
   2891000   298.25949      0.0018359364   0.89621144     739.99        -5.3066951      734.68331    
   2892000   310.09085      0.0018359364   1.1772084      769.34395     -3.1322611      766.21169    
   2893000   293.95943      0.0018359364   0.99993067     729.32145     -4.4928301      724.82862    
   2894000   296.32609      0.0018359364   0.68535411     735.19319     -5.0173276      730.17586    
   2895000   295.17304      0.0018359364   0.68895785     732.33244     -3.747219       728.58522    
   2896000   310.10361      0.0018359364   1.203357       769.3756      -3.4742486      765.90135    
   2897000   301.93909      0.0018359364   1.1547724      749.11921     -3.2491401      745.87007    
   2898000   284.71218      0.0018359364   0.93308619     706.37876     -2.171493       704.20726    
   2899000   290.60157      0.0018359364   1.1505911      720.99051     -4.4652341      716.52527    
   2900000   309.55299      0.0018359364   1.4484268      768.0095      -4.6872432      763.32226    
   2901000   322.16227      0.0018359364   0.8865512      799.29348     -4.2045427      795.08894    
   2902000   294.63264      0.0018359364   0.63130628     730.99171     -4.1298355      726.86188    
   2903000   284.18108      0.0018359364   1.1476679      705.06108     -2.9733929      702.08769    
   2904000   301.58184      0.0018359364   1.1019453      748.23286     -4.4540481      743.77881    
   2905000   309.87763      0.0018359364   0.84938935     768.81495     -3.0247229      765.79023    
   2906000   289.01311      0.0018359364   1.0554687      717.0495      -4.8359449      712.21355    
   2907000   294.64925      0.0018359364   0.78744353     731.03292     -4.5078644      726.52506    
   2908000   306.77342      0.0018359364   1.047812       761.1133      -3.7161014      757.3972     
   2909000   308.33196      0.0018359364   1.1641735      764.98009     -3.2538728      761.72621    
   2910000   294.83514      0.0018359364   0.80287959     731.4941      -3.9669437      727.52716    
   2911000   303.31289      0.0018359364   0.71881798     752.52765     -4.0448582      748.48279    
   2912000   296.11014      0.0018359364   1.3006122      734.65742     -3.3541949      731.30323    
   2913000   300.83509      0.0018359364   1.344958       746.38015     -3.2728517      743.1073     
   2914000   297.29499      0.0018359364   1.047765       737.59707     -2.2010375      735.39603    
   2915000   299.96105      0.0018359364   1.2446082      744.21163     -3.2922139      740.91942    
   2916000   315.28429      0.0018359364   1.1675673      782.22902     -5.0395808      777.18944    
   2917000   294.63682      0.0018359364   0.99194534     731.00208     -4.8174486      726.18463    
   2918000   294.81952      0.0018359364   0.93066421     731.45535     -3.2617306      728.19362    
   2919000   300.66396      0.0018359364   0.96413994     745.95558     -2.7145218      743.24106    
   2920000   306.81846      0.0018359364   1.2487993      761.22507     -2.9952913      758.22977    
   2921000   299.84023      0.0018359364   0.84816058     743.91187     -3.3729631      740.5389     
   2922000   303.8339       0.0018359364   0.71993712     753.82028     -2.6821254      751.13815    
   2923000   291.74502      0.0018359364   1.7210215      723.82744     -4.6566459      719.17079    
   2924000   291.42733      0.0018359364   1.8199626      723.03923     -2.4526531      720.58657    
   2925000   298.60675      0.0018359364   1.404432       740.85157     -4.4185635      736.433      
   2926000   311.91179      0.0018359364   0.21167611     773.86175     -2.924882       770.93686    
   2927000   299.74082      0.0018359364   0.5164222      743.66525     -2.7712808      740.89397    
   2928000   298.31328      0.0018359364   1.8113979      740.12348     -2.4971923      737.62629    
   2929000   301.38082      0.0018359364   0.86474012     747.73412     -4.1746124      743.55951    
   2930000   298.04486      0.0018359364   1.0325728      739.4575      -3.3151564      736.14234    
   2931000   317.81985      0.0018359364   1.0277557      788.5198      -4.6381708      783.88163    
   2932000   306.7062       0.0018359364   0.90227729     760.94655     -3.7957661      757.15078    
   2933000   286.69625      0.0018359364   0.63685384     711.30131     -2.3720698      708.92924    
   2934000   292.65502      0.0018359364   0.92230644     726.08518     -2.484811       723.60037    
   2935000   301.83782      0.0018359364   1.5147953      748.86795     -4.3298638      744.53809    
   2936000   304.70347      0.0018359364   1.0398409      755.97771     -2.5610388      753.41667    
   2937000   296.23141      0.0018359364   0.82260209     734.95829     -2.3082698      732.65002    
   2938000   300.05972      0.0018359364   0.59891853     744.45643     -3.6457007      740.81073    
   2939000   299.49726      0.0018359364   0.4927575      743.06096     -1.8636632      741.19729    
   2940000   306.91623      0.0018359364   0.92481502     761.46762     -0.37173573     761.09588    
   2941000   298.34996      0.0018359364   1.2388072      740.21448     -1.0965128      739.11797    
   2942000   301.01415      0.0018359364   1.6029752      746.8244      -1.7171067      745.10729    
   2943000   293.95703      0.0018359364   1.1609752      729.31549     -1.8146662      727.50082    
   2944000   300.79066      0.0018359364   0.46090861     746.26992     -2.5328213      743.7371     
   2945000   314.39524      0.0018359364   1.248937       780.02326     -2.7074772      777.31578    
   2946000   297.34081      0.0018359364   1.8312599      737.71075     -2.293071       735.41768    
   2947000   301.83316      0.0018359364   0.94083849     748.85639     -2.2674634      746.58893    
   2948000   305.23323      0.0018359364   0.31721511     757.29205     -2.3692481      754.9228     
   2949000   299.59579      0.0018359364   3.3444998      743.30541     -2.2055156      741.09989    
   2950000   294.21702      0.0018359364   1.1179725      729.96053     -3.7034336      726.2571     
   2951000   303.45637      0.0018359364   0.40774915     752.88362     -3.6891031      749.19452    
   2952000   305.41469      0.0018359364   1.476627       757.74227     -3.3837928      754.35848    
   2953000   295.46348      0.0018359364   1.1607455      733.05304     -2.9583422      730.0947     
   2954000   297.47208      0.0018359364  -1.0122565      738.03643     -2.3805916      735.65583    
   2955000   298.48997      0.0018359364   0.99382265     740.56184     -3.7720679      736.78977    
   2956000   303.42978      0.0018359364   2.0613264      752.81764     -3.3870359      749.4306     
   2957000   301.29276      0.0018359364   1.6139926      747.51565     -3.8695313      743.64612    
   2958000   299.43882      0.0018359364   0.32800731     742.91598     -5.918973       736.997      
   2959000   307.22077      0.0018359364   1.1100999      762.22321     -4.5997741      757.62344    
   2960000   290.91936      0.0018359364   1.315901       721.77896     -4.0177945      717.76116    
   2961000   294.71352      0.0018359364   0.94211661     731.19238     -0.027311695    731.16507    
   2962000   295.97008      0.0018359364   0.99138538     734.30994      0.88850169     735.19844    
   2963000   302.06252      0.0018359364   1.1899743      749.42543     -1.9016066      747.52382    
   2964000   307.00035      0.0018359364   1.0330894      761.67633     -0.89041008     760.78592    
   2965000   297.24294      0.0018359364   0.70893888     737.46792     -0.7370642      736.73086    
   2966000   291.67479      0.0018359364   1.2896343      723.65319     -1.5849665      722.06822    
   2967000   304.95611      0.0018359364   1.2094974      756.60451     -1.8024575      754.80205    
   2968000   310.0273       0.0018359364   0.8354799      769.18628     -0.66512841     768.52115    
   2969000   303.12366      0.0018359364   1.0192393      752.05815     -1.430806       750.62734    
   2970000   292.37327      0.0018359364   0.95439745     725.38615     -2.6077823      722.77836    
   2971000   305.68162      0.0018359364   1.0359594      758.40451     -1.8158287      756.58869    
   2972000   296.19549      0.0018359364   1.0050554      734.86918     -0.32708055     734.5421     
   2973000   304.65605      0.0018359364   0.14332216     755.86006     -1.1412283      754.71883    
   2974000   311.80767      0.0018359364   0.88212878     773.60342      0.021499555    773.62492    
   2975000   304.67355      0.0018359364   1.8924016      755.90348     -0.52491267     755.37857    
   2976000   303.01371      0.0018359364   2.1475509      751.78537     -2.2700413      749.51532    
   2977000   299.31797      0.0018359364   0.58561812     742.61613     -2.208791       740.40734    
   2978000   291.01323      0.0018359364   0.42539248     722.01185     -3.1188066      718.89305    
   2979000   305.99703      0.0018359364   0.36151375     759.18706     -1.1603843      758.02668    
   2980000   318.82671      0.0018359364   1.000698       791.01787     -0.41582475     790.60204    
   2981000   304.43108      0.0018359364   1.3046164      755.30191     -3.4407324      751.86117    
   2982000   287.87543      0.0018359364   0.60277112     714.22687     -2.5030643      711.72381    
   2983000   298.28271      0.0018359364  -0.12548367     740.04763     -1.1250487      738.92258    
   2984000   301.91163      0.0018359364   1.3749854      749.05107     -2.7423622      746.30871    
   2985000   299.55827      0.0018359364   1.4602362      743.21232     -3.0218425      740.19048    
   2986000   299.92505      0.0018359364   1.5210491      744.12231     -3.6033508      740.51895    
   2987000   303.88455      0.0018359364  -0.29938903     753.94594     -3.0167734      750.92917    
   2988000   312.24266      0.0018359364   2.5545203      774.68265     -4.1744813      770.50817    
   2989000   294.45234      0.0018359364   1.5705723      730.54436     -4.7516591      725.7927     
   2990000   293.63992      0.0018359364  -0.34765397     728.52873     -2.2223129      726.30642    
   2991000   315.16926      0.0018359364   1.152957       781.94363     -2.6338366      779.3098     
   2992000   294.02501      0.0018359364   1.2602918      729.48416     -2.2758664      727.20829    
   2993000   286.90104      0.0018359364   1.1680727      711.8094      -2.9863121      708.82309    
   2994000   306.64052      0.0018359364   0.71897609     760.78358     -2.7430366      758.04054    
   2995000   307.72252      0.0018359364   1.0764846      763.46806     -3.0206227      760.44743    
   2996000   299.88268      0.0018359364   2.2664435      744.0172      -1.0140755      743.00312    
   2997000   290.92824      0.0018359364   0.4795229      721.80097     -1.1308833      720.67009    
   2998000   304.7275       0.0018359364   0.69064803     756.03732     -4.0971018      751.94021    
   2999000   316.10465      0.0018359364   1.4982366      784.26435     -5.2522725      779.01208    
   3000000   304.97659      0.0018359364   1.1901865      756.65533     -2.5293024      754.12603    
   3001000   290.35108      0.0018359364   1.0355156      720.36904     -3.1803876      717.18865    
   3002000   296.96203      0.0018359364  -0.16402018     736.77099     -3.1459291      733.62506    
   3003000   323.79213      0.0018359364   0.68406207     803.3372      -4.2217711      799.11543    
   3004000   293.30789      0.0018359364   1.1512516      727.70497     -4.5364913      723.16848    
   3005000   282.2541       0.0018359364   0.96556323     700.28021     -4.4453805      695.83483    
   3006000   296.61886      0.0018359364   0.52148891     735.91956     -2.982752       732.93681    
   3007000   304.22462      0.0018359364   0.96333763     754.78966     -2.9167931      751.87286    
   3008000   307.57272      0.0018359364   1.0427389      763.09641     -1.3682375      761.72817    
   3009000   307.35954      0.0018359364   0.95996209     762.56749     -1.5989961      760.96849    
   3010000   287.21403      0.0018359364   0.94200237     712.58592     -1.7823605      710.80356    
   3011000   295.73855      0.0018359364   1.0786639      733.73549     -1.1083785      732.62711    
   3012000   305.3583       0.0018359364   1.3212953      757.60236     -3.0418676      754.56049    
   3013000   307.11518      0.0018359364   0.41210239     761.96124     -1.0357649      760.92547    
   3014000   288.84413      0.0018359364   0.95798031     716.63026     -2.3099344      714.32033    
   3015000   277.63406      0.0018359364   2.1693152      688.81775     -1.9221256      686.89562    
   3016000   305.63373      0.0018359364   1.1476693      758.28571      0.16914302     758.45485    
   3017000   307.58478      0.0018359364   0.8191058      763.12632     -1.6663558      761.45997    
   3018000   296.17919      0.0018359364   1.0332226      734.82875     -1.2677553      733.56099    
   3019000   300.19726      0.0018359364   1.2471059      744.79769     -2.168572       742.62911    
   3020000   299.94809      0.0018359364   1.0812148      744.17947     -1.9843614      742.19511    
   3021000   292.38732      0.0018359364   0.76375055     725.42099     -1.7274557      723.69354    
   3022000   302.41488      0.0018359364   0.94890802     750.29965     -3.0151502      747.2845     
   3023000   298.89217      0.0018359364   1.2665367      741.5597      -4.4256038      737.1341     
   3024000   304.11965      0.0018359364   1.1180086      754.52924     -2.7175399      751.8117     
   3025000   307.74561      0.0018359364   0.62805221     763.52535     -3.4791478      760.0462     
   3026000   307.26399      0.0018359364   0.66339664     762.33043     -3.875196       758.45523    
   3027000   289.16911      0.0018359364   0.56317462     717.43653     -3.541209       713.89532    
   3028000   310.49134      0.0018359364   1.3661595      770.33757     -4.3607898      765.97678    
   3029000   310.36527      0.0018359364   0.64522449     770.02479     -4.8518697      765.17292    
   3030000   291.08918      0.0018359364   1.021567       722.20028     -3.4057444      718.79453    
   3031000   298.12601      0.0018359364   0.36279075     739.65886     -3.2321244      736.42673    
   3032000   303.63781      0.0018359364   1.0135147      753.33377     -3.6392745      749.69449    
   3033000   302.31278      0.0018359364   1.1869061      750.04634     -2.7906645      747.25567    
   3034000   292.8628       0.0018359364   1.6838872      726.60068     -2.8391641      723.76152    
   3035000   305.38433      0.0018359364   2.1145322      757.66693     -1.9304473      755.73649    
   3036000   313.83416      0.0018359364  -0.44460147     778.63119     -4.3976787      774.23351    
   3037000   289.4049       0.0018359364  -0.14632603     718.02153     -4.0780644      713.94347    
   3038000   296.09997      0.0018359364   1.8031839      734.63218     -2.7833291      731.84885    
   3039000   310.39054      0.0018359364   1.4023921      770.08748     -2.1813402      767.90614    
   3040000   301.18386      0.0018359364   0.23509026     747.24545     -2.1499788      745.09547    
   3041000   291.56668      0.0018359364   1.2511392      723.38496     -3.7274301      719.65753    
   3042000   305.18262      0.0018359364   3.0955824      757.1665      -4.486705       752.6798     
   3043000   304.27577      0.0018359364  -0.29914175     754.91658     -3.9790265      750.93756    
   3044000   291.88689      0.0018359364   0.072241794    724.17942     -4.7733683      719.40605    
   3045000   295.4576       0.0018359364   2.9117144      733.03844     -5.0184146      728.02002    
   3046000   314.30283      0.0018359364   2.2209856      779.79398     -2.2018997      777.59208    
   3047000   293.706        0.0018359364   0.12406472     728.69267     -3.3070718      725.3856     
   3048000   294.57075      0.0018359364   0.79185955     730.83816     -3.3232058      727.51495    
   3049000   305.07972      0.0018359364   1.1028426      756.91119     -4.8254177      752.08577    
   3050000   304.4671       0.0018359364   0.77386792     755.39126     -3.0694454      752.32181    
   3051000   298.9228       0.0018359364   0.47393991     741.63572     -4.2121931      737.42352    
   3052000   304.51877      0.0018359364   0.75598506     755.51946     -2.9353691      752.58409    
   3053000   283.24381      0.0018359364   0.98172212     702.7357      -4.4642965      698.27141    
   3054000   300.07677      0.0018359364   0.45027009     744.49873     -1.0418215      743.45691    
   3055000   322.4607       0.0018359364   1.0315188      800.03387     -2.1298691      797.90401    
   3056000   293.64502      0.0018359364   1.6579308      728.5414      -2.6702331      725.87116    
   3057000   293.06288      0.0018359364  -0.86403417     727.09709     -2.6446245      724.45247    
   3058000   305.89763      0.0018359364   1.3469765      758.94045     -1.6595277      757.28092    
   3059000   303.41553      0.0018359364   2.3877833      752.78228     -1.6361728      751.14611    
   3060000   299.07271      0.0018359364   1.3519164      742.00765     -3.8144778      738.19317    
   3061000   293.3574       0.0018359364  -0.9420603      727.8278      -1.1449603      726.68284    
   3062000   299.91379      0.0018359364  -0.10663931     744.09438     -2.4971695      741.59721    
   3063000   299.85765      0.0018359364   3.4580828      743.9551      -2.5474369      741.40766    
   3064000   300.88816      0.0018359364   1.7705816      746.51181     -1.6931845      744.81862    
   3065000   304.25713      0.0018359364  -2.7996873      754.87032     -0.57746466     754.29286    
   3066000   298.65761      0.0018359364   2.5185189      740.97776     -1.7361042      739.24166    
   3067000   291.82734      0.0018359364   1.1001272      724.03168     -0.87538055     723.1563     
   3068000   299.7352       0.0018359364   0.65832458     743.6513       0.55713224     744.20843    
   3069000   303.02124      0.0018359364   0.44805364     751.80404     -1.5845833      750.21946    
   3070000   308.64081      0.0018359364  -1.0330429      765.74635     -1.3116428      764.43471    
   3071000   295.55817      0.0018359364   0.7318832      733.28796     -1.4173849      731.87057    
   3072000   298.9001       0.0018359364   2.320852       741.57939     -2.1513372      739.42805    
   3073000   303.66221      0.0018359364   1.3567359      753.3943      -1.3539093      752.04039    
   3074000   296.92197      0.0018359364   0.97697419     736.67159     -1.5832744      735.08831    
   3075000   302.6642       0.0018359364   0.1254037      750.91821     -1.5950729      749.32314    
   3076000   309.07644      0.0018359364  -0.23851158     766.82717     -1.1678336      765.65934    
   3077000   306.21065      0.0018359364   4.1859042      759.71706     -0.44174448     759.27531    
   3078000   295.61358      0.0018359364   0.55457639     733.42545     -1.5290385      731.89641    
   3079000   289.07064      0.0018359364  -0.48273062     717.19222     -0.70067026     716.49155    
   3080000   305.94687      0.0018359364  -0.67804931     759.06263     -1.7106679      757.35196    
   3081000   305.4065       0.0018359364   1.8174174      757.72195     -2.3019341      755.42002    
   3082000   299.09126      0.0018359364   2.0354706      742.05367     -4.544033       737.50963    
   3083000   294.06498      0.0018359364   1.1205572      729.58332     -4.0573058      725.52601    
   3084000   296.82314      0.0018359364   0.45801104     736.4264      -3.0432721      733.38313    
   3085000   312.37376      0.0018359364   0.48651441     775.00791     -2.3615693      772.64634    
   3086000   305.00023      0.0018359364   2.0591899      756.71399     -0.74614753     755.96784    
   3087000   300.89879      0.0018359364   0.68115882     746.5382      -0.68471679     745.85348    
   3088000   296.53097      0.0018359364  -0.12875203     735.7015       0.56793388     736.26943    
   3089000   302.38913      0.0018359364   1.6080714      750.23576     -2.1836101      748.05215    
   3090000   292.31286      0.0018359364   1.7829977      725.23627     -2.9639483      722.27232    
   3091000   305.68071      0.0018359364  -0.045557817    758.40226     -2.7640338      755.63823    
   3092000   304.53583      0.0018359364   1.9091371      755.56178     -5.0921999      750.46958    
   3093000   301.98381      0.0018359364   2.350228       749.23015     -3.5253161      745.70483    
   3094000   304.9994       0.0018359364   2.3755207      756.71192     -3.5006179      753.2113     
   3095000   296.22298      0.0018359364   0.57231393     734.93739     -4.2114422      730.72595    
   3096000   291.93854      0.0018359364   0.57009836     724.30757     -3.913126       720.39445    
   3097000   309.76592      0.0018359364   1.867831       768.5378      -2.8016452      765.73615    
   3098000   296.76722      0.0018359364   1.1696123      736.28766     -2.0227612      734.2649     
   3099000   294.78522      0.0018359364   0.5217979      731.37025     -4.826347       726.5439     
   3100000   310.13764      0.0018359364   0.23266502     769.46003     -4.385502       765.07453    
   3101000   304.43441      0.0018359364   1.421014       755.31017     -4.3625838      750.94759    
   3102000   289.32556      0.0018359364   0.43352375     717.82469     -4.3501342      713.47456    
   3103000   301.73767      0.0018359364   0.75648018     748.61948     -2.9723205      745.64716    
   3104000   304.14076      0.0018359364   1.4977887      754.58162     -2.4823065      752.09931    
   3105000   298.02414      0.0018359364   0.95951105     739.40611     -2.8555135      736.5506     
   3106000   304.20305      0.0018359364   0.71304693     754.73615     -2.5753027      752.16085    
   3107000   308.65593      0.0018359364   0.51294621     765.78387     -3.6554777      762.12839    
   3108000   302.11146      0.0018359364   1.1137604      749.54687     -2.1494602      747.39741    
   3109000   298.96901      0.0018359364   1.1831801      741.75037     -2.0263368      739.72403    
   3110000   293.84102      0.0018359364   1.0049481      729.02767     -3.9429158      725.08475    
   3111000   307.08755      0.0018359364   1.0798027      761.89268     -0.95277776     760.93991    
   3112000   304.32301      0.0018359364   1.0249893      755.03377     -0.93622114     754.09755    
   3113000   298.50661      0.0018359364   0.76963791     740.60313     -0.89213128     739.711      
   3114000   290.04149      0.0018359364   1.1774482      719.60094     -2.7403491      716.86059    
   3115000   307.84821      0.0018359364   1.2007628      763.7799      -2.4332299      761.34667    
   3116000   288.80399      0.0018359364   0.24870672     716.53067     -2.5135367      714.01713    
   3117000   290.43439      0.0018359364   0.055287917    720.57572     -3.2224492      717.35327    
   3118000   301.01779      0.0018359364   1.4129838      746.83343     -2.9516608      743.88177    
   3119000   307.32157      0.0018359364   1.2001044      762.47329     -1.8881376      760.58515    
   3120000   308.66578      0.0018359364   0.78010733     765.80831     -2.7745178      763.0338     
   3121000   287.20822      0.0018359364   0.69110362     712.57151     -1.3872193      711.18429    
   3122000   303.54137      0.0018359364   1.3168654      753.09451     -2.9087357      750.18578    
   3123000   307.99416      0.0018359364   1.2571676      764.142       -2.8327457      761.30925    
   3124000   293.322        0.0018359364  -0.26619997     727.73998     -1.7209333      726.01904    
   3125000   296.5405       0.0018359364   0.89652825     735.72515     -4.3205083      731.40464    
   3126000   304.11931      0.0018359364   1.9062785      754.52839     -4.6563498      749.87204    
   3127000   295.98661      0.0018359364   1.5718965      734.35093     -4.2748157      730.07611    
   3128000   310.41029      0.0018359364  -0.07336346     770.13648     -3.9566038      766.17988    
   3129000   296.04032      0.0018359364   1.1459554      734.4842      -2.5662453      731.91795    
   3130000   278.21091      0.0018359364   2.6506471      690.24893     -2.4876078      687.76133    
   3131000   302.47871      0.0018359364   1.2837154      750.45802     -2.5572452      747.90078    
   3132000   307.07803      0.0018359364  -0.21285652     761.86906     -2.3507201      759.51834    
   3133000   308.19832      0.0018359364   1.3809085      764.64852     -1.3443789      763.30414    
   3134000   292.87291      0.0018359364   1.7754089      726.62575     -2.196133       724.42962    
   3135000   306.97778      0.0018359364   1.2222184      761.62033     -1.9191608      759.70117    
   3136000   309.56694      0.0018359364   0.42825491     768.04412     -2.5068728      765.53725    
   3137000   292.86184      0.0018359364   0.88125391     726.5983      -1.8351706      724.76313    
   3138000   294.88322      0.0018359364   1.2263893      731.61339     -2.7103762      728.90302    
   3139000   297.71825      0.0018359364   1.0540411      738.64719     -2.0430001      736.60419    
   3140000   304.57649      0.0018359364   0.91281267     755.66267     -2.1099212      753.55274    
   3141000   310.63996      0.0018359364   1.2602747      770.7063      -1.9272116      768.77909    
   3142000   301.98489      0.0018359364   0.979382       749.23282     -2.7067179      746.52611    
   3143000   293.95563      0.0018359364   0.86908252     729.31203     -3.4291455      725.88288    
   3144000   299.05258      0.0018359364   1.0134816      741.95769     -3.7104303      738.24726    
   3145000   296.35973      0.0018359364   1.4599848      735.27666     -3.3522096      731.92445    
   3146000   279.65689      0.0018359364   0.96428453     693.83646     -1.6327322      692.20373    
   3147000   305.18505      0.0018359364   0.77705627     757.17252     -3.3694152      753.80311    
   3148000   306.34568      0.0018359364   1.0827855      760.05208     -2.9429519      757.10913    
   3149000   305.22172      0.0018359364   0.88337853     757.26349     -2.8055314      754.45796    
   3150000   277.26127      0.0018359364   1.2096201      687.89285     -0.65580491     687.23704    
   3151000   299.47406      0.0018359364   1.326916       743.00339     -1.1683673      741.83503    
   3152000   313.72024      0.0018359364   1.1365263      778.34856     -1.7597316      776.58883    
   3153000   288.48457      0.0018359364  -0.016619129    715.73816     -0.79419329     714.94397    
   3154000   296.30765      0.0018359364   1.2997846      735.14744     -0.21047448     734.93697    
   3155000   304.09133      0.0018359364   1.2086026      754.45897     -2.1827915      752.27618    
   3156000   296.98294      0.0018359364   1.2140751      736.82285     -3.083443       733.73941    
   3157000   295.84576      0.0018359364   1.0179936      734.00149     -1.9338157      732.06767    
   3158000   296.63593      0.0018359364   0.6211453      735.96191     -1.1608347      734.80107    
   3159000   314.07816      0.0018359364   1.1022091      779.23657     -1.2763697      777.9602     
   3160000   303.1024       0.0018359364   0.99182401     752.00541     -0.49249498     751.51292    
   3161000   299.09985      0.0018359364   1.56344        742.07498     -1.9910513      740.08393    
   3162000   296.99837      0.0018359364   1.0006572      736.86113     -4.2673637      732.59377    
   3163000   302.75552      0.0018359364   0.84810584     751.14479     -3.5377111      747.60708    
   3164000   312.76449      0.0018359364   1.0796131      775.97732     -3.6190289      772.35829    
   3165000   290.99123      0.0018359364   1.0058211      721.95727     -3.5367009      718.42057    
   3166000   306.51263      0.0018359364   0.94990573     760.4663      -3.3774856      757.08881    
   3167000   299.51952      0.0018359364   0.97631137     743.11618     -1.5125476      741.60363    
   3168000   303.87406      0.0018359364   1.343036       753.91992     -1.4649964      752.45492    
   3169000   290.32916      0.0018359364   1.2507988      720.31464     -1.3410779      718.97357    
   3170000   314.31203      0.0018359364  -0.26899156     779.81682     -1.4223144      778.3945     
   3171000   306.54614      0.0018359364   1.1770412      760.54942     -2.2064903      758.34293    
   3172000   293.38675      0.0018359364   1.9562957      727.90061     -1.0070532      726.89356    
   3173000   294.6262       0.0018359364   1.9279847      730.97572     -1.7002866      729.27544    
   3174000   301.57478      0.0018359364   0.76744369     748.21534     -0.88300117     747.33234    
   3175000   303.97638      0.0018359364   0.75112816     754.17378     -0.74558524     753.4282     
   3176000   295.39776      0.0018359364   1.7463501      732.88998     -2.2426549      730.64733    
   3177000   293.93577      0.0018359364   1.1690836      729.26274     -1.7966568      727.46608    
   3178000   305.98381      0.0018359364   0.68430872     759.15426     -2.3899932      756.76427    
   3179000   302.26408      0.0018359364   1.8714024      749.92552     -1.3425009      748.58302    
   3180000   289.21152      0.0018359364   1.2177019      717.54176     -2.5682471      714.97351    
   3181000   298.22721      0.0018359364   0.57626165     739.90992     -2.604361       737.30556    
   3182000   309.0358       0.0018359364   0.91361232     766.72633     -1.0166684      765.70966    
   3183000   300.2127       0.0018359364   1.0433443      744.83598     -1.7557025      743.08028    
   3184000   300.06217      0.0018359364   0.90676504     744.46251     -3.1395669      741.32294    
   3185000   298.91234      0.0018359364   0.94950102     741.60977     -2.0393286      739.57044    
   3186000   302.32821      0.0018359364   1.0338408      750.08463     -1.3005846      748.78404    
   3187000   322.56586      0.0018359364   1.6687343      800.2948      -2.1093906      798.1854     
   3188000   292.25808      0.0018359364   0.41908731     725.10036     -2.7443356      722.35602    
   3189000   288.31098      0.0018359364   1.8412861      715.30749     -2.5674658      712.74002    
   3190000   309.39595      0.0018359364   1.219833       767.61987     -1.7305465      765.88933    
   3191000   303.39997      0.0018359364   0.56007242     752.74368     -2.0157175      750.72796    
   3192000   296.72774      0.0018359364   1.0479041      736.1897      -1.73741        734.45229    
   3193000   302.32888      0.0018359364   1.2212413      750.08628     -3.2257821      746.8605     
   3194000   306.18352      0.0018359364   0.38093989     759.64975     -5.0408823      754.60887    
   3195000   296.04143      0.0018359364   1.3974357      734.48694     -4.4850215      730.00192    
   3196000   305.53383      0.0018359364   0.87191584     758.03785     -2.9041199      755.13373    
   3197000   288.00391      0.0018359364   0.43480254     714.54564     -1.2208832      713.32476    
   3198000   303.77549      0.0018359364   1.2262642      753.67536     -3.8165306      749.85883    
   3199000   322.78742      0.0018359364   1.1408808      800.84448     -3.9282599      796.91622    
   3200000   301.88569      0.0018359364   0.057881994    748.98673     -3.9591275      745.0276     
   3201000   296.72098      0.0018359364   0.95853177     736.17292     -1.8573638      734.31556    
   3202000   291.19568      0.0018359364   0.8696479      722.4645      -2.4757229      719.98878    
   3203000   300.17644      0.0018359364   0.98626195     744.74602     -4.8126231      739.9334     
   3204000   311.28536      0.0018359364   1.6556221      772.30755     -2.7500699      769.55748    
   3205000   291.97428      0.0018359364   0.97399584     724.39623     -4.0632811      720.33295    
   3206000   286.23091      0.0018359364   0.9228932      710.14679     -4.1530867      705.9937     
   3207000   304.26556      0.0018359364   1.7638824      754.89125     -3.1411953      751.75006    
   3208000   311.17104      0.0018359364   1.0268958      772.02393     -4.4808554      767.54308    
   3209000   291.89966      0.0018359364   0.81942674     724.2111      -3.835958       720.37514    
   3210000   290.37083      0.0018359364   0.77463886     720.41802     -2.2865827      718.13144    
   3211000   307.45642      0.0018359364   1.3331695      762.80786     -5.4048571      757.403      
   3212000   318.11262      0.0018359364   1.2457937      789.24619     -3.3427181      785.90347    
   3213000   300.97455      0.0018359364   0.92183181     746.72615     -2.5361033      744.19005    
   3214000   294.9862       0.0018359364   1.0159259      731.86889     -1.8305521      730.03834    
   3215000   301.09727      0.0018359364   1.1205127      747.03062     -1.8509746      745.17964    
   3216000   304.32329      0.0018359364   0.99417906     755.03447     -3.8683718      751.1661     
   3217000   308.46292      0.0018359364   0.66576576     765.30502     -2.3517025      762.95331    
   3218000   290.43161      0.0018359364   0.90948025     720.56883     -4.226553       716.34228    
   3219000   271.81748      0.0018359364   0.92645116     674.38667     -5.3955015      668.99117    
   3220000   309.63437      0.0018359364   1.1555952      768.21141     -4.6430817      763.56833    
   3221000   310.19739      0.0018359364   0.73370996     769.60827     -2.8469653      766.76131    
   3222000   287.6131       0.0018359364   0.89342626     713.57603     -2.8087711      710.76725    
   3223000   294.17837      0.0018359364   1.3751638      729.86463     -2.8263568      727.03828    
   3224000   301.56226      0.0018359364   1.0169062      748.18428     -3.8220722      744.36221    
   3225000   306.79016      0.0018359364   0.76125145     761.15484     -4.8482606      756.30658    
   3226000   295.98387      0.0018359364   2.2938263      734.34413     -3.8551743      730.48896    
   3227000   296.18625      0.0018359364   1.8165284      734.84625     -5.7048242      729.14143    
   3228000   309.4326       0.0018359364   1.3806908      767.71082     -7.1712165      760.5396     
   3229000   297.58486      0.0018359364  -0.36021394     738.31625     -7.3028184      731.01343    
   3230000   298.0261       0.0018359364   1.3587358      739.41098     -6.5072359      732.90374    
   3231000   292.36174      0.0018359364   2.545444       725.35753     -5.8685855      719.48895    
   3232000   292.63551      0.0018359364   1.5074103      726.03678     -6.5898243      719.44695    
   3233000   304.9262       0.0018359364   0.50976448     756.53031     -3.9459708      752.58434    
   3234000   311.7947       0.0018359364   1.0033313      773.57124     -2.5700414      771.0012     
   3235000   299.6424       0.0018359364   1.0687021      743.42107     -3.6437305      739.77733    
   3236000   301.8069       0.0018359364   1.1717377      748.79124     -3.0392441      745.752      
   3237000   310.9605       0.0018359364   0.16550188     771.50157     -4.7361567      766.76541    
   3238000   300.75369      0.0018359364   0.46628563     746.1782      -2.5347981      743.6434     
   3239000   295.59395      0.0018359364   1.8527954      733.37673     -5.1506157      728.22611    
   3240000   308.5893       0.0018359364   1.4754741      765.61855     -3.2579043      762.36065    
   3241000   304.02466      0.0018359364   0.86317257     754.29357     -3.8592581      750.43431    
   3242000   305.98027      0.0018359364   0.55992439     759.1455      -4.4339758      754.71152    
   3243000   292.01184      0.0018359364   2.1009554      724.48942     -4.1480995      720.34132    
   3244000   296.41729      0.0018359364   2.0425445      735.41946     -3.3530551      732.06641    
   3245000   306.70817      0.0018359364   0.64888104     760.95142     -0.349882       760.60153    
   3246000   294.12022      0.0018359364  -1.3258442      729.72037     -1.776387       727.94399    
   3247000   290.31203      0.0018359364   0.70987019     720.27216     -2.660544       717.61161    
   3248000   293.64234      0.0018359364   1.3529765      728.53474     -1.6250359      726.9097     
   3249000   306.00199      0.0018359364   1.2073279      759.19938     -1.6928642      757.50651    
   3250000   301.67217      0.0018359364   0.69942979     748.45697     -3.3216825      745.13528    
   3251000   292.07467      0.0018359364   0.9430248      724.64531     -2.6511499      721.99416    
   3252000   293.0435       0.0018359364   2.2516272      727.049       -3.7494339      723.29957    
   3253000   298.07899      0.0018359364   1.9571488      739.54219     -2.5248101      737.01738    
   3254000   306.43358      0.0018359364   1.3664206      760.27016     -2.6940005      757.57616    
   3255000   298.8555       0.0018359364  -2.8325633      741.46872     -3.2308052      738.23792    
   3256000   305.83995      0.0018359364   1.946807       758.79735     -3.7824258      755.01493    
   3257000   305.65797      0.0018359364   1.7638741      758.34584     -4.0303122      754.31553    
   3258000   312.91763      0.0018359364  -1.2295168      776.35726     -5.0081396      771.34912    
   3259000   291.637        0.0018359364   0.88525832     723.55944     -4.704265       718.85517    
   3260000   289.61678      0.0018359364   3.4701321      718.54722     -2.3536629      716.19356    
   3261000   319.62058      0.0018359364   2.1431714      792.98748     -3.4803275      789.50715    
   3262000   302.23964      0.0018359364  -0.20239083     749.86488     -4.7733291      745.09156    
   3263000   298.21541      0.0018359364   4.213752       739.88065     -4.0137472      735.8669     
   3264000   298.43289      0.0018359364   0.88496789     740.42022     -3.6347385      736.78548    
   3265000   302.43187      0.0018359364   0.23475581     750.34182     -4.5236102      745.81821    
   3266000   299.47724      0.0018359364   1.1302389      743.01129     -4.7189207      738.29237    
   3267000   309.68865      0.0018359364   1.7181875      768.34606     -5.3158877      763.03018    
   3268000   299.60213      0.0018359364  -0.62049853     743.32115     -4.0923709      739.22878    
   3269000   290.2874       0.0018359364   1.1855539      720.21104     -3.1937426      717.0173     
   3270000   310.42846      0.0018359364   1.5998907      770.18156     -5.8054046      764.37616    
   3271000   302.84874      0.0018359364   1.3437284      751.37606     -4.4495114      746.92655    
   3272000   300.03444      0.0018359364   0.17421835     744.3937      -4.3772181      740.01649    
   3273000   301.01309      0.0018359364   0.75280442     746.82176     -5.1950335      741.62673    
   3274000   307.73325      0.0018359364   2.5841511      763.49467     -6.5085305      756.98614    
   3275000   306.77063      0.0018359364   1.0420763      761.10638     -3.7744953      757.33189    
   3276000   292.90313      0.0018359364   0.40637827     726.70075     -6.0950321      720.60571    
   3277000   300.56297      0.0018359364   3.6162717      745.70501     -6.723543       738.98147    
   3278000   311.42821      0.0018359364   0.61797773     772.66197     -6.1070787      766.5549     
   3279000   294.93518      0.0018359364   0.92483866     731.74231     -4.8433839      726.89892    
   3280000   305.00112      0.0018359364   2.1063108      756.71618     -3.9756335      752.74055    
   3281000   304.86137      0.0018359364   0.91618584     756.36946     -4.7866444      751.58282    
   3282000   298.57509      0.0018359364   0.79626507     740.77303     -2.4475194      738.32551    
   3283000   288.31018      0.0018359364   0.2658128      715.3055      -2.865633       712.43987    
   3284000   293.8721       0.0018359364   1.7701894      729.10478     -4.0843432      725.02044    
   3285000   305.05218      0.0018359364   2.1453224      756.84286     -5.0214231      751.82143    
   3286000   300.82274      0.0018359364   1.1342426      746.34952     -3.7960078      742.55351    
   3287000   295.40686      0.0018359364  -0.26599065     732.91257     -3.9202339      728.99234    
   3288000   293.87859      0.0018359364   1.0905779      729.12088     -4.0847465      725.03614    
   3289000   296.35004      0.0018359364   1.6672282      735.25261     -3.1570539      732.09556    
   3290000   290.04663      0.0018359364   1.0293503      719.61368     -2.9171487      716.69654    
   3291000   305.13265      0.0018359364   0.73826431     757.04252     -3.2941099      753.74841    
   3292000   297.11748      0.0018359364   0.35027859     737.15666     -3.0628535      734.0938     
   3293000   296.9283       0.0018359364   1.5925205      736.68729     -2.7693465      733.91795    
   3294000   302.3503       0.0018359364   0.92278434     750.13943     -2.9198425      747.21959    
   3295000   315.19194      0.0018359364   0.63537486     781.99989     -4.3200891      777.6798     
   3296000   282.74598      0.0018359364   0.58548051     701.50056     -2.7819401      698.71862    
   3297000   286.97012      0.0018359364   1.9179861      711.98077     -3.224153       708.75662    
   3298000   306.37413      0.0018359364   0.55858614     760.12265     -1.8512233      758.27143    
   3299000   294.11036      0.0018359364   0.67087276     729.6959      -3.0942343      726.60167    
   3300000   287.20601      0.0018359364   2.5785475      712.56604     -2.0094119      710.55663    
   3301000   305.16214      0.0018359364   2.5986725      757.11567     -4.1944956      752.92118    
   3302000   310.24566      0.0018359364   0.56880675     769.72804     -3.2547365      766.47331    
   3303000   302.67112      0.0018359364   0.50720395     750.93539     -3.311373       747.62401    
   3304000   290.41644      0.0018359364   1.6805282      720.5312      -3.2398539      717.29135    
   3305000   301.47631      0.0018359364   4.7807829      747.97102     -3.095939       744.87508    
   3306000   310.46312      0.0018359364   2.0791772      770.26756     -4.1515757      766.11598    
   3307000   301.03818      0.0018359364   0.25829569     746.88402     -2.8899884      743.99403    
   3308000   298.14732      0.0018359364   3.0740242      739.71171     -3.2770824      736.43463    
   3309000   300.06739      0.0018359364   1.2388574      744.47547     -2.3188103      742.15666    
   3310000   306.80736      0.0018359364   0.32881869     761.19752     -3.0262917      758.17123    
   3311000   300.70614      0.0018359364   1.1098763      746.06023      0.54692174     746.60715    
   3312000   301.36939      0.0018359364   1.6965248      747.70577     -2.3670915      745.33868    
   3313000   306.00768      0.0018359364   1.128832       759.2135      -1.8348449      757.37865    
   3314000   298.52425      0.0018359364   0.45634861     740.6469      -3.6399239      737.00698    
   3315000   302.12075      0.0018359364   1.8913837      749.56991     -3.5718042      745.99811    
   3316000   298.66982      0.0018359364   1.4853555      741.00806     -1.3570459      739.65101    
   3317000   306.57586      0.0018359364   0.4023616      760.62315     -2.4312488      758.1919     
   3318000   291.28684      0.0018359364   1.1106515      722.69069     -1.8449187      720.84577    
   3319000   302.87839      0.0018359364   1.1946115      751.44962     -2.3677401      749.08188    
   3320000   309.99565      0.0018359364   1.1343365      769.10775     -1.4745106      767.63324    
   3321000   291.13657      0.0018359364   1.0078827      722.31787     -2.0599971      720.25787    
   3322000   295.01296      0.0018359364   0.75781634     731.93528     -1.969599       729.96568    
   3323000   309.27937      0.0018359364   1.2848368      767.33065     -0.69535531     766.6353     
   3324000   286.52195      0.0018359364   0.88426343     710.86886     -0.825343       710.04351    
   3325000   302.04769      0.0018359364   0.40365333     749.38865     -0.83134641     748.55731    
   3326000   293.29787      0.0018359364   1.1826611      727.6801      -1.6289823      726.05111    
   3327000   295.85066      0.0018359364   0.92535637     734.01363     -2.2145424      731.79909    
   3328000   295.89373      0.0018359364   1.0854833      734.12049     -1.5446745      732.57582    
   3329000   310.36858      0.0018359364   1.1056391      770.03301     -3.661305       766.3717     
   3330000   309.46547      0.0018359364   1.1904703      767.79237     -3.5517776      764.24059    
   3331000   303.93973      0.0018359364   1.1264726      754.08285     -1.7902359      752.29261    
   3332000   299.81171      0.0018359364   1.0104978      743.84113     -1.6470348      742.19409    
   3333000   301.7431       0.0018359364   1.0825886      748.63295     -1.6624034      746.97055    
   3334000   314.91363      0.0018359364   1.0331989      781.30941     -2.5335131      778.77589    
   3335000   301.4022       0.0018359364   0.95530129     747.78718     -1.8827981      745.90438    
   3336000   287.08577      0.0018359364   0.97615984     712.26772     -3.4676827      708.80004    
   3337000   294.08539      0.0018359364   1.351358       729.63397     -2.6254721      727.00849    
   3338000   303.98405      0.0018359364   2.1463865      754.19282     -5.1059352      749.08688    
   3339000   317.89515      0.0018359364   1.0449961      788.70664     -1.2741018      787.43254    
   3340000   300.24741      0.0018359364   0.94468492     744.9221      -2.304567       742.61753    
   3341000   288.11289      0.0018359364   0.98272916     714.81603     -1.6744693      713.14156    
   3342000   291.71733      0.0018359364   0.90434194     723.75873     -2.2868458      721.47188    
   3343000   313.68941      0.0018359364   1.1377728      778.27207     -0.5835574      777.68851    
   3344000   302.81192      0.0018359364   1.5401684      751.28473     -0.62632782     750.6584     
   3345000   291.47214      0.0018359364   0.99455781     723.15041     -1.3967594      721.75365    
   3346000   306.81594      0.0018359364   0.36271537     761.2188      -1.8620221      759.35678    
   3347000   308.2113       0.0018359364   1.4768091      764.68073     -1.5267188      763.15401    
   3348000   288.29789      0.0018359364   0.05431876     715.27502     -4.0064345      711.26858    
   3349000   296.34268      0.0018359364   0.9235698      735.23436     -3.1693958      732.06497    
   3350000   305.14034      0.0018359364   1.1050117      757.0616      -3.8577944      753.2038     
   3351000   312.06091      0.0018359364   1.0801949      774.23173     -2.0569361      772.17479    
   3352000   294.38472      0.0018359364   1.213893       730.37661     -2.444337       727.93227    
   3353000   295.46365      0.0018359364   0.50027899     733.05345     -2.2398409      730.81361    
   3354000   308.37051      0.0018359364   0.84598131     765.07574     -2.3214413      762.7543     
   3355000   297.46809      0.0018359364   1.0944773      738.02652     -2.9878337      735.03869    
   3356000   286.44688      0.0018359364   2.4844612      710.68261     -1.6366744      709.04594    
   3357000   294.90018      0.0018359364   0.17976627     731.65548     -2.7857762      728.8697     
   3358000   305.63184      0.0018359364  -1.1193909      758.28101     -3.8164944      754.46452    
   3359000   305.47893      0.0018359364   2.6606414      757.90166     -2.262461       755.63919    
   3360000   288.68534      0.0018359364   0.81823119     716.23628     -2.0470974      714.18918    
   3361000   295.55582      0.0018359364   0.49189296     733.28214     -3.9534562      729.32868    
   3362000   317.26278      0.0018359364   1.806885       787.13769     -2.6954337      784.44226    
   3363000   305.2728       0.0018359364   2.2275738      757.39023     -4.539395       752.85084    
   3364000   287.1571       0.0018359364   0.74397825     712.44468     -3.9500478      708.49464    
   3365000   285.86372      0.0018359364   0.22486773     709.23576     -6.2423673      702.99339    
   3366000   302.59155      0.0018359364   0.76967533     750.73796     -3.1269136      747.61105    
   3367000   310.09058      0.0018359364   0.92110509     769.34328     -4.5008964      764.84238    
   3368000   302.09671      0.0018359364   2.7760067      749.51026     -3.8957005      745.61456    
   3369000   294.14161      0.0018359364   1.1066976      729.77344     -3.7901877      725.98326    
   3370000   310.00178      0.0018359364   0.07017698     769.12297     -3.0326937      766.09027    
   3371000   290.75067      0.0018359364   1.3361077      721.36043     -3.2384608      718.12197    
   3372000   296.80564      0.0018359364   1.5092189      736.38297     -1.9392299      734.44374    
   3373000   300.86583      0.0018359364   0.63472106     746.45642     -3.0916958      743.36472    
   3374000   303.79738      0.0018359364   1.1293391      753.72966     -2.5328651      751.1968     
   3375000   298.7824       0.0018359364   1.7067176      741.28738     -3.5382478      737.74913    
   3376000   300.3967       0.0018359364   1.2333429      745.2925      -3.3358444      741.95666    
   3377000   286.83544      0.0018359364   0.78610449     711.64662     -2.9836056      708.66302    
   3378000   301.87247      0.0018359364   0.90459966     748.95391     -2.991986       745.96192    
   3379000   303.67459      0.0018359364   1.6014952      753.42502     -2.0966098      751.32841    
   3380000   298.93751      0.0018359364   0.94480535     741.6722      -2.8030917      738.86911    
   3381000   306.94409      0.0018359364   0.29514022     761.53675     -1.4854062      760.05134    
   3382000   297.61302      0.0018359364   1.3161471      738.38612     -2.2051677      736.18095    
   3383000   304.77119      0.0018359364   2.0527013      756.14573     -3.2261408      752.91958    
   3384000   300.97631      0.0018359364   0.94549451     746.73053     -2.063333       744.6672     
   3385000   296.83759      0.0018359364   0.98502339     736.46224     -1.5079259      734.95432    
   3386000   305.7669       0.0018359364   1.0846593      758.6161      -1.0057163      757.61039    
   3387000   303.4562       0.0018359364   1.2500924      752.88319     -4.4347591      748.44843    
   3388000   298.61431      0.0018359364   1.017974       740.87033     -3.2078374      737.6625     
   3389000   300.18647      0.0018359364   0.35346958     744.77091     -2.5651134      742.20579    
   3390000   302.83536      0.0018359364   1.010202       751.34288     -1.8714063      749.47147    
   3391000   291.82486      0.0018359364   1.1461247      724.02552     -2.7390642      721.28646    
   3392000   304.30476      0.0018359364   0.89329217     754.9885      -3.0265804      751.96192    
   3393000   306.22178      0.0018359364   0.96931344     759.74467     -2.9679639      756.7767     
   3394000   304.53805      0.0018359364   1.3177431      755.56729     -1.9197134      753.64757    
   3395000   292.8256       0.0018359364   1.0410382      726.50838     -3.4539977      723.05438    
   3396000   308.59447      0.0018359364   0.90941409     765.63139     -3.275243       762.35615    
   3397000   310.61989      0.0018359364   0.16008925     770.6565      -3.1091114      767.54739    
   3398000   295.77667      0.0018359364   1.2572529      733.83006     -3.7937725      730.03629    
   3399000   281.62062      0.0018359364   0.84680202     698.70852     -4.1210012      694.58752    
   3400000   303.10887      0.0018359364   0.41087391     752.02147     -2.8496526      749.17182    
   3401000   314.64559      0.0018359364   2.2983926      780.64437     -2.3173651      778.32701    
   3402000   297.27501      0.0018359364   2.3906013      737.5475      -2.0514188      735.49608    
   3403000   294.64699      0.0018359364   0.95507347     731.0273      -3.0889273      727.93837    
   3404000   320.9669       0.0018359364   0.99713002     796.32773     -1.7221717      794.60556    
   3405000   299.28423      0.0018359364   1.238924       742.53244     -3.769692       738.76274    
   3406000   291.92416      0.0018359364   0.98911896     724.27188     -2.4941735      721.7777     
   3407000   302.00713      0.0018359364   1.2487992      749.28802     -2.4743579      746.81367    
   3408000   307.93367      0.0018359364   1.0119047      763.99191     -2.143765       761.84815    
   3409000   308.74446      0.0018359364   1.0879445      766.00351     -2.4952363      763.50827    
   3410000   294.02647      0.0018359364   1.0254373      729.48777     -2.3830653      727.10471    
   3411000   296.25516      0.0018359364   1.0106044      735.01721     -2.7435114      732.2737     
   3412000   312.06779      0.0018359364   0.91067428     774.24879     -2.1571194      772.09167    
   3413000   317.7052       0.0018359364   1.0351414      788.23536     -2.9567882      785.27858    
   3414000   297.1385       0.0018359364   1.2855133      737.20881     -2.8271435      734.38166    
   3415000   281.63396      0.0018359364   0.4359797      698.74163     -5.1638971      693.57773    
   3416000   318.77854      0.0018359364   0.86178149     790.89834     -3.0428208      787.85552    
   3417000   307.26913      0.0018359364   1.1861258      762.34319     -2.2176345      760.12556    
   3418000   282.92266      0.0018359364   0.8258837      701.93891     -2.9322359      699.00668    
   3419000   299.11597      0.0018359364   0.69523577     742.11496     -2.8220397      739.29292    
   3420000   308.7391       0.0018359364   1.1745942      765.99022     -2.5573727      763.43285    
   3421000   304.51619      0.0018359364   1.2468032      755.51307     -3.5301955      751.98287    
   3422000   303.56819      0.0018359364   0.73588147     753.16106     -4.0944001      749.06666    
   3423000   293.99188      0.0018359364   1.0155798      729.40195     -3.6987303      725.70322    
   3424000   307.7256       0.0018359364   1.3205028      763.4757      -3.3511829      760.12452    
   3425000   299.91108      0.0018359364   1.1197724      744.08765     -2.3109691      741.77668    
   3426000   298.7841       0.0018359364   0.2255989      741.2916      -4.3019937      736.9896     
   3427000   303.35984      0.0018359364   0.83875149     752.64412     -4.1567052      748.48742    
   3428000   287.47573      0.0018359364   2.4438518      713.23521     -2.9501656      710.28504    
   3429000   297.23006      0.0018359364   0.9008693      737.43597     -2.9561657      734.4798     
   3430000   300.98342      0.0018359364   0.1520487      746.74816     -2.2927603      744.45539    
   3431000   302.3817       0.0018359364   1.2803845      750.21734     -2.4278801      747.78946    
   3432000   290.71318      0.0018359364   1.4396649      721.26741     -1.3784951      719.88892    
   3433000   280.00556      0.0018359364   0.98072692     694.70152     -1.4865634      693.21495    
   3434000   310.72582      0.0018359364  -0.13186653     770.91931     -1.9894504      768.92986    
   3435000   311.79706      0.0018359364   1.7577254      773.5771      -0.92194076     772.65516    
   3436000   293.8385       0.0018359364   1.1919698      729.02142     -3.815593       725.20582    
   3437000   307.90869      0.0018359364   0.3030847      763.92995     -1.5363952      762.39356    
   3438000   307.25924      0.0018359364   2.0523702      762.31865     -2.9380764      759.38058    
   3439000   283.44405      0.0018359364   1.4516609      703.23249     -1.0580815      702.17441    
   3440000   295.19409      0.0018359364   0.97577745     732.38468     -1.4284792      730.95621    
   3441000   302.86391      0.0018359364  -0.44558742     751.4137      -1.1853891      750.22831    
   3442000   299.69814      0.0018359364   0.73842466     743.55934     -0.28374438     743.2756     
   3443000   314.04506      0.0018359364   2.3756656      779.15446     -2.6632585      776.4912     
   3444000   296.05508      0.0018359364   3.0778055      734.52082     -2.3846283      732.13619    
   3445000   296.80358      0.0018359364   1.3733237      736.37787     -3.2856826      733.09219    
   3446000   295.32476      0.0018359364   0.15306495     732.70887     -1.7309027      730.97796    
   3447000   298.05081      0.0018359364   0.77746971     739.47228     -3.7073449      735.76494    
   3448000   304.52014      0.0018359364   1.9295934      755.52286     -1.5080209      754.01483    
   3449000   299.38057      0.0018359364   0.56947906     742.77146     -2.9890187      739.78244    
   3450000   296.1743       0.0018359364   0.31626883     734.81659     -3.2398715      731.57672    
   3451000   306.14132      0.0018359364   0.24235924     759.54506     -1.942331       757.60273    
   3452000   311.61352      0.0018359364   0.56144139     773.12174     -2.7745902      770.34715    
   3453000   295.22191      0.0018359364   1.7871811      732.45371     -2.294536       730.15917    
   3454000   275.46337      0.0018359364   0.25011887     683.43222     -2.2260373      681.20618    
   3455000   312.08396      0.0018359364  -0.33749786     774.28891     -2.6366228      771.65229    
   3456000   309.58765      0.0018359364   1.6304504      768.09551     -1.862212       766.23329    
   3457000   299.14294      0.0018359364   2.0975686      742.18187     -3.4419896      738.73988    
   3458000   282.94625      0.0018359364   0.64222822     701.99745     -0.91806538     701.07939    
   3459000   294.3149       0.0018359364   0.096370635    730.20338     -0.49002594     729.71335    
   3460000   308.97391      0.0018359364   1.1418895      766.57278     -1.3036092      765.26917    
   3461000   296.74131      0.0018359364   1.9002236      736.22337     -3.259844       732.96353    
   3462000   293.01013      0.0018359364   0.49898004     726.9662      -2.7393488      724.22685    
   3463000   321.10977      0.0018359364   0.89884937     796.68219     -1.7283982      794.95379    
   3464000   300.89931      0.0018359364   1.4271734      746.53947     -3.5494851      742.98999    
   3465000   289.69545      0.0018359364   1.4623965      718.7424      -1.1206385      717.62176    
   3466000   290.54377      0.0018359364   1.5739789      720.84711     -4.0680059      716.7791     
   3467000   310.46295      0.0018359364   0.59435892     770.26713     -3.4586392      766.80849    
   3468000   314.89575      0.0018359364   1.4162644      781.26504     -2.6478164      778.61722    
   3469000   292.06575      0.0018359364   1.6506278      724.62318     -2.2132872      722.40989    
   3470000   294.86907      0.0018359364   1.6959706      731.5783      -2.7664979      728.8118     
   3471000   287.89771      0.0018359364   0.80456421     714.28216     -2.8744485      711.40771    
   3472000   290.08298      0.0018359364   0.79272663     719.70386     -3.5376297      716.16623    
   3473000   302.40672      0.0018359364   1.2867734      750.27942     -2.6447874      747.63463    
   3474000   299.85419      0.0018359364   1.541304       743.94651     -4.2346372      739.71187    
   3475000   293.27434      0.0018359364  -0.014877778    727.62173     -4.743406       722.87832    
   3476000   295.37792      0.0018359364   0.4145048      732.84076     -3.4235467      729.41721    
   3477000   313.01232      0.0018359364   1.0505458      776.5922      -3.9145001      772.6777     
   3478000   298.60659      0.0018359364   1.4897118      740.85117     -3.2870626      737.56411    
   3479000   299.82909      0.0018359364  -0.24021073     743.88424     -3.7021918      740.18205    
   3480000   307.92929      0.0018359364   0.14336095     763.98105     -2.7693897      761.21166    
   3481000   302.90483      0.0018359364  -0.070368764    751.51524     -1.5118665      750.00338    
   3482000   301.15533      0.0018359364   1.1528181      747.17467     -2.1192437      745.05543    
   3483000   299.65276      0.0018359364   1.3951698      743.44676     -0.80928135     742.63748    
   3484000   291.08875      0.0018359364   0.79510427     722.19922     -2.9589508      719.24027    
   3485000   293.39423      0.0018359364   0.87905648     727.91917     -2.5251112      725.39406    
   3486000   308.36462      0.0018359364   1.325577       765.06113     -1.5989401      763.46219    
   3487000   299.74811      0.0018359364   1.3996384      743.68332     -1.4820308      742.20129    
   3488000   299.79426      0.0018359364   0.93032925     743.79781     -1.643402       742.15441    
   3489000   290.84637      0.0018359364   0.44528172     721.59786     -1.7820544      719.81581    
   3490000   302.91504      0.0018359364   0.68577102     751.54057     -3.9340905      747.60648    
   3491000   308.21771      0.0018359364   1.1653485      764.69664     -4.5135343      760.1831     
   3492000   307.48215      0.0018359364   1.114487       762.87169     -5.5354729      757.33621    
   3493000   282.00995      0.0018359364   1.8427526      699.67446     -6.7686166      692.90584    
   3494000   301.15819      0.0018359364   1.1957722      747.18178     -7.0206339      740.16114    
   3495000   307.03244      0.0018359364   0.99449504     761.75595     -6.9987944      754.75715    
   3496000   290.41248      0.0018359364   0.6065272      720.52137     -5.2067991      715.31457    
   3497000   298.78931      0.0018359364   0.67782272     741.30451     -4.5415363      736.76298    
   3498000   313.01698      0.0018359364   1.2336288      776.60375     -3.2855855      773.31816    
   3499000   297.93554      0.0018359364   1.4858845      739.1863      -5.1095912      734.07671    
   3500000   302.24401      0.0018359364  -0.76014568     749.87571     -2.6958167      747.17989    
   3501000   297.9029       0.0018359364   1.1998898      739.10531     -2.9989132      736.10639    
   3502000   302.62877      0.0018359364   1.7394695      750.83032     -1.8641176      748.9662     
   3503000   283.31763      0.0018359364   0.56678558     702.91884     -1.1186956      701.80015    
   3504000   310.46592      0.0018359364   0.78438015     770.27451     -3.2024131      767.0721     
   3505000   302.54282      0.0018359364   1.8905896      750.61707     -2.0858377      748.53123    
   3506000   280.99728      0.0018359364   0.25315291     697.16199     -3.2595651      693.90243    
   3507000   301.48575      0.0018359364   0.96401536     747.99445     -3.3578226      744.63663    
   3508000   307.88925      0.0018359364   1.4495096      763.8817      -2.1984085      761.6833     
   3509000   292.23586      0.0018359364   1.0572766      725.04522     -2.4875662      722.55766    
   3510000   294.61742      0.0018359364   0.98107382     730.95393     -2.3552149      728.59872    
   3511000   306.95361      0.0018359364   1.1465547      761.56038     -2.6890919      758.87128    
   3512000   293.05081      0.0018359364   0.97026722     727.06713     -2.8435646      724.22357    
   3513000   303.9814       0.0018359364   1.2163356      754.18623     -3.309941       750.87628    
   3514000   307.65493      0.0018359364   1.0093094      763.30036     -2.2412224      761.05914    
   3515000   290.35524      0.0018359364   0.68869331     720.37936     -3.2722379      717.10713    
   3516000   299.96642      0.0018359364   1.6599084      744.22497     -1.969916       742.25505    
   3517000   309.06043      0.0018359364   1.05447        766.78745     -2.4011009      764.38635    
   3518000   293.2116       0.0018359364   0.85353061     727.46606     -4.2615992      723.20447    
   3519000   303.63159      0.0018359364   0.91760875     753.31835     -4.509259       748.80909    
   3520000   304.1384       0.0018359364   1.1214653      754.57574     -5.4020415      749.1737     
   3521000   300.35044      0.0018359364   1.1142135      745.17772     -5.0593886      740.11833    
   3522000   279.90862      0.0018359364   2.5820187      694.46101     -3.2523152      691.2087     
   3523000   298.62178      0.0018359364   1.1925207      740.88886     -0.87026307     740.0186     
   3524000   306.2438       0.0018359364   0.75881991     759.79931     -1.7988237      758.00049    
   3525000   305.75293      0.0018359364   1.1818533      758.58144     -2.3644         756.21704    
   3526000   292.4612       0.0018359364   0.98630575     725.6043      -2.0088478      723.59545    
   3527000   307.82496      0.0018359364   1.0736118      763.7222      -4.964631       758.75757    
   3528000   304.22356      0.0018359364   0.79491919     754.78704     -3.1458175      751.64122    
   3529000   291.4211       0.0018359364   0.97976345     723.02377     -3.5297806      719.49399    
   3530000   305.49798      0.0018359364   1.2848302      757.94891     -2.4650202      755.48389    
   3531000   317.09359      0.0018359364   0.8878801      786.71793     -2.8428653      783.87507    
   3532000   283.44087      0.0018359364   0.77842081     703.22462     -2.3442454      700.88038    
   3533000   299.8571       0.0018359364   1.4504075      743.95372     -3.0051045      740.94861    
   3534000   318.52948      0.0018359364   1.2027979      790.28041     -2.864551       787.41586    
   3535000   302.88511      0.0018359364   0.38633081     751.46631     -6.3744963      745.09181    
   3536000   289.99308      0.0018359364   0.80144065     719.48082     -4.7621575      714.71866    
   3537000   291.1027       0.0018359364   2.1922864      722.23382     -3.4425565      718.79126    
   3538000   308.32871      0.0018359364   1.1739637      764.97203     -2.7647731      762.20726    
   3539000   305.77753      0.0018359364  -0.55972469     758.64249     -3.0943364      755.54816    
   3540000   293.77979      0.0018359364   0.51182167     728.87575     -1.2684069      727.60734    
   3541000   290.62386      0.0018359364   2.0559556      721.0458      -2.4459865      718.59981    
   3542000   323.0607       0.0018359364   2.1213139      801.5225      -2.2884883      799.23402    
   3543000   308.34623      0.0018359364   1.7368249      765.01551     -3.3326215      761.68289    
   3544000   299.7321       0.0018359364   0.62300119     743.64361     -2.7104484      740.93316    
   3545000   294.26731      0.0018359364   1.0620268      730.0853      -1.5053895      728.57991    
   3546000   288.10064      0.0018359364   1.4126653      714.78564     -2.9920541      711.79358    
   3547000   310.39462      0.0018359364   0.93873911     770.0976      -2.4547225      767.64288    
   3548000   308.93367      0.0018359364   1.6282764      766.47294     -2.1664596      764.30648    
   3549000   297.79279      0.0018359364   1.0020137      738.83212     -2.9072344      735.92489    
   3550000   298.30811      0.0018359364   0.54614812     740.11064     -2.0763746      738.03426    
   3551000   316.55284      0.0018359364   1.0063291      785.37632     -2.454543       782.92178    
   3552000   302.06193      0.0018359364   1.6101377      749.42398     -4.0032392      745.42074    
   3553000   293.98687      0.0018359364   1.3990655      729.38953     -1.7098791      727.67965    
   3554000   284.84748      0.0018359364   0.42170004     706.71446     -1.8305353      704.88392    
   3555000   308.05122      0.0018359364  -0.13192606     764.28358     -3.2643992      761.01918    
   3556000   304.38645      0.0018359364   1.1886247      755.19117     -1.032387       754.15878    
   3557000   298.76965      0.0018359364   1.5408931      741.25575     -2.8456313      738.41012    
   3558000   297.34782      0.0018359364   1.1566126      737.72814     -2.047471       735.68067    
   3559000   301.03635      0.0018359364   0.71024926     746.87948     -4.3015853      742.5779     
   3560000   302.93571      0.0018359364   1.1007671      751.59185     -2.437778       749.15407    
   3561000   292.03598      0.0018359364   1.1834848      724.54932     -3.8906139      720.65871    
   3562000   300.65684      0.0018359364   0.95671588     745.93791     -3.1594092      742.7785     
   3563000   302.41143      0.0018359364   0.64654469     750.2911      -1.8334649      748.45764    
   3564000   310.38317      0.0018359364   0.67694211     770.06919     -2.680886       767.3883     
   3565000   301.07218      0.0018359364   1.1787105      746.96838     -3.5626361      743.40574    
   3566000   306.66301      0.0018359364   1.2716785      760.83939     -2.3101922      758.5292     
   3567000   298.53313      0.0018359364   0.44095238     740.66893     -2.2734957      738.39544    
   3568000   293.85561      0.0018359364   0.99148986     729.06386     -3.0380899      726.02577    
   3569000   305.39399      0.0018359364   1.5417401      757.6909      -1.3309002      756.36       
   3570000   297.32437      0.0018359364   1.0617482      737.66996     -2.8901737      734.77978    
   3571000   293.83064      0.0018359364   0.60777279     729.00193     -3.4682977      725.53363    
   3572000   296.94638      0.0018359364   0.85815761     736.73216     -2.5315071      734.20065    
   3573000   313.95507      0.0018359364   1.2897681      778.93118     -2.3907998      776.54039    
   3574000   312.06625      0.0018359364   1.4387139      774.24496     -5.8321904      768.41277    
   3575000   299.30337      0.0018359364   1.076541       742.5799      -3.8590349      738.72086    
   3576000   282.92782      0.0018359364   1.2917838      701.95171     -3.6224795      698.32923    
   3577000   297.05677      0.0018359364   0.77700672     737.00604     -2.5590375      734.44701    
   3578000   307.49662      0.0018359364   0.84011562     762.90759     -3.2035575      759.70403    
   3579000   305.12278      0.0018359364   1.4306991      757.01802     -3.7318398      753.28618    
   3580000   294.28779      0.0018359364   1.1448017      730.13613     -4.0612337      726.0749     
   3581000   282.86883      0.0018359364   0.92435721     701.80536     -3.4292536      698.37611    
   3582000   309.47204      0.0018359364   1.0676763      767.80865     -2.0871044      765.72155    
   3583000   297.43041      0.0018359364   0.99484897     737.93304     -3.6912343      734.24181    
   3584000   289.56805      0.0018359364   1.1266496      718.42631     -2.790816       715.6355     
   3585000   312.07783      0.0018359364   1.6147067      774.2737      -3.8500752      770.42363    
   3586000   307.96293      0.0018359364   0.81862473     764.06451     -2.9982991      761.06621    
   3587000   296.18565      0.0018359364   0.91542523     734.84476     -3.1641286      731.68064    
   3588000   287.24161      0.0018359364   0.61905179     712.65435     -3.9829504      708.6714     
   3589000   300.71773      0.0018359364   1.3533349      746.08897     -4.3858438      741.70313    
   3590000   312.95297      0.0018359364   0.46625821     776.44494     -4.0365039      772.40844    
   3591000   301.06776      0.0018359364   0.5394461      746.9574      -4.1734301      742.78397    
   3592000   284.16051      0.0018359364   1.0096673      705.01006     -1.5519026      703.45816    
   3593000   304.16652      0.0018359364   1.0857702      754.64551     -2.9072906      751.73822    
   3594000   299.23114      0.0018359364   0.40293438     742.40069     -2.0063828      740.39431    
   3595000   300.42173      0.0018359364   0.72217231     745.3546      -4.3895253      740.96507    
   3596000   292.10829      0.0018359364   0.72766212     724.72871     -4.6640526      720.06466    
   3597000   309.58126      0.0018359364   1.233858       768.07965     -4.4255643      763.65408    
   3598000   290.49254      0.0018359364   0.82726865     720.72001     -2.6642793      718.05573    
   3599000   295.66321      0.0018359364   1.0709538      733.54857     -1.928717       731.61985    
   3600000   304.99092      0.0018359364   0.80321136     756.69089     -2.129922       754.56096    
   3601000   308.99929      0.0018359364   1.0897178      766.63577     -0.90004581     765.73572    
   3602000   302.65853      0.0018359364   0.94720451     750.90417     -3.248971       747.6552     
   3603000   307.95113      0.0018359364   1.0460784      764.03525     -1.9901353      762.04511    
   3604000   294.85283      0.0018359364   0.91998929     731.53801     -0.11661748     731.42139    
   3605000   292.95086      0.0018359364   0.94663499     726.81917     -1.1286999      725.69047    
   3606000   301.75895      0.0018359364   1.2855358      748.67227     -1.8174447      746.85483    
   3607000   301.74245      0.0018359364   1.1455632      748.63133     -1.7983537      746.83298    
   3608000   301.19993      0.0018359364   0.6412076      747.28534     -3.8475407      743.4378     
   3609000   286.0129       0.0018359364   0.73052031     709.6059      -4.4114912      705.19441    
   3610000   302.02932      0.0018359364   1.4803287      749.34306     -4.4836856      744.85937    
   3611000   307.79406      0.0018359364   1.9595588      763.64554     -2.9282342      760.71731    
   3612000   299.32304      0.0018359364   0.93062611     742.62872     -3.2780905      739.35062    
   3613000   281.75514      0.0018359364   0.087774503    699.04227     -1.734261       697.30801    
   3614000   304.81512      0.0018359364   1.7089001      756.25471     -2.0226635      754.23205    
   3615000   299.54303      0.0018359364   1.2707605      743.17451     -1.2248878      741.94962    
   3616000   297.52194      0.0018359364  -0.82609468     738.16014     -2.2933826      735.86676    
   3617000   294.778        0.0018359364   1.1879396      731.35233     -3.0279841      728.32435    
   3618000   316.28416      0.0018359364   0.93615423     784.70972     -2.1422321      782.56748    
   3619000   293.32472      0.0018359364  -1.3083885      727.74672     -2.2395909      725.50713    
   3620000   285.01603      0.0018359364   2.4204559      707.13262     -2.5563275      704.57629    
   3621000   296.77594      0.0018359364   2.007896       736.30928     -4.0764145      732.23286    
   3622000   312.2052       0.0018359364  -0.82171627     774.58972     -3.1657146      771.424      
   3623000   297.80447      0.0018359364  -4.2614704      738.86111     -3.225571       735.63554    
   3624000   291.97275      0.0018359364   0.73340285     724.39243     -3.9728159      720.41962    
   3625000   311.6231       0.0018359364   3.7461795      773.14549     -4.6457386      768.49975    
   3626000   313.7537       0.0018359364   2.023057       778.43159     -4.7875666      773.64402    
   3627000   296.71311      0.0018359364   0.35981248     736.15341     -5.9047716      730.24864    
   3628000   293.69384      0.0018359364   0.9595189      728.66252     -5.9244358      722.73808    
   3629000   323.875        0.0018359364   3.8256998      803.5428      -4.3586344      799.18417    
   3630000   317.46031      0.0018359364   1.5188281      787.62778     -3.5078106      784.11997    
   3631000   303.68708      0.0018359364  -0.91560882     753.456       -3.9257312      749.53027    
   3632000   289.21929      0.0018359364   0.64024984     717.56104     -3.7497921      713.81125    
   3633000   294.93282      0.0018359364   4.0485121      731.73645     -3.5731448      728.16331    
   3634000   307.56095      0.0018359364   0.74527944     763.0672      -3.237048       759.83015    
   3635000   305.42358      0.0018359364   0.52015407     757.76432     -4.649124       753.11519    
   3636000   296.42033      0.0018359364   1.9695685      735.42702     -3.0806714      732.34634    
   3637000   296.68834      0.0018359364   2.5681899      736.09195     -4.2641761      731.82777    
   3638000   306.18585      0.0018359364  -1.05152        759.65555     -4.6087404      755.04681    
   3639000   284.36625      0.0018359364   1.3766939      705.52051     -4.6922081      700.8283     
   3640000   294.55184      0.0018359364   2.2692963      730.79123     -3.5949633      727.19627    
   3641000   305.9936       0.0018359364   3.8995766      759.17856     -3.0725911      756.10597    
   3642000   300.17396      0.0018359364  -1.193377       744.73986     -2.8374304      741.90243    
   3643000   297.35057      0.0018359364   1.3008739      737.73496     -6.1867969      731.54816    
   3644000   305.06405      0.0018359364   3.8011879      756.87232     -3.2660479      753.60627    
   3645000   304.25414      0.0018359364   1.5108272      754.8629      -5.1726362      749.69026    
   3646000   307.51143      0.0018359364   0.13780729     762.94434     -4.7974978      758.14684    
   3647000   302.41268      0.0018359364   0.79556408     750.2942      -3.4166535      746.87755    
   3648000   302.37201      0.0018359364   2.4192104      750.19328     -3.7301572      746.46312    
   3649000   304.0821       0.0018359364   0.35176576     754.43607     -1.6572873      752.77879    
   3650000   293.56269      0.0018359364   0.77364281     728.33713      0.76050069     729.09763    
   3651000   301.89303      0.0018359364   2.4471548      749.00493     -2.354127       746.6508     
   3652000   305.98328      0.0018359364  -0.39416529     759.15294     -2.9029652      756.24998    
   3653000   292.72008      0.0018359364   1.2207063      726.24659     -2.4011219      723.84547    
   3654000   288.97449      0.0018359364   1.6206731      716.95368     -2.403794       714.54988    
   3655000   307.62027      0.0018359364   1.0325463      763.21436     -3.9277747      759.28658    
   3656000   300.22821      0.0018359364   0.11803591     744.87446     -4.5367486      740.33771    
   3657000   284.21498      0.0018359364   0.72803952     705.14519     -3.9545185      701.19068    
   3658000   298.07426      0.0018359364   2.232895       739.53046     -2.0065784      737.52389    
   3659000   321.17976      0.0018359364   1.5786269      796.85585     -2.8095062      794.04634    
   3660000   301.80786      0.0018359364   0.90640725     748.79363     -3.1164075      745.67722    
   3661000   284.91058      0.0018359364   0.5530483      706.871       -3.9896237      702.88138    
   3662000   295.25477      0.0018359364   1.2100749      732.53521     -2.0719945      730.46322    
   3663000   301.92867      0.0018359364   1.1822439      749.09336     -3.5723899      745.52097    
   3664000   302.36616      0.0018359364   1.0832312      750.17879     -1.7286218      748.45016    
   3665000   296.23625      0.0018359364   0.96840526     734.97031     -3.8095977      731.16072    
   3666000   294.69573      0.0018359364   0.51495953     731.14824     -4.3725129      726.77573    
   3667000   297.61942      0.0018359364   0.80915286     738.402       -2.4647992      735.9372     
   3668000   306.84321      0.0018359364   1.0456154      761.28647     -1.2006352      760.08583    
   3669000   306.76622      0.0018359364   1.3619748      761.09545     -1.5949669      759.50049    
   3670000   286.96248      0.0018359364   0.75487366     711.96182     -1.3148726      710.64695    
   3671000   303.69423      0.0018359364   0.95335519     753.47376     -2.7909024      750.68285    
   3672000   304.36063      0.0018359364   0.94480865     755.12711     -1.3900738      753.73704    
   3673000   295.45018      0.0018359364   2.0863282      733.02003     -2.3912729      730.62876    
   3674000   286.41581      0.0018359364   1.4005308      710.60553     -2.0209093      708.58462    
   3675000   299.80407      0.0018359364   1.5749573      743.82216     -1.0997176      742.72245    
   3676000   293.65507      0.0018359364   1.042317       728.56633     -2.7635529      725.80278    
   3677000   299.8915       0.0018359364   0.95129041     744.03907     -3.0981382      740.94094    
   3678000   300.04024      0.0018359364   1.0661267      744.40811     -2.1807211      742.22739    
   3679000   301.51994      0.0018359364   0.91363018     748.07929     -4.6805531      743.39874    
   3680000   301.16954      0.0018359364   1.028108       747.20994     -3.0377619      744.17218    
   3681000   305.3144       0.0018359364   1.2001233      757.49344     -3.3303425      754.1631     
   3682000   297.03206      0.0018359364   0.80295279     736.94473     -2.4773413      734.46739    
   3683000   278.16787      0.0018359364   1.254231       690.14215     -3.4647052      686.67744    
   3684000   316.73276      0.0018359364   1.3155099      785.82271     -2.0563167      783.76639    
   3685000   299.0069       0.0018359364   0.63911851     741.84435     -2.2781897      739.56616    
   3686000   292.58343      0.0018359364   1.1327123      725.90755     -1.9247873      723.98276    
   3687000   301.66332      0.0018359364   1.0656373      748.435       -1.7112818      746.72372    
   3688000   305.44329      0.0018359364   0.85754689     757.81322     -1.7491147      756.06411    
   3689000   297.47716      0.0018359364   1.065944       738.04904     -0.091655493    737.95738    
   3690000   295.94654      0.0018359364   1.5345898      734.25152     -3.4443734      730.80714    
   3691000   302.71643      0.0018359364   0.87603131     751.04781     -1.0442711      750.00354    
   3692000   308.42228      0.0018359364   0.72876675     765.20419     -3.3430163      761.86117    
   3693000   290.08461      0.0018359364   1.2780567      719.70791     -3.23895        716.46896    
   3694000   299.52263      0.0018359364   1.2551063      743.1239      -2.1365016      740.9874     
   3695000   304.52447      0.0018359364  -0.025238531    755.53359     -2.3948104      753.13878    
   3696000   303.42909      0.0018359364   1.2525643      752.81593     -2.33584        750.48009    
   3697000   294.73034      0.0018359364   1.6455206      731.2341      -2.9307301      728.30337    
   3698000   311.58977      0.0018359364   1.0972519      773.0628      -2.1545961      770.90821    
   3699000   303.82446      0.0018359364   0.85008728     753.79687     -1.6874052      752.10946    
   3700000   304.90301      0.0018359364   1.3467676      756.47277     -4.1780182      752.29475    
   3701000   315.13491      0.0018359364   1.0155357      781.8584      -1.6239712      780.23443    
   3702000   297.77181      0.0018359364   0.92933236     738.78006     -1.4884475      737.29161    
   3703000   297.23409      0.0018359364   0.98120966     737.44597     -1.1802221      736.26575    
   3704000   310.24228      0.0018359364   1.0727528      769.71965     -1.4813946      768.23826    
   3705000   300.53523      0.0018359364   2.0285754      745.63619     -1.9403467      743.69584    
   3706000   302.02432      0.0018359364   0.58249369     749.33067     -0.94394752     748.38672    
   3707000   299.63709      0.0018359364   0.58676714     743.40789     -2.1096703      741.29822    
   3708000   293.8321       0.0018359364   2.0049817      729.00554     -2.5791181      726.42642    
   3709000   302.03901      0.0018359364   1.0734726      749.3671      -0.94662112     748.42048    
   3710000   295.68455      0.0018359364   0.73729402     733.60153     -2.6867209      730.91481    
   3711000   301.8942       0.0018359364   0.93302135     749.00783     -2.7916053      746.21623    
   3712000   292.805        0.0018359364   1.2204596      726.45727     -0.78417473     725.6731     
   3713000   300.97577      0.0018359364   1.2743923      746.72917     -3.216063       743.51311    
   3714000   305.84303      0.0018359364   1.0975878      758.805       -2.0186231      756.78638    
   3715000   293.92778      0.0018359364   0.18517158     729.24292     -2.7859504      726.45697    
   3716000   314.65052      0.0018359364   2.2640962      780.65662     -4.2112572      776.44537    
   3717000   318.76949      0.0018359364   2.7754723      790.87588     -2.6784666      788.19741    
   3718000   302.44504      0.0018359364   0.28280913     750.37447     -2.4943134      747.88016    
   3719000   299.04886      0.0018359364  -0.51452663     741.94847     -3.3518199      738.59665    
   3720000   279.58941      0.0018359364   0.66070818     693.66903     -2.4260007      691.24303    
   3721000   307.58192      0.0018359364   2.9751639      763.11922     -2.4765376      760.64268    
   3722000   303.95118      0.0018359364   0.27110628     754.11124     -3.6727601      750.43848    
   3723000   294.35093      0.0018359364  -0.25287017     730.29278     -3.0575745      727.23521    
   3724000   296.53133      0.0018359364   0.62445194     735.7024      -3.953188       731.74922    
   3725000   298.11222      0.0018359364   0.87920119     739.62463     -3.7409403      735.88369    
   3726000   304.16905      0.0018359364   1.5589086      754.6518      -2.778111       751.87369    
   3727000   312.73465      0.0018359364   1.1016408      775.90329     -2.2170118      773.68627    
   3728000   297.1125       0.0018359364   0.92930853     737.1443      -2.9287979      734.2155     
   3729000   297.82561      0.0018359364   1.0669489      738.91354     -2.7060924      736.20745    
   3730000   316.5353       0.0018359364   1.3434245      785.3328      -1.6328796      783.69992    
   3731000   303.8361       0.0018359364   0.76098144     753.82575     -2.2616952      751.56406    
   3732000   281.3472       0.0018359364   0.27800381     698.03017     -0.92921754     697.10095    
   3733000   293.80377      0.0018359364   0.87981202     728.93524     -3.9383769      724.99686    
   3734000   302.44464      0.0018359364   1.0241206      750.37348     -3.2970081      747.07648    
   3735000   302.16498      0.0018359364   1.5862487      749.67964     -1.9387947      747.74084    
   3736000   293.86924      0.0018359364   0.99931313     729.09768     -2.1344902      726.96319    
   3737000   294.6188       0.0018359364   0.81972943     730.95735     -2.6351268      728.32223    
   3738000   317.70039      0.0018359364   0.58909023     788.22342     -2.8917962      785.33162    
   3739000   304.20248      0.0018359364   1.2363912      754.73475     -3.6820502      751.0527     
   3740000   289.74736      0.0018359364   1.0242819      718.87118     -3.420187       715.45099    
   3741000   305.51958      0.0018359364   1.2055012      758.00251     -2.5972777      755.40523    
   3742000   311.7419       0.0018359364   1.0994927      773.44025     -2.3878695      771.05238    
   3743000   294.60698      0.0018359364   0.20533648     730.92804     -2.5669878      728.36105    
   3744000   292.56249      0.0018359364   1.3054696      725.85559     -2.3790433      723.47655    
   3745000   298.57105      0.0018359364   1.1155389      740.763       -1.8812848      738.88171    
   3746000   318.77049      0.0018359364   0.86539245     790.87838     -2.3692337      788.50914    
   3747000   295.83895      0.0018359364   0.78340624     733.98459     -2.9606349      731.02395    
   3748000   285.50581      0.0018359364   0.84442237     708.34779     -1.973854       706.37394    
   3749000   294.31921      0.0018359364   1.2354048      730.21407     -1.7166664      728.49741    
   3750000   304.64464      0.0018359364   1.209496       755.83174     -2.5661794      753.26556    
   3751000   299.20284      0.0018359364   0.49694889     742.3305      -0.34977864     741.98072    
   3752000   298.33509      0.0018359364   1.1570328      740.17759     -1.543668       738.63392    
   3753000   311.08621      0.0018359364   1.4040993      771.81346     -0.54333847     771.27012    
   3754000   300.93778      0.0018359364   1.103534       746.63492     -0.4783825      746.15653    
   3755000   295.43755      0.0018359364   0.7606517      732.9887      -1.1795899      731.80911    
   3756000   288.13393      0.0018359364   1.1419823      714.86822     -1.4799233      713.3883     
   3757000   297.28856      0.0018359364   0.91985947     737.58111     -1.6472586      735.93385    
   3758000   305.47334      0.0018359364   1.0870367      757.88778     -1.2256573      756.66213    
   3759000   308.9299       0.0018359364   1.1452601      766.46359     -1.7998058      764.66379    
   3760000   300.33932      0.0018359364   0.83952126     745.15013     -1.4649533      743.68518    
   3761000   287.06148      0.0018359364   0.94603361     712.20745     -0.62402061     711.58343    
   3762000   300.70198      0.0018359364   0.86085177     746.04991     -0.72861838     745.32129    
   3763000   300.54691      0.0018359364   1.0231324      745.66517     -1.7790827      743.88609    
   3764000   309.04226      0.0018359364   0.94964454     766.74235     -3.181242       763.56111    
   3765000   296.9054       0.0018359364   0.98504039     736.63049     -2.0214996      734.60899    
   3766000   303.88426      0.0018359364   1.9895505      753.94524     -2.3639548      751.58128    
   3767000   303.61996      0.0018359364   1.083897       753.28948     -2.2797463      751.00973    
   3768000   293.86128      0.0018359364   0.51214713     729.07794     -2.3798036      726.69813    
   3769000   299.30193      0.0018359364   1.2670179      742.57633     -1.6308579      740.94548    
   3770000   299.55366      0.0018359364   1.502946       743.20088     -2.0147668      741.18612    
   3771000   306.44356      0.0018359364   0.61812189     760.29492     -1.0310373      759.26388    
   3772000   302.00852      0.0018359364   1.1579489      749.29146     -3.0574834      746.23397    
   3773000   303.69321      0.0018359364   1.7680807      753.47122     -1.4742839      751.99694    
   3774000   306.24921      0.0018359364   1.4662473      759.81273     -3.2506757      756.56205    
   3775000   298.21459      0.0018359364   0.27746926     739.87861     -2.6110715      737.26754    
   3776000   294.32476      0.0018359364   1.2538025      730.22784     -3.7257781      726.50206    
   3777000   300.72256      0.0018359364   1.6994995      746.10095     -3.5813949      742.51955    
   3778000   299.81044      0.0018359364   1.4470258      743.83798     -3.2653117      740.57267    
   3779000   313.49826      0.0018359364   0.57246587     777.79783     -5.5029427      772.29488    
   3780000   299.86525      0.0018359364   0.78257377     743.97395     -2.6033202      741.37063    
   3781000   278.81727      0.0018359364   1.8522791      691.75333     -3.0541279      688.69921    
   3782000   303.9996       0.0018359364   2.1909753      754.23138     -5.0300234      749.20136    
   3783000   314.11164      0.0018359364   0.54039165     779.31963     -2.3035718      777.01606    
   3784000   303.68721      0.0018359364   0.91040267     753.45634     -3.4798433      749.9765     
   3785000   291.83644      0.0018359364   1.467509       724.05426     -3.2146822      720.83958    
   3786000   315.38231      0.0018359364   1.2181706      782.47222     -4.2555722      778.21664    
   3787000   311.18019      0.0018359364   0.78027511     772.04663     -3.5581704      768.48846    
   3788000   294.45422      0.0018359364   1.193923       730.54903     -2.7448576      727.80417    
   3789000   298.85469      0.0018359364   1.9868319      741.46672     -2.4817452      738.98497    
   3790000   300.75792      0.0018359364   1.4211765      746.18869     -3.2671776      742.92151    
   3791000   312.73709      0.0018359364  -0.12978704     775.90933     -3.5755223      772.33381    
   3792000   298.68135      0.0018359364   0.81198397     741.03666     -3.0051338      738.03152    
   3793000   300.62376      0.0018359364   1.6746808      745.85583     -3.5947358      742.26109    
   3794000   302.32238      0.0018359364   0.12569616     750.07016     -3.4336374      746.63653    
   3795000   289.45449      0.0018359364  -0.2103924      718.14456     -4.3364158      713.80814    
   3796000   300.20834      0.0018359364   1.6429086      744.82517     -4.2618636      740.5633     
   3797000   306.93788      0.0018359364   1.339046       761.52133     -2.2561693      759.26516    
   3798000   303.4157       0.0018359364   1.1139467      752.78272     -1.4979968      751.28472    
   3799000   302.86499      0.0018359364  -1.177057       751.41639     -1.9566106      749.45978    
   3800000   300.75697      0.0018359364   0.74315101     746.18634     -3.9717827      742.21455    
   3801000   293.84165      0.0018359364   1.5195218      729.02924     -0.78796069     728.24128    
   3802000   303.98736      0.0018359364   1.9808259      754.20103     -2.0176981      752.18333    
   3803000   296.33597      0.0018359364   0.81396713     735.2177      -2.210354       733.00735    
   3804000   285.15359      0.0018359364  -0.015755053    707.47393     -3.5921653      703.88176    
   3805000   301.93329      0.0018359364   1.2755859      749.10481     -3.1916437      745.91317    
   3806000   306.64683      0.0018359364   1.1010861      760.79923     -2.2478335      758.5514     
   3807000   292.39174      0.0018359364  -0.37225046     725.43197     -1.5534297      723.87854    
   3808000   303.2153       0.0018359364   0.015469984    752.28551     -2.3634307      749.92208    
   3809000   292.70236      0.0018359364   0.87128488     726.20263     -1.3330407      724.86959    
   3810000   286.10213      0.0018359364   1.5225668      709.82726     -2.0484867      707.77877    
   3811000   310.7701       0.0018359364   1.2399162      771.02918     -1.3403162      769.68886    
   3812000   309.58006      0.0018359364   0.96839787     768.07666     -2.0440237      766.03264    
   3813000   300.9702       0.0018359364   0.94546106     746.71535     -2.6455553      744.0698     
   3814000   300.96962      0.0018359364   1.1024134      746.71392     -2.1824341      744.53149    
   3815000   294.99747      0.0018359364   0.66311962     731.89686     -1.5182404      730.37862    
   3816000   305.92448      0.0018359364   1.9040825      759.00708     -1.8219338      757.18514    
   3817000   301.87027      0.0018359364   1.8435029      748.94845     -1.2428457      747.7056     
   3818000   294.14566      0.0018359364   0.72246152     729.7835      -2.3465675      727.43693    
   3819000   291.4268       0.0018359364   0.4441419      723.03793     -2.2684007      720.76953    
   3820000   298.85794      0.0018359364   0.45594494     741.47478     -0.38832347     741.08646    
   3821000   304.5478       0.0018359364   1.3849321      755.59148     -2.5458242      753.04566    
   3822000   294.46631      0.0018359364   1.0187785      730.57903     -1.9859041      728.59313    
   3823000   298.41355      0.0018359364   1.1233676      740.37225     -1.0059212      739.36633    
   3824000   301.92438      0.0018359364   1.0440989      749.0827      -2.8742876      746.20841    
   3825000   304.83541      0.0018359364   1.2642673      756.30505     -4.4484853      751.85656    
   3826000   306.7272       0.0018359364   1.1633252      760.99863     -0.87754405     760.12109    
   3827000   299.3223       0.0018359364   1.033548       742.62687     -1.5328709      741.094      
   3828000   291.64579      0.0018359364   1.0411467      723.58125     -1.5892955      721.99195    
   3829000   311.87205      0.0018359364   0.95226554     773.76316     -1.3320172      772.43114    
   3830000   321.10414      0.0018359364   1.6191567      796.66823     -2.2654999      794.40273    
   3831000   299.95355      0.0018359364   1.9010074      744.19303     -0.83512634     743.35791    
   3832000   293.73671      0.0018359364   1.398902       728.76888     -1.3370597      727.43182    
   3833000   290.31099      0.0018359364   0.18924744     720.26957     -0.50080074     719.76877    
   3834000   313.48552      0.0018359364   0.63003807     777.76621     -3.3489883      774.41723    
   3835000   298.48546      0.0018359364   3.0506228      740.55065     -3.4327016      737.11794    
   3836000   288.73775      0.0018359364   1.3727197      716.36633     -1.9081392      714.45819    
   3837000   307.61852      0.0018359364   0.51175953     763.21003     -2.506378       760.70365    
   3838000   312.58182      0.0018359364   1.1380368      775.52411     -2.5577727      772.96634    
   3839000   286.88673      0.0018359364   1.1643326      711.77388     -2.2511415      709.52273    
   3840000   293.16982      0.0018359364   0.85738829     727.36241     -2.2621968      725.10021    
   3841000   318.50379      0.0018359364   0.76946098     790.21669     -2.1586217      788.05807    
   3842000   301.81517      0.0018359364   1.5433796      748.81175     -2.932071       745.87968    
   3843000   288.87689      0.0018359364   1.0303063      716.71152     -0.40542796     716.30609    
   3844000   317.9301       0.0018359364  -1.2933123      788.79335     -3.8435777      784.94977    
   3845000   298.67863      0.0018359364   1.5522308      741.02991     -5.1864058      735.8435     
   3846000   291.1712       0.0018359364   2.2201742      722.40377     -3.5354194      718.86835    
   3847000   289.98016      0.0018359364   1.3792395      719.44878     -4.9152339      714.53354    
   3848000   297.7396       0.0018359364  -0.27222348     738.70017     -5.480435       733.21973    
   3849000   312.30439      0.0018359364   0.7746754      774.8358      -3.434626       771.40117    
   3850000   294.98814      0.0018359364   1.9356679      731.87371     -3.1518054      728.7219     
   3851000   292.47808      0.0018359364   1.0927345      725.64619     -2.635665       723.01052    
   3852000   306.98275      0.0018359364   0.43152729     761.63267     -2.8611697      758.7715     
   3853000   307.44154      0.0018359364   0.44924447     762.77093     -3.317491       759.45344    
   3854000   312.86509      0.0018359364   3.8224985      776.22692     -2.4405982      773.78632    
   3855000   278.99523      0.0018359364   2.9784109      692.19485     -2.4578904      689.73696    
   3856000   297.56458      0.0018359364   0.27927512     738.26592     -2.7099585      735.55596    
   3857000   311.02687      0.0018359364   0.76163887     771.66624     -3.2410684      768.42517    
   3858000   309.58637      0.0018359364   0.9991747      768.09231     -2.0776767      766.01464    
   3859000   301.89559      0.0018359364   1.4059302      749.01128     -3.5203816      745.4909     
   3860000   293.53127      0.0018359364   1.7284415      728.25917     -3.0167057      725.24246    
   3861000   296.50476      0.0018359364   1.5919086      735.63648     -3.204009       732.43247    
   3862000   290.71948      0.0018359364  -1.5746596      721.28304     -5.780195       715.50284    
   3863000   298.235        0.0018359364  -0.1042204      739.92925     -3.3800897      736.54916    
   3864000   309.67422      0.0018359364   1.7081498      768.31028     -3.3695635      764.94071    
   3865000   299.05039      0.0018359364   5.5897733      741.95226     -4.6672716      737.28499    
   3866000   294.41395      0.0018359364   1.5194372      730.44913     -3.3420805      727.10705    
   3867000   293.42761      0.0018359364   0.7612879      728.00198     -1.6699851      726.33199    
   3868000   302.21224      0.0018359364   0.36128179     749.7969      -2.6091105      747.18778    
   3869000   310.01525      0.0018359364   2.5932568      769.15639     -2.7264772      766.42991    
   3870000   300.47948      0.0018359364   2.1665195      745.49787     -2.4540586      743.04382    
   3871000   282.97331      0.0018359364   0.34655031     702.06459     -2.8120695      699.25252    
   3872000   302.63604      0.0018359364  -0.48483196     750.84836     -3.6607502      747.18761    
   3873000   306.54619      0.0018359364   1.8590822      760.54955     -3.5630557      756.9865     
   3874000   304.91574      0.0018359364   2.3954386      756.50436     -2.7689456      753.73542    
   3875000   297.21668      0.0018359364   0.66369383     737.40279     -3.2340213      734.16877    
   3876000   299.1412       0.0018359364   0.82160703     742.17756     -2.737332       739.44023    
   3877000   306.5429       0.0018359364   1.7815567      760.5414      -2.4584501      758.08295    
   3878000   303.92003      0.0018359364   2.1081103      754.03397     -2.8142253      751.21974    
   3879000   284.01619      0.0018359364   1.6319967      704.65199     -2.3634157      702.28857    
   3880000   301.33499      0.0018359364   0.41247852     747.62041     -2.9977446      744.62267    
   3881000   297.62454      0.0018359364   2.159706       738.4147      -3.4699786      734.94472    
   3882000   297.9611       0.0018359364   1.573362       739.2497      -2.7637494      736.48595    
   3883000   297.42214      0.0018359364   0.51820516     737.91254     -1.4722195      736.44032    
   3884000   305.53826      0.0018359364   0.63419073     758.04885     -0.59592292     757.45293    
   3885000   302.22895      0.0018359364   0.93019177     749.83835     -2.1365146      747.70183    
   3886000   293.68031      0.0018359364   0.95727611     728.62894     -2.2862069      726.34273    
   3887000   292.54007      0.0018359364   0.98738944     725.79999     -4.308043       721.49194    
   3888000   298.07241      0.0018359364   1.0214557      739.52586     -3.1330805      736.39278    
   3889000   303.51895      0.0018359364   1.079378       753.03887     -4.2175684      748.8213     
   3890000   299.58254      0.0018359364   1.3375457      743.27254     -5.7534592      737.51908    
   3891000   298.99775      0.0018359364   0.83927776     741.82166     -2.9633628      738.8583     
   3892000   311.48521      0.0018359364   0.98601306     772.80338     -2.6131814      770.1902     
   3893000   304.3343       0.0018359364   1.1991989      755.06179     -2.0934573      752.96833    
   3894000   295.6067       0.0018359364   1.1879466      733.40836     -3.4733732      729.93499    
   3895000   302.54006      0.0018359364   0.50132593     750.61024     -4.4267533      746.18348    
   3896000   297.42933      0.0018359364  -0.10062389     737.93036     -1.3410833      736.58928    
   3897000   301.84698      0.0018359364   1.1357469      748.89068     -1.4363452      747.45434    
   3898000   297.31721      0.0018359364   1.1790109      737.65219     -2.3825841      735.26961    
   3899000   287.78883      0.0018359364   1.0257671      714.01201     -0.46150511     713.55051    
   3900000   304.64054      0.0018359364   1.0582814      755.82158      0.22234078     756.04392    
   3901000   304.3768       0.0018359364   0.79134356     755.16722     -0.70588436     754.46134    
   3902000   302.28204      0.0018359364   0.73063027     749.97008     -2.054241       747.91584    
   3903000   295.02388      0.0018359364   0.98262437     731.96238     -2.0458616      729.91651    
   3904000   301.03231      0.0018359364   0.96529626     746.86946     -3.3308789      743.53858    
   3905000   303.41695      0.0018359364   1.3014539      752.78582     -0.58536507     752.20045    
   3906000   303.4476       0.0018359364   0.43230931     752.86186     -1.5114069      751.35045    
   3907000   290.54831      0.0018359364  -0.18786074     720.85837     -1.3806936      719.47768    
   3908000   299.4669       0.0018359364   0.92579174     742.98563     -2.4928972      740.49273    
   3909000   292.33193      0.0018359364   1.2655898      725.28357     -3.7754688      721.5081     
   3910000   301.53254      0.0018359364   1.0421712      748.11054     -3.2795088      744.83103    
   3911000   311.41829      0.0018359364   0.71632257     772.63736     -4.0725263      768.56483    
   3912000   292.64879      0.0018359364   0.9522862      726.06972     -4.3593515      721.71037    
   3913000   294.92442      0.0018359364   1.1158184      731.71562     -6.8567183      724.8589     
   3914000   309.20888      0.0018359364   0.99512594     767.15575     -5.670389       761.48536    
   3915000   300.70364      0.0018359364   0.48655919     746.05403     -5.4335935      740.62043    
   3916000   290.568        0.0018359364   0.99640115     720.90723     -5.993617       714.91361    
   3917000   292.61174      0.0018359364   1.1737582      725.97779     -5.4427322      720.53505    
   3918000   303.26016      0.0018359364   1.2133013      752.3968      -3.7360039      748.6608     
   3919000   301.44434      0.0018359364   1.3929958      747.89171     -6.0853995      741.80631    
   3920000   293.13866      0.0018359364   0.27554048     727.28511     -4.4578914      722.82722    
   3921000   294.36814      0.0018359364   1.5774436      730.33547     -3.2845353      727.05094    
   3922000   303.42485      0.0018359364   1.3195988      752.80542     -3.6328556      749.17257    
   3923000   303.33669      0.0018359364   0.12156224     752.5867      -5.668757       746.91794    
   3924000   297.49645      0.0018359364   0.92764462     738.09689     -3.382025       734.71487    
   3925000   304.00132      0.0018359364   1.4359526      754.23567     -1.868156       752.36751    
   3926000   317.72813      0.0018359364   0.99504924     788.29224     -5.5807213      782.71152    
   3927000   290.73639      0.0018359364   0.66501142     721.32501     -3.8042937      717.52071    
   3928000   292.25032      0.0018359364   1.6748633      725.0811      -3.1506888      721.93042    
   3929000   312.18883      0.0018359364   1.3813968      774.54909     -1.9056369      772.64345    
   3930000   313.19167      0.0018359364   1.0488638      777.03716     -4.1354513      772.9017     
   3931000   290.40184      0.0018359364   1.0291123      720.49496     -2.7998713      717.69509    
   3932000   304.33914      0.0018359364   0.082928557    755.0738      -2.5019014      752.57189    
   3933000   305.99724      0.0018359364  -0.30117778     759.1876      -2.5354793      756.65212    
   3934000   291.54845      0.0018359364   1.2490775      723.33974     -1.7931614      721.54657    
   3935000   297.57689      0.0018359364   1.8497685      738.29647     -1.8261188      736.47035    
   3936000   306.7313       0.0018359364   0.63932986     761.0088      -2.0067827      759.00202    
   3937000   310.396        0.0018359364  -0.64122632     770.10104     -3.147867       766.95318    
   3938000   298.15839      0.0018359364   1.6288865      739.73919     -2.0433971      737.69579    
   3939000   298.11343      0.0018359364   2.0271482      739.62763     -1.3291774      738.29845    
   3940000   311.40527      0.0018359364   0.81328201     772.60507     -3.923496       768.68157    
   3941000   299.11019      0.0018359364  -0.26126645     742.10063     -1.4788603      740.62177    
   3942000   287.2311       0.0018359364   1.2764282      712.62828     -1.8044334      710.82385    
   3943000   292.33717      0.0018359364   2.2077257      725.29657     -3.7243478      721.57222    
   3944000   298.07271      0.0018359364   3.2903268      739.52662     -0.93476562     738.59185    
   3945000   319.28397      0.0018359364   3.3566747      792.15232     -3.6869089      788.46541    
   3946000   301.72428      0.0018359364   0.052271015    748.58625     -3.2678052      745.31844    
   3947000   283.37994      0.0018359364   0.70118005     703.07345     -3.8566269      699.21682    
   3948000   296.63396      0.0018359364   1.2360463      735.95703     -3.8749535      732.08208    
   3949000   313.57097      0.0018359364   1.4391629      777.97823     -3.7401627      774.23807    
   3950000   321.41519      0.0018359364   0.061118383    797.43994     -3.8774156      793.56252    
   3951000   295.98094      0.0018359364  -4.5335874      734.33688     -4.246125       730.09076    
   3952000   310.56548      0.0018359364  -0.31869852     770.52151     -3.5108973      767.01062    
   3953000   289.96225      0.0018359364   1.3508101      719.40433     -3.1119293      716.2924     
   3954000   309.9132       0.0018359364   0.90625169     768.90318     -2.2537934      766.64939    
   3955000   302.28884      0.0018359364  -0.11745566     749.98695     -2.2885677      747.69838    
   3956000   283.59936      0.0018359364   1.223068       703.61782     -3.0745983      700.54322    
   3957000   298.30946      0.0018359364   2.6772003      740.11399     -5.037563       735.07642    
   3958000   308.26807      0.0018359364  -0.30596764     764.82158     -3.5725359      761.24905    
   3959000   304.36215      0.0018359364  -0.6645919      755.13088     -3.4097165      751.72116    
   3960000   285.12271      0.0018359364   0.70735229     707.3973      -2.2168903      705.18041    
   3961000   296.70566      0.0018359364   2.0970378      736.13492     -2.8999859      733.23494    
   3962000   308.96523      0.0018359364   1.4999891      766.55125     -2.9483092      763.60294    
   3963000   310.19559      0.0018359364  -0.49742631     769.6038      -3.2383764      766.36542    
   3964000   294.87391      0.0018359364  -0.36816557     731.59031     -2.8258223      728.76449    
   3965000   295.86663      0.0018359364   1.5038299      734.05326     -3.0314863      731.02177    
   3966000   313.83901      0.0018359364   1.668224       778.64324     -3.0795383      775.56371    
   3967000   304.40989      0.0018359364   0.55490342     755.24934     -2.6866818      752.56265    
   3968000   293.12918      0.0018359364   0.6032612      727.26158     -1.809606       725.45197    
   3969000   286.44049      0.0018359364   2.2439745      710.66675     -2.0235744      708.64317    
   3970000   311.70391      0.0018359364   1.6263807      773.34599     -2.274878       771.07111    
   3971000   297.05069      0.0018359364   0.88744179     736.99096     -3.5565317      733.43443    
   3972000   297.14855      0.0018359364   0.47602014     737.23375     -3.2344873      733.99926    
   3973000   300.72124      0.0018359364   0.98072927     746.09769     -3.3832162      742.71447    
   3974000   307.22724      0.0018359364   1.4588041      762.23925     -2.7246836      759.51457    
   3975000   304.40837      0.0018359364   0.96968524     755.24555     -2.175001       753.07055    
   3976000   291.36851      0.0018359364   0.54424197     722.8933      -2.3099549      720.58334    
   3977000   298.15184      0.0018359364   1.338269       739.72293     -3.2080839      736.51485    
   3978000   304.80766      0.0018359364   1.2467352      756.2362      -3.7210623      752.51514    
   3979000   312.68448      0.0018359364   1.0285255      775.77881     -4.6002428      771.17857    
   3980000   303.71762      0.0018359364   0.93727811     753.53179     -1.5320665      751.99973    
   3981000   278.11383      0.0018359364   1.1786783      690.00807     -2.489478       687.5186     
   3982000   308.8069       0.0018359364   1.7001485      766.15842     -3.4737106      762.68471    
   3983000   318.59712      0.0018359364   1.0600997      790.44824     -3.1438444      787.30439    
   3984000   282.49649      0.0018359364   0.91237753     700.88157     -2.4327671      698.4488     
   3985000   294.55079      0.0018359364   1.0595537      730.78863     -3.2800235      727.5086     
   3986000   313.25003      0.0018359364   1.243408       777.18197     -2.4519883      774.72998    
   3987000   300.63733      0.0018359364   1.0384024      745.88951     -3.3484414      742.54107    
   3988000   299.17103      0.0018359364   1.2398615      742.25156     -3.6319605      738.6196     
   3989000   301.0859       0.0018359364   1.0183457      747.00242     -2.4268129      744.57561    
   3990000   296.53954      0.0018359364   0.70038256     735.72278     -1.9145291      733.80825    
   3991000   302.66222      0.0018359364   0.73717503     750.91331     -3.5699282      747.34338    
   3992000   298.48562      0.0018359364   2.3278233      740.55105     -2.1820497      738.369      
   3993000   297.90769      0.0018359364   1.0619883      739.1172      -1.6548395      737.46236    
   3994000   308.76959      0.0018359364  -0.18809708     766.06587     -1.3751086      764.69076    
   3995000   293.82067      0.0018359364  -0.76545755     728.97718     -1.2702521      727.70693    
   3996000   306.94964      0.0018359364   1.1340887      761.55053     -1.212679       760.33785    
   3997000   299.08243      0.0018359364   1.9176628      742.03175     -0.59846952     741.43328    
   3998000   291.65777      0.0018359364   1.273355       723.61096     -0.24339412     723.36756    
   3999000   281.61522      0.0018359364   0.30047082     698.69513     -1.6625041      697.03263    
   4000000   309.40924      0.0018359364   0.84362757     767.65284     -0.76476943     766.88807    
Loop time of 16758.9 on 1 procs for 4000000 steps with 1500 atoms

Performance: 5.155 ns/day, 4.655 hours/ns, 238.680 timesteps/s, 358.019 katom-step/s
100.0% CPU use with 1 MPI tasks x 1 OpenMP threads

MPI task timing breakdown:
Section |  min time  |  avg time  |  max time  |%varavg| %total
---------------------------------------------------------------
Pair    | 1414.4     | 1414.4     | 1414.4     |   0.0 |  8.44
Bond    | 93.122     | 93.122     | 93.122     |   0.0 |  0.56
Kspace  | 14699      | 14699      | 14699      |   0.0 | 87.71
Neigh   | 0.027468   | 0.027468   | 0.027468   |   0.0 |  0.00
Comm    | 22.478     | 22.478     | 22.478     |   0.0 |  0.13
Output  | 0.092924   | 0.092924   | 0.092924   |   0.0 |  0.00
Modify  | 511.4      | 511.4      | 511.4      |   0.0 |  3.05
Other   |            | 17.86      |            |       |  0.11

Nlocal:           1500 ave        1500 max        1500 min
Histogram: 1 0 0 0 0 0 0 0 0 0
Nghost:            506 ave         506 max         506 min
Histogram: 1 0 0 0 0 0 0 0 0 0
Neighs:              0 ave           0 max           0 min
Histogram: 1 0 0 0 0 0 0 0 0 0

Total # of neighbors = 0
Ave neighs/atom = 0
Ave special neighs/atom = 2
Neighbor list builds = 13617
Dangerous builds = 0
write_data	last_conf.data pair ij
System init for write_data ...
PPPM initialization ...
  using 12-bit tables for long-range coulomb (src/kspace.cpp:342)
  G vector (1/distance) = 0.13650934
  grid = 40 40 40
  stencil order = 5
  estimated absolute RMS force accuracy = 0.039405205
  estimated relative force accuracy = 0.0001186676
  using double precision FFTW3
  3d grid and FFT values/proc = 91125 64000
Generated 1 of 1 mixed pair_coeff terms from arithmetic mixing rule
Total wall time: 4:39:18
