LAMMPS (29 Aug 2024 - Update 1)
  using 1 OpenMP thread(s) per MPI task
package gpu 1 gpuID 0
# GCMC for CO2 molecular fluid, rigid/small/nvt dynamics
# Rigid CO2 TraPPE model
# [Potoff and J.I. Siepmann, Vapor-liquid equilibria of
# mixtures containing alkanes, carbon dioxide and
# nitrogen AIChE J., 47,1676-1682 (2001)].

# global model settings

units           real
atom_style      full
boundary        p p p
pair_style      lj/cut/coul/long  12
pair_modify     mix arithmetic shift yes
kspace_style    pppm 1.0e-4
bond_style      harmonic
angle_style     harmonic
neigh_modify    one 4000

# box, start molecules on simple cubic lattice
region          mbox block 0 ${lbox} 0 ${lbox} 0 ${lbox} units box
region          mbox block 0 141.5 0 ${lbox} 0 ${lbox} units box
region          mbox block 0 141.5 0 141.5 0 ${lbox} units box
region          mbox block 0 141.5 0 141.5 0 141.5 units box
create_box      2 mbox                                       bond/types 1                                angle/types 1                               extra/bond/per/atom 2                       extra/angle/per/atom 1                      extra/special/per/atom 2
Created orthogonal box = (0 0 0) to (141.5 141.5 141.5)
  1 by 1 by 1 MPI processor grid
molecule        co2mol ../CO2.txt
Read molecule template co2mol:
# CO2 molecule file. TraPPE model.
  1 molecules
  0 fragments
  3 atoms with max type 2
  2 bonds with max type 1
  1 angles with max type 1
  0 dihedrals with max type 0
  0 impropers with max type 0
create_atoms   	0 random ${nmols} 34578 mbox mol co2mol 464563 overlap 1.2
create_atoms   	0 random 500 34578 mbox mol co2mol 464563 overlap 1.2
Created 1500 atoms
  using lattice units in orthogonal box = (0 0 0) to (141.5 141.5 141.5)
  create_atoms CPU = 0.008 seconds

# rigid CO2 TraPPE model

pair_coeff      1   1  0.053649   2.800
pair_coeff      2   2  0.156973   3.050
bond_coeff      1       0       1.16
angle_coeff     1       0       180

# masses

mass 1 12.0107
mass 2 15.9994

write_data init_conf.data  pair ij
System init for write_data ...
PPPM initialization ...
  using 12-bit tables for long-range coulomb (src/kspace.cpp:342)
  G vector (1/distance) = 0.16562227
  grid = 30 30 30
  stencil order = 5
  estimated absolute RMS force accuracy = 0.029429479
  estimated relative force accuracy = 8.8626001e-05
  using double precision FFTW3
  3d grid and FFT values/proc = 42875 27000
Generated 1 of 1 mixed pair_coeff terms from arithmetic mixing rule

# MD settings

group           co2 type 1 2
1500 atoms in group co2
velocity       	all create 300 54654
timestep        0.25

# rigid constraints with thermostat
fix             myrigidnvt co2 rigid/nvt molecule temp 300 300 $(100*dt)
fix             myrigidnvt co2 rigid/nvt molecule temp 300 300 25
  500 rigid bodies with 1500 atoms

thermo 1000
thermo_style custom step temp density press ke pe etotal


variable    mvol equal vol
variable    mden equal density
variable	mtmp equal temp
variable    mpre equal press

fix mydat all ave/time 1 4000 4000 v_mtmp v_mden v_mpre file statistics.dat ## every 1ps

run 4000000 ## 1ns

CITE-CITE-CITE-CITE-CITE-CITE-CITE-CITE-CITE-CITE-CITE-CITE-CITE

Your simulation uses code contributions which should be cited:

- GPU package (short-range, long-range and three-body potentials): doi:10.1016/j.cpc.2010.12.021, doi:10.1016/j.cpc.2011.10.012, doi:10.1016/j.cpc.2013.08.002, doi:10.1016/j.commatsci.2014.10.068, doi:10.1016/j.cpc.2016.10.020, doi:10.3233/APC200086

@Article{Brown11,
 author = {W. M. Brown and P. Wang and S. J. Plimpton and A. N. Tharrington},
 title = {Implementing Molecular Dynamics on Hybrid High Performance Computers---Short Range Forces},
 journal = {Comput.\ Phys.\ Commun.},
 year =    2011,
 volume =  182,
 pages =   {898--911},
 doi =     {10.1016/j.cpc.2010.12.021}
}

@Article{Brown12,
 author = {W. M. Brown and A. Kohlmeyer and S. J. Plimpton and A. N. Tharrington},
 title = {Implementing Molecular Dynamics on Hybrid High Performance Computers - Particle-Particle Particle-Mesh},
 journal = {Comput.\ Phys.\ Commun.},
 year =    2012,
 volume =  183,
 doi =     {10.1016/j.cpc.2011.10.012},
 pages =   {449--459}
}

@Article{Brown13,
 author = {W. M. Brown and Y. Masako},
 title = {Implementing Molecular Dynamics on Hybrid High Performance Computers---Three-Body Potentials},
 journal = {Comput.\ Phys.\ Commun.},
 year =    2013,
 volume =  184,
 pages =   {2785--2793},
 doi =     {10.1016/j.cpc.2013.08.002},
}

@Article{Trung15,
 author = {T. D. Nguyen and S. J. Plimpton},
 title = {Accelerating Dissipative Particle Dynamics Simulations for Soft Matter Systems},
 journal = {Comput.\ Mater.\ Sci.},
 year =    2015,
 doi =     {10.1016/j.commatsci.2014.10.068},
 volume =  100,
 pages =   {173--180}
}

@Article{Trung17,
 author = {T. D. Nguyen},
 title = {{GPU}-Accelerated {T}ersoff Potentials for Massively Parallel
    Molecular Dynamics Simulations},
 journal = {Comput.\ Phys.\ Commun.},
 year =    2017,
 doi =     {10.1016/j.cpc.2016.10.020},
 volume =  212,
 pages =   {113--122}
}

@inproceedings{Nikolskiy19,
 author = {V. Nikolskiy and V. Stegailov},
 title = {{GPU} Acceleration of Four-Site Water Models in {LAMMPS}},
 booktitle = {Proceedings of the International Conference on Parallel
    Computing (ParCo 2019), Prague, Czech Republic},
 doi =     {10.3233/APC200086},
 year =    2019
}

CITE-CITE-CITE-CITE-CITE-CITE-CITE-CITE-CITE-CITE-CITE-CITE-CITE

PPPM initialization ...
  using 12-bit tables for long-range coulomb (src/kspace.cpp:342)
  G vector (1/distance) = 0.16562227
  grid = 30 30 30
  stencil order = 5
  estimated absolute RMS force accuracy = 0.029429479
  estimated relative force accuracy = 8.8626001e-05
  using double precision FFTW3
  3d grid and FFT values/proc = 42875 27000
Generated 1 of 1 mixed pair_coeff terms from arithmetic mixing rule
Per MPI rank memory allocation (min/avg/max) = 11.38 | 11.38 | 11.38 Mbytes
   Step          Temp         Density         Press          KinEng         PotEng         TotEng    
         0   307.41471      0.012897222   -150.36301      762.70438      5776.608       6539.3123    
      1000   334.61376      0.012897222    13.91008       830.18596     -15.2359        814.95006    
      2000   306.509        0.012897222    6.3519217      760.45729     -19.965659      740.49163    
      3000   305.94544      0.012897222    4.0357985      759.05906     -22.964042      736.09502    
      4000   308.86173      0.012897222    1.4219397      766.29447     -28.195075      738.09939    
      5000   292.12042      0.012897222    11.815473      724.7588      -30.182015      694.57679    
      6000   298.33459      0.012897222    8.1410302      740.17633     -34.812349      705.36398    
      7000   302.39016      0.012897222    7.3653913      750.23831     -34.524593      715.71372    
      8000   299.83481      0.012897222    7.6833999      743.89843     -37.052882      706.84555    
      9000   309.09738      0.012897222    7.2902998      766.87913     -36.912157      729.96697    
     10000   298.18875      0.012897222    6.3463387      739.8145      -37.46591       702.34859    
     11000   286.55347      0.012897222    6.9310033      710.94706     -37.858574      673.08849    
     12000   305.52717      0.012897222    7.2545408      758.02133     -41.131983      716.88935    
     13000   299.1237       0.012897222    8.5935787      742.13413     -40.157614      701.97652    
     14000   310.67874      0.012897222    5.5292196      770.80252     -42.488313      728.3142     
     15000   304.56769      0.012897222    5.3681743      755.64083     -38.11174       717.52909    
     16000   288.85197      0.012897222    7.8163949      716.6497      -47.355597      669.29411    
     17000   300.56139      0.012897222    8.5700606      745.70109     -45.062478      700.63861    
     18000   308.00297      0.012897222    7.0788079      764.16386     -42.939204      721.22465    
     19000   307.4678       0.012897222    7.5345808      762.83609     -50.344521      712.49157    
     20000   288.19671      0.012897222    6.7644004      715.02398     -51.157288      663.86669    
     21000   300.18355      0.012897222    8.6250054      744.76366     -52.056544      692.70711    
     22000   325.2303       0.012897222   -0.59011995     806.90535     -53.484611      753.42074    
     23000   298.03247      0.012897222    4.3619025      739.42676     -59.701969      679.7248     
     24000   299.0637       0.012897222    6.1275413      741.98527     -58.488476      683.4968     
     25000   306.30933      0.012897222    14.931659      759.9619      -61.511318      698.45058    
     26000   297.16619      0.012897222    6.5855602      737.2775      -60.460232      676.81727    
     27000   307.30365      0.012897222    0.98999906     762.42882     -59.267812      703.161      
     28000   303.46096      0.012897222    8.1822041      752.895       -59.092168      693.80283    
     29000   296.18916      0.012897222    2.8162886      734.85348     -60.386667      674.46681    
     30000   288.34939      0.012897222    7.0178039      715.40279     -61.319763      654.08303    
     31000   305.51931      0.012897222    8.9127099      758.00183     -61.457144      696.54469    
     32000   305.1805       0.012897222    6.0121288      757.16122     -63.089337      694.07189    
     33000   297.36321      0.012897222    6.1584922      737.76633     -61.655432      676.1109     
     34000   284.50623      0.012897222    1.8631876      705.8678      -66.211704      639.6561     
     35000   301.02767      0.012897222    9.1063542      746.85794     -61.297332      685.56061    
     36000   307.26617      0.012897222    7.8285514      762.33584     -66.751456      695.58438    
     37000   303.19294      0.012897222    5.5221157      752.23005     -68.933712      683.29634    
     38000   293.5277       0.012897222    6.3677748      728.25032     -67.033642      661.21668    
     39000   306.03633      0.012897222    3.8083622      759.28457     -64.725484      694.55909    
     40000   303.82317      0.012897222    5.5111147      753.79367     -66.584541      687.20913    
     41000   292.98609      0.012897222    6.9134508      726.90658     -64.173442      662.73314    
     42000   285.72783      0.012897222    6.6524711      708.89862     -67.422735      641.47588    
     43000   299.3748       0.012897222    5.9131993      742.75713     -72.133571      670.62356    
     44000   314.51533      0.012897222    6.9880225      780.32121     -74.85787       705.46334    
     45000   302.33945      0.012897222    7.563213       750.11251     -76.482518      673.62999    
     46000   290.08371      0.012897222    4.6851811      719.70567     -80.882616      638.82305    
     47000   304.16509      0.012897222    6.9911644      754.64197     -83.110381      671.53159    
     48000   298.99582      0.012897222   -0.42757199     741.81687     -86.026742      655.79012    
     49000   289.50332      0.012897222   -6.5515441      718.2657      -80.636969      637.62874    
     50000   301.61222      0.012897222   -1.8984361      748.30823     -85.171805      663.13642    
     51000   295.75303      0.012897222    11.594738      733.77141     -79.89465       653.87676    
     52000   307.75913      0.012897222    10.153983      763.55889     -80.052749      683.50615    
     53000   294.10383      0.012897222    7.2581312      729.6797      -56.201128      673.47857    
     54000   291.96308      0.012897222    1.8075874      724.36844     -74.14871       650.21973    
     55000   297.19761      0.012897222    6.6641747      737.35546     -76.495114      660.86034    
     56000   304.56877      0.012897222    5.7036447      755.64352     -78.717197      676.92632    
     57000   294.20272      0.012897222    6.4886021      729.92505     -80.573057      649.35199    
     58000   310.98073      0.012897222    13.29264       771.55177     -78.988587      692.56318    
     59000   310.92397      0.012897222    5.6286864      771.41094     -74.847512      696.56343    
     60000   299.73768      0.012897222    6.6950038      743.65744     -78.138001      665.51944    
     61000   298.52028      0.012897222    9.1156763      740.63705     -78.206637      662.43041    
     62000   300.77996      0.012897222    6.9564752      746.24338     -74.229474      672.01391    
     63000   304.09796      0.012897222    7.9528281      754.47543     -71.906241      682.56919    
     64000   306.12035      0.012897222    5.8540707      759.49303     -77.873829      681.6192     
     65000   292.46061      0.012897222    6.4606727      725.60283     -78.17538       647.42745    
     66000   290.20021      0.012897222    4.688234       719.99472     -85.95745       634.03727    
     67000   302.77528      0.012897222    7.5419289      751.19381     -82.824943      668.36887    
     68000   319.22669      0.012897222    10.144127      792.01022     -87.426654      704.58356    
     69000   298.06021      0.012897222    8.0002955      739.49559     -82.258511      657.23708    
     70000   296.12159      0.012897222    6.3811054      734.68582     -84.34873       650.33709    
     71000   307.14805      0.012897222    3.1882703      762.04278     -89.844213      672.19856    
     72000   312.03666      0.012897222    8.3309377      774.17156     -88.987136      685.18442    
     73000   289.11801      0.012897222    12.263654      717.30976     -81.287808      636.02195    
     74000   297.2104       0.012897222    5.4534719      737.3872      -81.520853      655.86635    
     75000   302.60653      0.012897222    7.6919773      750.77515     -80.992157      669.78299    
     76000   300.87982      0.012897222    2.9541945      746.49113     -72.689254      673.80188    
     77000   300.85533      0.012897222    2.9010783      746.43036     -74.771353      671.659      
     78000   310.34373      0.012897222    9.8531382      769.97136     -72.926971      697.04439    
     79000   298.08786      0.012897222    8.0252032      739.56419     -72.061114      667.50308    
     80000   286.66112      0.012897222    0.30290966     711.21414     -74.905761      636.30838    
     81000   299.5647       0.012897222   -3.0847203      743.22828     -79.065132      664.16315    
     82000   322.55406      0.012897222    4.252131       800.2655      -76.85601       723.40949    
     83000   295.69596      0.012897222    9.1230078      733.62982     -74.56707       659.06275    
     84000   289.23697      0.012897222   -3.2979518      717.6049      -80.639454      636.96545    
     85000   300.34571      0.012897222   -5.5679661      745.16598     -82.437448      662.72853    
     86000   315.0712       0.012897222    12.832971      781.70034     -82.400024      699.30032    
     87000   290.01634      0.012897222    7.9388763      719.53853     -81.00352       638.53501    
     88000   288.36777      0.012897222    5.5398724      715.44839     -79.364131      636.08426    
     89000   301.09164      0.012897222    6.0866844      747.01666     -85.50397       661.51269    
     90000   318.13167      0.012897222    7.7429519      789.29344     -82.618195      706.67524    
     91000   299.28752      0.012897222    7.6645818      742.5406      -83.500149      659.04045    
     92000   285.87192      0.012897222    5.7416668      709.25611     -80.274796      628.98132    
     93000   285.3263       0.012897222    6.302613       707.90241     -83.451074      624.45133    
     94000   303.98739      0.012897222    6.9876574      754.2011      -85.088117      669.11298    
     95000   301.8794       0.012897222    10.187353      748.97112     -89.45712       659.514      
     96000   289.11964      0.012897222    6.7043149      717.3138      -79.522968      637.79083    
     97000   308.6483       0.012897222    1.0487415      765.76495     -88.023607      677.74134    
     98000   305.30751      0.012897222    7.5112421      757.47635     -87.491459      669.98489    
     99000   300.62817      0.012897222    7.9769042      745.86677     -83.064532      662.80224    
    100000   298.03344      0.012897222    7.0577306      739.42919     -78.83212       660.59707    
    101000   301.18563      0.012897222    6.4749297      747.24984     -79.268138      667.9817     
    102000   302.95532      0.012897222    7.1192006      751.6405      -87.630557      664.00994    
    103000   284.65241      0.012897222    7.4186579      706.23048     -86.527212      619.70327    
    104000   292.31986      0.012897222    7.0955887      725.25364     -79.832894      645.42074    
    105000   309.43251      0.012897222    10.339149      767.71058     -80.909136      686.80144    
    106000   311.94644      0.012897222    10.429944      773.94773     -83.265602      690.68212    
    107000   288.95795      0.012897222    7.8206247      716.91263     -79.809614      637.10301    
    108000   300.28559      0.012897222    1.5058948      745.01683     -80.495813      664.52102    
    109000   308.50882      0.012897222    6.5279263      765.41889     -73.702504      691.71639    
    110000   303.55385      0.012897222    6.5827968      753.12547     -78.498283      674.62719    
    111000   288.27568      0.012897222    11.088123      715.21992     -80.055915      635.164      
    112000   300.29471      0.012897222    5.3423997      745.03945     -81.268437      663.77101    
    113000   312.45095      0.012897222    7.7295706      775.19942     -81.205367      693.99405    
    114000   311.64933      0.012897222    7.3713205      773.21058     -82.064993      691.14559    
    115000   289.01419      0.012897222    5.9347544      717.05218     -77.48965       639.56253    
    116000   301.03457      0.012897222    6.3326802      746.87505     -76.582485      670.29257    
    117000   311.96287      0.012897222    4.9727961      773.98849     -78.763347      695.22514    
    118000   295.26912      0.012897222    6.2272166      732.57082     -80.735993      651.83482    
    119000   308.37844      0.012897222    8.0663368      765.09541     -85.872642      679.22277    
    120000   315.97919      0.012897222    9.0187983      783.95307     -84.955567      698.99751    
    121000   293.71895      0.012897222    10.187259      728.72482     -78.352333      650.37249    
    122000   295.02745      0.012897222    0.71441335     731.97123     -87.547484      644.42375    
    123000   314.75935      0.012897222    5.0428268      780.92663     -86.176159      694.75047    
    124000   299.73533      0.012897222    8.3777915      743.65161     -84.701064      658.95054    
    125000   288.79556      0.012897222    2.5866679      716.50976     -81.294517      635.21524    
    126000   315.06252      0.012897222    5.6827214      781.67881     -87.741762      693.93705    
    127000   299.92257      0.012897222    7.3351795      744.11617     -84.849757      659.26641    
    128000   292.34191      0.012897222    6.4393707      725.30833     -85.134677      640.17365    
    129000   298.25824      0.012897222    3.5697208      739.98691     -83.6358        656.35111    
    130000   324.07599      0.012897222    8.5012829      804.04145     -85.636049      718.4054     
    131000   285.50623      0.012897222    9.3529267      708.34882     -92.760878      615.58794    
    132000   302.01319      0.012897222    2.2577726      749.30305     -85.166602      664.13645    
    133000   309.48831      0.012897222    7.2580104      767.84904     -82.328338      685.5207     
    134000   288.65123      0.012897222    6.0289496      716.15165     -81.139531      635.01212    
    135000   295.68662      0.012897222   -0.52922658     733.60666     -82.263333      651.34333    
    136000   304.43992      0.012897222    3.4595502      755.32384     -84.58872       670.73512    
    137000   308.26774      0.012897222    7.2921503      764.82075     -82.906705      681.91404    
    138000   296.64797      0.012897222    7.1592234      735.99179     -81.704556      654.28723    
    139000   296.06669      0.012897222    5.4928682      734.54962     -87.922737      646.62688    
    140000   300.06111      0.012897222    6.7580334      744.45988     -86.265545      658.19434    
    141000   286.10446      0.012897222    3.3373028      709.83305     -85.767931      624.06512    
    142000   300.16577      0.012897222    5.4352454      744.71956     -87.587377      657.13218    
    143000   304.84929      0.012897222    7.9568035      756.33949     -83.536018      672.80347    
    144000   312.36497      0.012897222    6.8892268      774.98609     -92.471502      682.51459    
    145000   297.62497      0.012897222    5.0194312      738.41576     -87.356383      651.05938    
    146000   309.52808      0.012897222    10.41582       767.9477      -80.934668      687.01303    
    147000   299.293        0.012897222    8.4892208      742.55419     -80.483765      662.07043    
    148000   291.16442      0.012897222    5.9495228      722.38695     -83.911093      638.47586    
    149000   314.15879      0.012897222    4.3192525      779.43661     -87.650588      691.78602    
    150000   300.6523       0.012897222    6.6752038      745.92664     -82.760013      663.16663    
    151000   293.16511      0.012897222    5.8942443      727.35073     -82.673584      644.67715    
    152000   292.96679      0.012897222    5.0466742      726.85869     -78.91542       647.94327    
    153000   300.97773      0.012897222    7.4215555      746.73404     -82.065001      664.66904    
    154000   284.07973      0.012897222    8.0258912      704.80964     -79.896539      624.9131     
    155000   300.29084      0.012897222    4.7010528      745.02984     -79.587944      665.4419     
    156000   286.20846      0.012897222    6.2642771      710.09109     -83.159968      626.93112    
    157000   290.0823       0.012897222    6.6090021      719.70218     -78.479461      641.22272    
    158000   305.38768      0.012897222    5.974882       757.67524     -78.520821      679.15442    
    159000   298.1908       0.012897222    5.4813138      739.81961     -80.62345       659.19616    
    160000   301.29421      0.012897222    12.828918      747.51924     -76.108458      671.41078    
    161000   305.02976      0.012897222    8.4276113      756.78725     -81.063406      675.72385    
    162000   289.8107       0.012897222    7.8211059      719.02833     -80.567473      638.46086    
    163000   296.7622       0.012897222    8.5229052      736.27521     -80.251251      656.02395    
    164000   298.69569      0.012897222    1.2385736      741.07225     -80.642308      660.42994    
    165000   309.66274      0.012897222    10.89548       768.28179     -85.25688       683.02491    
    166000   294.48824      0.012897222    8.8628945      730.63344     -83.806044      646.82739    
    167000   306.33313      0.012897222    5.9080645      760.02093     -84.05131       675.96962    
    168000   287.39573      0.012897222    4.1765867      713.03672     -91.819873      621.21684    
    169000   305.67465      0.012897222    3.2855656      758.38724     -91.479081      666.90816    
    170000   304.37255      0.012897222    8.9465987      755.15669     -89.884829      665.27186    
    171000   297.91923      0.012897222    6.3807747      739.14581     -83.907132      655.23868    
    172000   297.84839      0.012897222    6.4950601      738.97006     -90.021832      648.94822    
    173000   299.95642      0.012897222    3.9936691      744.20015     -87.831516      656.36864    
    174000   302.64108      0.012897222    7.4852861      750.86085     -86.404583      664.45627    
    175000   294.41457      0.012897222    7.3517164      730.45066     -84.86741       645.58325    
    176000   297.5907       0.012897222    6.7858822      738.33074     -82.16514       656.1656     
    177000   304.79098      0.012897222    7.84569        756.19483     -80.906283      675.28855    
    178000   289.73326      0.012897222    7.0464615      718.8362      -83.490191      635.34601    
    179000   299.92629      0.012897222    4.4725776      744.12539     -81.763128      662.36226    
    180000   312.28185      0.012897222    5.9325175      774.77987     -83.732091      691.04778    
    181000   306.77264      0.012897222    7.6544198      761.11138     -81.972681      679.1387     
    182000   288.16677      0.012897222    6.3452068      714.94969     -82.416674      632.53302    
    183000   306.24838      0.012897222    6.0364287      759.81068     -85.238301      674.57238    
    184000   299.69769      0.012897222    8.8990032      743.55822     -84.658654      658.89957    
    185000   288.50696      0.012897222    4.6726838      715.79372     -89.169831      626.62388    
    186000   296.44155      0.012897222    6.2378627      735.47965     -87.888213      647.59143    
    187000   295.07329      0.012897222    17.974428      732.08497     -90.877738      641.20723    
    188000   306.95146      0.012897222    3.9357194      761.55503     -93.344615      668.21042    
    189000   299.79088      0.012897222    2.7675683      743.78944     -86.161169      657.62827    
    190000   303.97548      0.012897222    4.9649022      754.17155     -89.196138      664.97541    
    191000   307.08135      0.012897222    7.403041       761.8773      -83.359698      678.51761    
    192000   299.3494       0.012897222    4.8732543      742.69411     -85.321404      657.37271    
    193000   296.69802      0.012897222    4.8634143      736.11597     -84.323411      651.79256    
    194000   304.79972      0.012897222    7.0119787      756.21651     -83.421302      672.7952     
    195000   301.85438      0.012897222    9.7624112      748.90903     -83.982755      664.92627    
    196000   295.24434      0.012897222    8.0384151      732.50936     -78.288843      654.22051    
    197000   290.5586       0.012897222   -0.17890661     720.88389     -83.510276      637.37361    
    198000   308.30421      0.012897222    7.1532868      764.91124     -83.363032      681.54821    
    199000   296.48188      0.012897222    6.9999571      735.57972     -79.598269      655.98145    
    200000   305.39977      0.012897222   -3.7074165      757.70524     -79.099082      678.60616    
    201000   311.67126      0.012897222    4.7892054      773.26498     -81.850013      691.41496    
    202000   294.49043      0.012897222    8.3681756      730.63887     -81.847306      648.79156    
    203000   286.53706      0.012897222    5.2108661      710.90634     -85.641903      625.26444    
    204000   300.68441      0.012897222    6.1845127      746.00631     -86.563703      659.44261    
    205000   317.67457      0.012897222    5.9419827      788.15937     -81.018891      707.14047    
    206000   314.48244      0.012897222    7.2456401      780.23961     -81.260761      698.97885    
    207000   297.99103      0.012897222    7.7358573      739.32396     -79.493927      659.83003    
    208000   302.94328      0.012897222    6.6660196      751.61063     -83.010412      668.60021    
    209000   302.15805      0.012897222    7.6153888      749.66245     -77.68507       671.97738    
    210000   298.87973      0.012897222    6.6742016      741.52885     -80.175444      661.35341    
    211000   304.89823      0.012897222    5.9254299      756.46092     -77.564506      678.89642    
    212000   299.48566      0.012897222    7.9885641      743.03218     -71.781034      671.25114    
    213000   293.11754      0.012897222    6.9554088      727.23269     -66.911493      660.3212     
    214000   302.04477      0.012897222    7.581582       749.3814      -70.186316      679.19508    
    215000   303.6763       0.012897222    6.8244566      753.42927     -69.824609      683.60466    
    216000   296.54364      0.012897222    7.3441667      735.73295     -70.167187      665.56576    
    217000   302.25726      0.012897222    7.5963702      749.9086      -67.103268      682.80533    
    218000   317.59868      0.012897222    4.6961156      787.97108     -72.227939      715.74314    
    219000   289.26126      0.012897222    0.76010511     717.66516     -69.823756      647.8414     
    220000   290.98309      0.012897222    1.9340625      721.93708     -75.513379      646.4237     
    221000   307.74638      0.012897222    6.2038895      763.52725     -66.85258       696.67467    
    222000   306.47286      0.012897222    6.9083159      760.36761     -73.736727      686.63088    
    223000   302.2509       0.012897222    9.7878582      749.8928      -70.726561      679.16624    
    224000   294.14908      0.012897222    6.0733307      729.79197     -68.352962      661.43901    
    225000   299.42272      0.012897222   -0.055576243    742.87601     -66.177382      676.69863    
    226000   303.24282      0.012897222    6.3144358      752.35381     -67.659751      684.69406    
    227000   306.96219      0.012897222    7.017351       761.58167     -65.005237      696.57643    
    228000   286.87376      0.012897222    8.5928739      711.7417      -66.490986      645.25071    
    229000   292.24687      0.012897222    5.556546       725.07254     -65.515431      659.55711    
    230000   308.16621      0.012897222    3.6491179      764.56886     -63.936679      700.63218    
    231000   301.6226       0.012897222    6.6818043      748.33398     -62.347041      685.98694    
    232000   288.15073      0.012897222    5.512284       714.90991     -64.238133      650.67178    
    233000   287.88723      0.012897222    6.6551759      714.25615     -66.064905      648.19124    
    234000   304.46135      0.012897222    7.5317638      755.37701     -63.814056      691.56295    
    235000   302.95234      0.012897222    5.4452217      751.63311     -66.001759      685.63135    
    236000   287.61493      0.012897222    5.9275801      713.58056     -66.96388       646.61668    
    237000   305.05836      0.012897222    8.7291476      756.85821     -59.221717      697.63649    
    238000   315.17122      0.012897222    6.5567863      781.94848     -59.108702      722.83978    
    239000   297.09116      0.012897222    4.1341254      737.09135     -57.760407      679.33094    
    240000   283.45695      0.012897222    8.8151541      703.26451     -59.635303      643.6292     
    241000   306.99754      0.012897222    7.3615099      761.66937     -57.318987      704.35038    
    242000   302.65092      0.012897222    1.2560088      750.88527     -62.357188      688.52808    
    243000   294.18516      0.012897222    10.142022      729.88148     -59.657296      670.22418    
    244000   289.28666      0.012897222    6.8517937      717.72819     -61.180186      656.548      
    245000   307.57781      0.012897222    6.7923782      763.10902     -58.639255      704.46976    
    246000   294.24243      0.012897222    7.1816235      730.02359     -56.078613      673.94497    
    247000   287.34837      0.012897222    0.59552591     712.91923     -57.537321      655.38191    
    248000   308.24113      0.012897222    7.1055526      764.75473     -59.635205      705.11953    
    249000   299.87632      0.012897222    9.7544261      744.00142     -58.622286      685.37913    
    250000   287.93992      0.012897222    6.4267279      714.38689     -54.617796      659.76909    
    251000   300.70457      0.012897222    3.3976289      746.05632     -54.274711      691.78161    
    252000   310.99583      0.012897222    7.1090603      771.58922     -55.704394      715.88483    
    253000   280.95232      0.012897222    12.263854      697.05046     -54.994983      642.05547    
    254000   298.68531      0.012897222    4.6986926      741.04649     -55.265572      685.78092    
    255000   318.67443      0.012897222    8.0810962      790.64004     -51.19142       739.44862    
    256000   295.76753      0.012897222    15.79492       733.8074      -48.928649      684.87875    
    257000   282.62938      0.012897222    8.1394675      701.21127     -52.053801      649.15747    
    258000   302.33396      0.012897222    1.952947       750.09889     -52.828606      697.27029    
    259000   311.87875      0.012897222    3.7577023      773.77978     -52.472515      721.30726    
    260000   300.19226      0.012897222    9.6361578      744.78528     -56.310846      688.47443    
    261000   303.91475      0.012897222    9.4376757      754.02087     -57.839826      696.18105    
    262000   293.81192      0.012897222    7.867518       728.95548     -52.843159      676.11232    
    263000   299.85955      0.012897222    4.2648058      743.95982     -54.418572      689.54125    
    264000   314.73916      0.012897222    10.120781      780.87654     -57.980643      722.8959     
    265000   296.90614      0.012897222    8.6112726      736.63232     -57.022487      679.60983    
    266000   297.57426      0.012897222    6.0398856      738.28995     -57.537856      680.75209    
    267000   291.45155      0.012897222    6.6311978      723.09933     -53.686806      669.41252    
    268000   305.59392      0.012897222    6.3684413      758.18694     -56.227574      701.95937    
    269000   323.45227      0.012897222    9.8123562      802.494       -52.315258      750.17874    
    270000   294.68383      0.012897222    4.4865157      731.1187      -57.586388      673.53231    
    271000   291.78385      0.012897222    7.8013804      723.92378     -56.332591      667.59118    
    272000   294.90866      0.012897222    7.6799924      731.67651     -55.05005       676.62646    
    273000   305.0307       0.012897222    6.8049311      756.78956     -50.990196      705.79937    
    274000   301.91095      0.012897222    5.7381167      749.04939     -46.921498      702.12789    
    275000   294.08325      0.012897222    6.4804019      729.62865     -49.096141      680.53251    
    276000   304.14986      0.012897222    6.3272949      754.60419     -52.012195      702.59199    
    277000   301.6035       0.012897222    7.5310753      748.28661     -56.629786      691.65682    
    278000   285.20371      0.012897222    6.2012355      707.59825     -52.587469      655.01079    
    279000   303.77027      0.012897222    8.0416763      753.66242     -57.608819      696.0536     
    280000   310.6981       0.012897222    7.7418645      770.85056     -57.563218      713.28734    
    281000   289.89417      0.012897222    4.7420753      719.23543     -52.338813      666.89662    
    282000   291.01083      0.012897222    5.5717767      722.00589     -45.585518      676.42037    
    283000   302.12934      0.012897222    6.3993809      749.59122     -52.489109      697.10212    
    284000   306.64803      0.012897222    7.7680859      760.80222     -50.258204      710.54402    
    285000   300.34619      0.012897222    5.757039       745.16719     -47.812806      697.35438    
    286000   292.10635      0.012897222    6.2848721      724.72391     -52.070996      672.65292    
    287000   306.37581      0.012897222    6.8906371      760.12684     -56.079854      704.04698    
    288000   299.5008       0.012897222    7.5805922      743.06974     -55.855588      687.21415    
    289000   295.78982      0.012897222    6.2050672      733.8627      -50.500771      683.36193    
    290000   294.65901      0.012897222    7.1640119      731.05713     -47.638185      683.41895    
    291000   307.15409      0.012897222    6.6525183      762.05775     -50.011261      712.04649    
    292000   313.81636      0.012897222    7.0865903      778.58704     -51.886715      726.70032    
    293000   293.87757      0.012897222    2.4534297      729.11836     -54.648069      674.4703     
    294000   294.53413      0.012897222    5.954796       730.74729     -55.066714      675.68058    
    295000   303.66993      0.012897222   -0.1603226      753.41346     -55.002075      698.41138    
    296000   309.11128      0.012897222    9.3767786      766.9136      -49.551641      717.36196    
    297000   289.2989       0.012897222    7.6396356      717.75855     -52.00778       665.75077    
    298000   296.82745      0.012897222    6.3096854      736.43708     -52.110815      684.32627    
    299000   322.13203      0.012897222    9.4296798      799.21844     -49.197796      750.02064    
    300000   301.63455      0.012897222    7.542998       748.36363     -53.007152      695.35648    
    301000   301.12225      0.012897222    7.2642405      747.0926      -48.027425      699.06517    
    302000   299.90421      0.012897222    5.5496777      744.07062     -47.701269      696.36935    
    303000   301.31078      0.012897222    9.1799536      747.56034     -50.408627      697.15172    
    304000   308.34186      0.012897222    2.1535417      765.00464     -55.637644      709.367      
    305000   315.70875      0.012897222    6.9949509      783.2821      -54.320941      728.96116    
    306000   303.9558       0.012897222    9.5690426      754.12272     -58.262576      695.86014    
    307000   290.82766      0.012897222    5.6272833      721.55145     -55.715866      665.83558    
    308000   306.08535      0.012897222    7.2375142      759.4062      -49.990379      709.41582    
    309000   308.73975      0.012897222    6.8613777      765.99182     -46.835746      719.15608    
    310000   303.47604      0.012897222    7.7586505      752.93241     -52.079403      700.85301    
    311000   286.94275      0.012897222    5.6116702      711.91288     -54.654683      657.2582     
    312000   295.85843      0.012897222    4.0617391      734.03293     -58.778105      675.25482    
    313000   307.83311      0.012897222    6.9809032      763.74244     -55.839306      707.90313    
    314000   295.19555      0.012897222    6.8268099      732.3883      -50.222958      682.16534    
    315000   286.48567      0.012897222    7.2421526      710.77885     -54.455023      656.32383    
    316000   294.88114      0.012897222    6.9362444      731.60825     -54.325741      677.2825     
    317000   303.30601      0.012897222    5.8285133      752.51056     -52.029036      700.48153    
    318000   301.7972       0.012897222    5.1328577      748.76717     -43.187904      705.57927    
    319000   290.76411      0.012897222    5.9139305      721.39378     -49.609171      671.78461    
    320000   287.36457      0.012897222    6.5990321      712.95941     -46.621164      666.33825    
    321000   306.82214      0.012897222    6.1033652      761.23419     -44.804716      716.42947    
    322000   310.88328      0.012897222    7.2215986      771.30998     -43.172677      728.13731    
    323000   297.87896      0.012897222    7.3307735      739.04592     -42.375442      696.67047    
    324000   298.15418      0.012897222    6.7127636      739.72873     -42.53676       697.19197    
    325000   302.00615      0.012897222    5.8381669      749.28559     -45.602021      703.68356    
    326000   294.83427      0.012897222    4.986855       731.49194     -47.857658      683.63428    
    327000   289.36688      0.012897222    1.5826366      717.92721     -47.000166      670.92704    
    328000   294.48315      0.012897222    8.7297382      730.62081     -46.052892      684.56792    
    329000   304.40877      0.012897222    9.8934928      755.24656     -48.271974      706.97458    
    330000   299.40196      0.012897222    7.329113       742.82452     -47.316556      695.50797    
    331000   298.94983      0.012897222    5.383197       741.70278     -45.341228      696.36155    
    332000   294.38828      0.012897222    8.1720491      730.38544     -45.458746      684.92669    
    333000   312.31743      0.012897222    8.8055373      774.86815     -44.983417      729.88473    
    334000   294.48305      0.012897222    4.0616017      730.62056     -47.731782      682.88878    
    335000   295.95408      0.012897222   -0.4310706      734.27022     -46.589715      687.6805     
    336000   294.1137       0.012897222    10.506731      729.7042      -45.367934      684.33627    
    337000   306.81817      0.012897222    7.7464782      761.22435     -46.91512       714.30923    
    338000   303.68514      0.012897222    7.2156492      753.4512      -41.179859      712.27134    
    339000   288.35653      0.012897222    2.3988828      715.42051     -42.81145       672.60906    
    340000   291.3951       0.012897222    15.592264      722.95928     -43.263786      679.69549    
    341000   305.99809      0.012897222    12.646126      759.18969     -44.567949      714.62174    
    342000   307.95248      0.012897222   -4.0823284      764.0386      -45.435285      718.60331    
    343000   293.80459      0.012897222    5.5260804      728.93728     -43.41999       685.51729    
    344000   287.8517       0.012897222    9.8073325      714.168       -44.935082      669.23292    
    345000   303.36585      0.012897222    5.8681249      752.65905     -42.673567      709.98548    
    346000   301.99322      0.012897222    6.0602637      749.25351     -44.058226      705.19529    
    347000   304.86229      0.012897222    12.26613       756.37174     -38.829498      717.54225    
    348000   293.1929       0.012897222    10.727376      727.41966     -42.418467      685.00119    
    349000   307.35219      0.012897222    3.1187252      762.54926     -42.918141      719.63112    
    350000   302.57583      0.012897222    1.2018146      750.69898     -42.147402      708.55158    
    351000   297.76368      0.012897222    7.2612846      738.75989     -43.969348      694.79055    
    352000   302.36765      0.012897222    15.170143      750.18247     -42.945238      707.23723    
    353000   313.10463      0.012897222    5.1101799      776.82122     -41.300238      735.52098    
    354000   295.88475      0.012897222    1.0522592      734.09821     -44.230519      689.86769    
    355000   299.47733      0.012897222    9.7950487      743.01151     -37.272179      705.73934    
    356000   295.74803      0.012897222    9.3334072      733.75902     -38.446975      695.31205    
    357000   303.36429      0.012897222    15.267533      752.65517     -35.298324      717.35685    
    358000   314.38788      0.012897222    1.9393723      780.00499     -40.007962      739.99702    
    359000   304.19348      0.012897222   -2.2509696      754.7124      -42.686458      712.02595    
    360000   288.36119      0.012897222    9.5421118      715.43205     -38.983227      676.44883    
    361000   290.57313      0.012897222    15.521163      720.91994     -41.40492       679.51502    
    362000   306.65013      0.012897222    6.9978093      760.80742     -44.672434      716.13499    
    363000   300.84473      0.012897222    1.1588673      746.40407     -41.367025      705.03704    
    364000   291.12126      0.012897222    6.5496488      722.27988     -38.33529       683.94459    
    365000   294.55956      0.012897222    14.944683      730.81038     -43.111188      687.69919    
    366000   305.92303      0.012897222    5.4199129      759.00346     -36.391876      722.61158    
    367000   302.69277      0.012897222    4.1219669      750.98911     -34.228929      716.76018    
    368000   290.15041      0.012897222    8.1560161      719.87118     -36.585633      683.28554    
    369000   305.88108      0.012897222    4.4424287      758.89939     -38.934432      719.96496    
    370000   307.15546      0.012897222   -1.4501677      762.06117     -41.744687      720.31649    
    371000   299.27317      0.012897222    8.8170458      742.50498     -43.576153      698.92883    
    372000   302.80043      0.012897222    19.893251      751.25622     -40.341247      710.91497    
    373000   299.71868      0.012897222    2.9617341      743.61031     -41.930339      701.67998    
    374000   299.75701      0.012897222    5.2474558      743.7054      -41.83797       701.86743    
    375000   297.69102      0.012897222    8.3781743      738.57963     -38.384041      700.19559    
    376000   286.77424      0.012897222    8.0853274      711.49478     -39.726239      671.76854    
    377000   299.8316       0.012897222    2.6315267      743.89046     -39.605824      704.28463    
    378000   303.15127      0.012897222    9.4993316      752.12667     -36.006491      716.12018    
    379000   304.03358      0.012897222    7.4271429      754.31568     -35.152799      719.16288    
    380000   306.195        0.012897222    7.9215523      759.67824     -31.516495      728.16174    
    381000   296.19725      0.012897222    3.6760278      734.87353     -32.750884      702.12265    
    382000   303.25581      0.012897222    11.468656      752.38602     -32.23975       720.14627    
    383000   302.50064      0.012897222    8.2380929      750.51243     -33.138473      717.37396    
    384000   309.64819      0.012897222    5.459049       768.2457      -33.577696      734.668      
    385000   304.54075      0.012897222    5.1366288      755.574       -29.863837      725.71016    
    386000   293.14657      0.012897222    5.8237401      727.30473     -31.467499      695.83723    
    387000   297.87537      0.012897222    6.7274822      739.037       -30.996059      708.04094    
    388000   297.56829      0.012897222    4.9334592      738.27513     -36.888032      701.3871     
    389000   314.95537      0.012897222    6.7185647      781.41295     -39.133896      742.27905    
    390000   305.7181       0.012897222    10.016508      758.49503     -40.499197      717.99583    
    391000   292.36253      0.012897222    9.4850833      725.3595      -45.634884      679.72462    
    392000   294.25899      0.012897222   -6.189173       730.06466     -41.170771      688.89389    
    393000   301.69554      0.012897222    2.4963852      748.51495     -37.178437      711.33651    
    394000   317.80975      0.012897222    18.370898      788.49475     -38.20112       750.29363    
    395000   286.80695      0.012897222    10.388748      711.57594     -37.429731      674.14621    
    396000   290.73093      0.012897222    4.3654577      721.31146     -41.28649       680.02497    
    397000   295.60759      0.012897222    0.14190331     733.41058     -34.505188      698.90539    
    398000   302.79608      0.012897222   -0.97732532     751.24542     -34.51221       716.73321    
    399000   307.90494      0.012897222    12.813921      763.92063     -33.776936      730.1437     
    400000   301.08736      0.012897222    20.198264      747.00603     -34.237089      712.76894    
    401000   289.37594      0.012897222    12.699124      717.94968     -35.002402      682.94728    
    402000   294.29988      0.012897222    7.5238836      730.1661      -30.637991      699.52811    
    403000   307.75606      0.012897222   -0.35476863     763.55127     -34.097125      729.45414    
    404000   292.64034      0.012897222    24.043982      726.04875     -34.973999      691.07475    
    405000   298.76831      0.012897222    14.410596      741.25241     -35.230309      706.0221     
    406000   302.2489       0.012897222    15.714188      749.88785     -36.675896      713.21195    
    407000   288.82963      0.012897222    2.2358255      716.59427     -35.781666      680.8126     
    408000   302.74269      0.012897222    0.82891765     751.11296     -35.885989      715.22697    
    409000   307.14354      0.012897222    11.141357      762.0316      -31.886692      730.14491    
    410000   296.08267      0.012897222    17.303938      734.58926     -35.020024      699.56923    
    411000   301.92808      0.012897222   -3.0198632      749.09188     -34.510166      714.58172    
    412000   303.0521       0.012897222    16.946319      751.8806      -37.330923      714.54968    
    413000   288.1622       0.012897222    14.654829      714.93837     -38.661516      676.27686    
    414000   300.22592      0.012897222   -2.5083235      744.86878     -33.847862      711.02091    
    415000   310.05319      0.012897222    4.3315541      769.25052     -36.575302      732.67522    
    416000   290.30964      0.012897222    26.832189      720.26621     -31.01934       689.24687    
    417000   286.17863      0.012897222    5.3217409      710.01707     -38.206167      671.8109     
    418000   305.14724      0.012897222    1.8039204      757.07872     -33.697048      723.38167    
    419000   326.23428      0.012897222    8.782819       809.39624     -33.247163      776.14908    
    420000   299.97662      0.012897222    10.923805      744.25027     -30.440491      713.80978    
    421000   290.84082      0.012897222    7.0817519      721.58409     -32.114697      689.46939    
    422000   307.29024      0.012897222    0.50935493     762.39556     -36.192957      726.20261    
    423000   310.04711      0.012897222    11.115544      769.23542     -35.592941      733.64248    
    424000   286.96847      0.012897222    4.8965735      711.97669     -34.650284      677.32641    
    425000   296.66092      0.012897222   -1.9896466      736.02392     -35.913753      700.11016    
    426000   312.22852      0.012897222    5.632756       774.64755     -37.604062      737.04349    
    427000   302.30778      0.012897222    14.428807      750.03394     -39.933839      710.1001     
    428000   287.97838      0.012897222    10.475784      714.4823      -37.577099      676.9052     
    429000   305.26293      0.012897222    4.5167984      757.36573     -37.22094       720.14479    
    430000   298.61786      0.012897222    8.6844975      740.87914     -38.079128      702.80001    
    431000   284.20605      0.012897222    6.0882025      705.12303     -38.304243      666.81879    
    432000   302.63639      0.012897222    4.8504434      750.84922     -37.517085      713.33213    
    433000   300.1165       0.012897222    6.8683217      744.59731     -34.010999      710.58631    
    434000   305.97856      0.012897222    7.2846576      759.14125     -34.281262      724.85999    
    435000   290.39119      0.012897222    7.2118169      720.46854     -32.522781      687.94576    
    436000   287.5189       0.012897222    4.8530307      713.34232     -30.636992      682.70533    
    437000   302.95674      0.012897222    7.6397029      751.64403     -27.431406      724.21262    
    438000   307.82923      0.012897222    6.7877296      763.7328      -30.351415      733.38139    
    439000   295.16014      0.012897222    7.6148455      732.30044     -30.767974      701.53247    
    440000   287.4959       0.012897222    7.1256808      713.28524     -31.093414      682.19183    
    441000   311.44684      0.012897222    1.4893538      772.70819     -32.740322      739.96787    
    442000   306.33071      0.012897222    8.9540159      760.01493     -33.162196      726.85273    
    443000   292.9519       0.012897222    7.9405125      726.82175     -36.112399      690.70935    
    444000   310.16283      0.012897222    2.9134179      769.52254     -38.824849      730.69769    
    445000   312.44308      0.012897222    8.3839357      775.17989     -32.26292       742.91697    
    446000   296.92527      0.012897222    10.175289      736.67977     -34.291301      702.38847    
    447000   294.40037      0.012897222    6.7723427      730.41542     -31.212428      699.203      
    448000   302.5553       0.012897222    4.4354842      750.64803     -30.286681      720.36135    
    449000   317.68706      0.012897222    4.8155794      788.19034     -26.883819      761.30652    
    450000   297.16615      0.012897222    9.784272       737.2774      -31.59846       705.67894    
    451000   286.54711      0.012897222    7.1218364      710.93128     -27.298357      683.63292    
    452000   303.46036      0.012897222    6.6323387      752.89352     -31.361533      721.53198    
    453000   301.29224      0.012897222    12.928335      747.51436     -29.293316      718.22105    
    454000   291.60172      0.012897222    7.1281073      723.4719      -28.543376      694.92852    
    455000   294.8207       0.012897222    6.6713128      731.45828     -28.088139      703.37014    
    456000   305.61386      0.012897222    6.3055484      758.2364      -31.532828      726.70357    
    457000   305.42634      0.012897222    7.693655       757.77116     -29.39127       728.37989    
    458000   291.37523      0.012897222    3.4264185      722.90997     -29.980782      692.92919    
    459000   298.45852      0.012897222    7.2685418      740.48382     -33.718543      706.76528    
    460000   308.75451      0.012897222    8.2126292      766.02846     -27.633655      738.39481    
    461000   287.30175      0.012897222    1.5020622      712.80356     -24.994434      687.80913    
    462000   294.80819      0.012897222    8.9880561      731.42724     -24.305712      707.12153    
    463000   314.61246      0.012897222    9.7091003      780.56219     -22.618468      757.94372    
    464000   295.00009      0.012897222    5.9645588      731.90335     -26.177932      705.72542    
    465000   295.65579      0.012897222   -0.27154831     733.53016     -29.999682      703.53048    
    466000   304.24902      0.012897222    11.393374      754.8502      -26.856185      727.99402    
    467000   313.35513      0.012897222    1.1069176      777.44272     -26.867453      750.57527    
    468000   284.36068      0.012897222    0.014103497    705.50668     -29.476468      676.03021    
    469000   282.14358      0.012897222    7.2751567      700.00601     -31.314616      668.69139    
    470000   299.69856      0.012897222    8.6498581      743.56039     -28.69542       714.86497    
    471000   308.0605       0.012897222    6.9537664      764.3066      -26.310947      737.99565    
    472000   302.55743      0.012897222   -0.44133862     750.65333     -28.838561      721.81477    
    473000   297.23404      0.012897222   -0.64986444     737.44585     -28.694172      708.75167    
    474000   303.15619      0.012897222    13.218267      752.13887     -32.085303      720.05357    
    475000   321.68063      0.012897222    2.5948759      798.09852     -29.769002      768.32952    
    476000   298.14966      0.012897222   -2.5069474      739.71752     -29.5205        710.19702    
    477000   286.44234      0.012897222    2.2465911      710.67135     -25.960141      684.7112     
    478000   294.18016      0.012897222    10.781819      729.8691      -28.537401      701.3317     
    479000   318.42582      0.012897222    7.4150515      790.02325     -28.263008      761.76024    
    480000   302.67468      0.012897222    4.6087605      750.94423     -26.903628      724.0406     
    481000   296.28544      0.012897222    5.0771592      735.09236     -28.879834      706.21252    
    482000   296.0742       0.012897222    13.134923      734.56825     -27.527383      707.04086    
    483000   310.43118      0.012897222    10.501499      770.18832     -25.846817      744.3415     
    484000   306.1957       0.012897222   -1.4162704      759.67997     -30.974103      728.70586    
    485000   307.1919       0.012897222    3.6192631      762.15158     -29.017759      733.13382    
    486000   290.6738       0.012897222    5.2726653      721.16971     -28.965941      692.20377    
    487000   294.67248      0.012897222    7.7129509      731.09054     -30.790996      700.29954    
    488000   302.33367      0.012897222    7.8575617      750.09817     -29.247944      720.85022    
    489000   311.74452      0.012897222    5.8630726      773.44675     -29.038842      744.40791    
    490000   280.43044      0.012897222    5.1341847      695.75566     -28.786864      666.9688     
    491000   288.57958      0.012897222    5.211205       715.9739      -28.823215      687.15068    
    492000   297.10954      0.012897222    8.2104454      737.13696     -27.647265      709.4897     
    493000   308.4509       0.012897222    6.7431712      765.27518     -24.738469      740.53671    
    494000   299.69507      0.012897222    4.6096987      743.55174     -27.158463      716.39327    
    495000   285.15413      0.012897222    4.255442       707.47525     -27.764029      679.71122    
    496000   297.83762      0.012897222    15.615638      738.94335     -28.7433        710.20005    
    497000   308.27518      0.012897222    5.9759821      764.83922     -30.070036      734.76919    
    498000   304.64982      0.012897222    4.0786486      755.84461     -27.257305      728.58731    
    499000   296.30717      0.012897222    6.2976539      735.14625     -33.551399      701.59485    
    500000   286.67034      0.012897222    7.1170534      711.23702     -29.825581      681.41144    
    501000   308.99668      0.012897222    8.4884489      766.62928     -27.498701      739.13058    
    502000   315.20407      0.012897222    6.9973381      782.02998     -28.354388      753.67559    
    503000   303.68545      0.012897222    5.5435328      753.45198     -25.76038       727.6916     
    504000   284.02707      0.012897222    5.1844053      704.679       -25.354017      679.32498    
    505000   301.02781      0.012897222    7.1297793      746.8583      -25.654394      721.20391    
    506000   299.21205      0.012897222    7.7457175      742.35334     -28.976967      713.37637    
    507000   304.07088      0.012897222    7.7617224      754.40824     -24.705839      729.7024     
    508000   298.09209      0.012897222    6.8243528      739.57469     -27.06708       712.50761    
    509000   301.81079      0.012897222    7.3632679      748.80089     -31.404617      717.39627    
    510000   296.48474      0.012897222    9.7469523      735.58682     -28.41111       707.17571    
    511000   299.64898      0.012897222    6.4564623      743.43737     -26.125709      717.31166    
    512000   300.68875      0.012897222    4.8217323      746.01708     -28.766365      717.25071    
    513000   306.85603      0.012897222    8.6602689      761.31826     -27.447601      733.87066    
    514000   304.6402       0.012897222    8.365274       755.82074     -31.248614      724.57212    
    515000   300.29438      0.012897222    5.4835509      745.03863     -34.288703      710.74992    
    516000   291.57386      0.012897222    7.6802839      723.40278     -30.51088       692.8919     
    517000   306.62535      0.012897222    13.187526      760.74596     -31.665454      729.0805     
    518000   308.09058      0.012897222    10.961031      764.38121     -27.970497      736.41072    
    519000   292.8035       0.012897222    6.4733632      726.45355     -31.178167      695.27539    
    520000   302.18001      0.012897222    6.7426896      749.71693     -28.074278      721.64265    
    521000   299.90184      0.012897222    5.7445932      744.06474     -28.115135      715.9496     
    522000   301.83403      0.012897222    7.3106395      748.85856     -25.438688      723.41987    
    523000   304.58015      0.012897222    7.4584935      755.67174     -23.302241      732.3695     
    524000   294.4557       0.012897222    8.278671       730.5527      -25.171626      705.38107    
    525000   306.62061      0.012897222    8.8554661      760.73418     -22.068914      738.66526    
    526000   303.2943       0.012897222    7.9877209      752.48152     -25.476174      727.00535    
    527000   284.77828      0.012897222    6.3569239      706.54277     -24.47932       682.06345    
    528000   301.74834      0.012897222    7.1034252      748.64595     -27.186681      721.45927    
    529000   298.65931      0.012897222    9.5232332      740.98198     -25.66984       715.31214    
    530000   292.40886      0.012897222    7.149227       725.47444     -29.653784      695.82065    
    531000   315.10253      0.012897222    7.4284365      781.77807     -29.530091      752.24798    
    532000   311.05271      0.012897222    6.4579488      771.73035     -29.179432      742.55092    
    533000   296.74608      0.012897222    2.0840483      736.2352      -29.926252      706.30895    
    534000   298.2055       0.012897222    2.1627094      739.85607     -27.14596       712.71011    
    535000   307.28921      0.012897222    5.5541317      762.39299     -22.836016      739.55698    
    536000   291.78546      0.012897222    7.2483542      723.92778     -23.19522       700.73256    
    537000   302.89124      0.012897222    11.348941      751.4815      -24.441894      727.03961    
    538000   306.53906      0.012897222    8.1676787      760.53187     -24.609884      735.92198    
    539000   322.8492       0.012897222    7.9779612      800.99776     -28.380239      772.61752    
    540000   298.10908      0.012897222    7.1938181      739.61684     -26.336924      713.27992    
    541000   288.39934      0.012897222    6.8567165      715.52672     -26.425377      689.10134    
    542000   303.14371      0.012897222    6.432397       752.10791     -24.74487       727.36304    
    543000   313.41866      0.012897222    5.2481866      777.60033     -25.412456      752.18787    
    544000   297.44941      0.012897222    5.7941641      737.98018     -25.283145      712.69703    
    545000   285.28536      0.012897222    7.3862012      707.80084     -27.742544      680.05829    
    546000   312.16537      0.012897222    9.6301587      774.49089     -33.722824      740.76807    
    547000   303.20067      0.012897222    6.4515164      752.24923     -31.572632      720.6766     
    548000   297.63254      0.012897222    3.5288242      738.43454     -23.827211      714.60732    
    549000   296.78034      0.012897222    5.5099291      736.3202      -28.607614      707.71259    
    550000   288.73185      0.012897222    8.6700884      716.35167     -28.97309       687.37858    
    551000   293.15411      0.012897222    10.314498      727.32343     -28.778857      698.54457    
    552000   315.38579      0.012897222    8.2703731      782.48083     -24.316258      758.16457    
    553000   301.6808       0.012897222    6.9727914      748.47839     -24.52699       723.9514     
    554000   293.94499      0.012897222    3.4284655      729.28563     -22.319939      706.96569    
    555000   296.46788      0.012897222    9.9127208      735.54499     -22.940225      712.60477    
    556000   317.8135       0.012897222    10.449189      788.50405     -19.842397      768.66166    
    557000   300.11559      0.012897222    6.2067814      744.59505     -24.16665       720.4284     
    558000   291.44795      0.012897222    7.9462233      723.09039     -24.318435      698.77195    
    559000   304.33228      0.012897222    7.1331792      755.05678     -25.398122      729.65866    
    560000   316.23231      0.012897222    7.6369915      784.58108     -21.882936      762.69814    
    561000   301.17925      0.012897222    6.0314081      747.23402     -29.346157      717.88786    
    562000   289.04366      0.012897222    5.9240036      717.12528     -30.134246      686.99103    
    563000   300.42884      0.012897222    6.8541759      745.37223     -30.688228      714.684      
    564000   303.43505      0.012897222    6.4139247      752.83071     -24.5884        728.24231    
    565000   294.69408      0.012897222    11.79828       731.14412     -23.533464      707.61066    
    566000   296.37649      0.012897222    7.9315248      735.31824     -25.905047      709.4132     
    567000   314.27015      0.012897222    5.5734441      779.7129      -22.61576       757.09714    
    568000   295.06385      0.012897222    4.6931047      732.06154     -21.08065       710.98089    
    569000   295.28216      0.012897222    11.396579      732.60319     -22.361423      710.24176    
    570000   317.0247       0.012897222    8.7413546      786.54702     -20.328925      766.21809    
    571000   301.96856      0.012897222    5.9317274      749.19231     -19.293059      729.89925    
    572000   283.82217      0.012897222    8.9282103      704.17063     -17.503675      686.66696    
    573000   298.50744      0.012897222    6.1935731      740.60519     -20.176522      720.42867    
    574000   315.20818      0.012897222    7.798013       782.04017     -22.33268       759.70749    
    575000   296.15839      0.012897222    8.4441803      734.77713     -20.412944      714.36419    
    576000   298.19321      0.012897222    6.981208       739.82559     -17.258028      722.56756    
    577000   304.59262      0.012897222    8.3414851      755.70268     -18.950408      736.75228    
    578000   285.79806      0.012897222    6.4237566      709.07286     -17.784731      691.28813    
    579000   301.93219      0.012897222    6.6280038      749.10209     -21.332565      727.76953    
    580000   314.19989      0.012897222    8.0833619      779.53859     -19.819397      759.71919    
    581000   294.56269      0.012897222    6.5665125      730.81815     -22.762681      708.05547    
    582000   300.73457      0.012897222    5.8223357      746.13075     -16.756549      729.3742     
    583000   304.6191       0.012897222    6.8338335      755.76839     -18.280508      737.48788    
    584000   304.5706       0.012897222    12.748136      755.64806     -15.85148       739.79658    
    585000   306.37993      0.012897222    6.1563118      760.13706     -20.074332      740.06273    
    586000   308.44574      0.012897222    7.0699061      765.26238     -19.792588      745.46979    
    587000   295.04866      0.012897222    9.5058074      732.02387     -20.595284      711.42859    
    588000   289.04349      0.012897222    5.7879891      717.12487     -22.747205      694.37767    
    589000   310.97591      0.012897222    7.3347469      771.53981     -21.541047      749.99876    
    590000   309.16756      0.012897222    10.437436      767.05324     -20.092538      746.9607     
    591000   300.66708      0.012897222    5.5201935      745.96331     -18.67377       727.28954    
    592000   297.52503      0.012897222    6.8357693      738.1678      -18.824747      719.34305    
    593000   302.49047      0.012897222    6.9732957      750.48719     -19.919213      730.56797    
    594000   307.74697      0.012897222    7.0531407      763.5287      -20.136717      743.39199    
    595000   300.98424      0.012897222    7.1613885      746.75019     -23.457835      723.29236    
    596000   299.92538      0.012897222    6.9840714      744.12314     -25.836875      718.28627    
    597000   290.68522      0.012897222    7.3655555      721.19805     -20.922108      700.27595    
    598000   301.49854      0.012897222    7.8760684      748.02618     -20.175741      727.85044    
    599000   305.49896      0.012897222    7.3669638      757.95133     -23.48285       734.46848    
    600000   290.56976      0.012897222    5.6074583      720.91159     -24.371126      696.54046    
    601000   305.76653      0.012897222    7.7136988      758.61518     -20.740345      737.87484    
    602000   326.02464      0.012897222    7.7147566      808.87611     -19.647483      789.22862    
    603000   314.6959       0.012897222    7.0558216      780.76921     -20.579731      760.18948    
    604000   293.68422      0.012897222    6.6963966      728.63865     -21.078384      707.56026    
    605000   295.07052      0.012897222    5.7144361      732.07808     -24.352062      707.72602    
    606000   313.69892      0.012897222    6.8982726      778.29566     -22.359531      755.93613    
    607000   287.21716      0.012897222    7.8645242      712.59368     -20.321569      692.27211    
    608000   299.08152      0.012897222    5.8768047      742.0295      -22.793888      719.23561    
    609000   306.00405      0.012897222    7.2328439      759.20447     -22.392416      736.81206    
    610000   306.7778       0.012897222    7.9718506      761.12418     -21.121403      740.00277    
    611000   289.83911      0.012897222    6.7385965      719.09882     -20.488626      698.6102     
    612000   295.38767      0.012897222    1.4695672      732.86495     -24.927525      707.93743    
    613000   302.5388       0.012897222    9.709958       750.60711     -25.573123      725.03398    
    614000   287.37235      0.012897222    2.4551678      712.97873     -23.111907      689.86682    
    615000   290.22972      0.012897222    8.4038041      720.06794     -22.436979      697.63096    
    616000   294.37971      0.012897222    5.0404947      730.36416     -21.752657      708.61151    
    617000   313.31246      0.012897222    7.0419997      777.33685     -24.273128      753.06373    
    618000   316.72964      0.012897222    8.5017785      785.81498     -24.666071      761.1489     
    619000   291.34185      0.012897222    6.0661637      722.82716     -21.254658      701.57251    
    620000   301.21331      0.012897222    4.4221316      747.31853     -23.920025      723.3985     
    621000   299.3641       0.012897222    7.7208225      742.73058     -22.136142      720.59444    
    622000   292.5246       0.012897222    7.3579609      725.7616      -21.977363      703.78424    
    623000   302.18265      0.012897222    6.5483454      749.72348     -25.007739      724.71574    
    624000   303.1319       0.012897222    7.642608       752.07859     -23.518431      728.56016    
    625000   300.72628      0.012897222    7.3864102      746.11019     -22.644512      723.46568    
    626000   300.57101      0.012897222    6.6300628      745.72497     -23.662534      722.06244    
    627000   298.2145       0.012897222    7.0897         739.87839     -23.910607      715.96779    
    628000   304.37507      0.012897222    11.593252      755.16293     -22.080819      733.08211    
    629000   294.72722      0.012897222    7.8509088      731.22634     -19.602254      711.62409    
    630000   299.60662      0.012897222    6.9489377      743.33228     -17.788075      725.5442     
    631000   301.2875       0.012897222    7.8645631      747.50259     -14.603549      732.89904    
    632000   298.56545      0.012897222    6.2218536      740.74912     -17.825649      722.92347    
    633000   295.04591      0.012897222    5.4915528      732.01703     -19.664794      712.35224    
    634000   296.16332      0.012897222    5.8658379      734.78936     -18.46737       716.32199    
    635000   299.02406      0.012897222    7.7404215      741.88694     -18.277096      723.60984    
    636000   302.77622      0.012897222    8.3757147      751.19615     -19.646525      731.54963    
    637000   310.4241       0.012897222    7.0580686      770.17075     -20.254564      749.91618    
    638000   302.98058      0.012897222    4.9446492      751.70317     -20.749075      730.95409    
    639000   287.87998      0.012897222    5.6590158      714.23817     -22.040298      692.19787    
    640000   296.97232      0.012897222    7.3266758      736.79652     -21.916233      714.88028    
    641000   308.4069       0.012897222    7.064084       765.16601     -20.825252      744.34076    
    642000   304.40272      0.012897222    6.3864875      755.23155     -19.760199      735.47135    
    643000   291.66669      0.012897222    6.7049896      723.6331      -21.560418      702.07268    
    644000   291.54356      0.012897222    4.8848291      723.32761     -20.426541      702.90107    
    645000   309.4821       0.012897222    7.3673026      767.83361     -21.179247      746.65436    
    646000   304.03316      0.012897222    6.9360994      754.31465     -22.46076       731.85389    
    647000   296.78824      0.012897222    6.8232835      736.33981     -23.286317      713.0535     
    648000   293.82061      0.012897222    6.603573       728.97702     -27.063206      701.91382    
    649000   306.99383      0.012897222    7.2992196      761.66016     -21.981163      739.679      
    650000   314.34952      0.012897222    6.8900808      779.90983     -23.642531      756.2673     
    651000   311.96311      0.012897222    5.957736       773.98907     -22.996389      750.99268    
    652000   282.67104      0.012897222    5.5766264      701.31465     -24.68003       676.63462    
    653000   302.12454      0.012897222    9.9331593      749.57932     -22.290598      727.28872    
    654000   321.34905      0.012897222    7.7378201      797.27586     -23.936652      773.3392     
    655000   305.02645      0.012897222    8.7407675      756.77903     -19.76567       737.01336    
    656000   290.49164      0.012897222    6.7419958      720.71777     -21.335238      699.38253    
    657000   301.97226      0.012897222    4.6615739      749.20149     -26.617019      722.58447    
    658000   314.18379      0.012897222    8.0372847      779.49865     -24.741945      754.75671    
    659000   293.54768      0.012897222    9.8564462      728.29988     -22.479425      705.82045    
    660000   285.76355      0.012897222    1.8583485      708.98724     -23.34964       685.6376     
    661000   303.91374      0.012897222    4.9677222      754.01837     -24.783771      729.2346     
    662000   311.88247      0.012897222    7.1476687      773.789       -24.739208      749.0498     
    663000   302.99483      0.012897222    12.606738      751.73851     -21.836148      729.90236    
    664000   294.85975      0.012897222    7.1151897      731.55517     -30.775927      700.77924    
    665000   297.10628      0.012897222    6.4235655      737.12887     -27.960774      709.16809    
    666000   300.73617      0.012897222    4.4777628      746.13473     -27.206149      718.92859    
    667000   306.54635      0.012897222    6.2307949      760.54995     -29.474896      731.07505    
    668000   293.5618       0.012897222    9.4507828      728.33491     -25.609725      702.72518    
    669000   299.38031      0.012897222    5.9799344      742.77079     -23.448991      719.3218     
    670000   305.78865      0.012897222    4.961892       758.67007     -25.164256      733.50581    
    671000   306.77528      0.012897222    12.41552       761.11794     -27.238769      733.87917    
    672000   289.1693       0.012897222    10.133435      717.43702     -24.133033      693.30398    
    673000   307.34238      0.012897222    6.9033161      762.52491     -22.392628      740.13229    
    674000   305.51529      0.012897222    6.9124508      757.99184     -24.22333       733.76851    
    675000   300.27825      0.012897222    7.5569161      744.99862     -17.624338      727.37428    
    676000   303.22021      0.012897222    5.814023       752.2977      -20.669902      731.62779    
    677000   296.37301      0.012897222    6.5182274      735.30961     -19.650649      715.65896    
    678000   312.43999      0.012897222    9.9134749      775.17223     -20.564893      754.60734    
    679000   295.71134      0.012897222    5.4515198      733.66799     -21.202887      712.4651     
    680000   296.97202      0.012897222    5.4805685      736.79577     -21.664543      715.13123    
    681000   291.52254      0.012897222    10.590282      723.27545     -23.697603      699.57785    
    682000   319.21869      0.012897222    9.4196541      791.99036     -24.336526      767.65383    
    683000   303.0994       0.012897222    7.9288786      751.99797     -26.111644      725.88633    
    684000   292.267        0.012897222   -5.8224221      725.12248     -24.625285      700.4972     
    685000   293.97366      0.012897222    10.061316      729.35675     -24.849985      704.50677    
    686000   299.71589      0.012897222    13.188241      743.60339     -24.170251      719.43314    
    687000   308.17197      0.012897222    7.670258       764.58314     -20.764874      743.81827    
    688000   299.24966      0.012897222   -1.9967879      742.44665     -25.375298      717.07135    
    689000   279.76158      0.012897222    0.67264298     694.09619     -31.208221      662.88797    
    690000   301.64258      0.012897222    9.1834155      748.38355     -22.905844      725.4777     
    691000   310.47971      0.012897222    7.2612895      770.30872     -26.083225      744.2255     
    692000   295.42386      0.012897222    6.6783364      732.95474     -23.810786      709.14395    
    693000   289.64358      0.012897222    6.6654368      718.6137      -20.587994      698.02571    
    694000   302.88441      0.012897222    8.0702217      751.46456     -21.658583      729.80598    
    695000   309.92553      0.012897222    7.9618587      768.93379     -18.806599      750.12719    
    696000   299.02747      0.012897222    6.1517094      741.89539     -20.372828      721.52256    
    697000   292.76607      0.012897222    4.8861142      726.36069     -18.375549      707.98514    
    698000   310.2761       0.012897222    8.0317282      769.80355     -19.972008      749.83155    
    699000   315.25061      0.012897222    7.1158154      782.14546     -20.817172      761.32828    
    700000   300.63509      0.012897222    5.09662        745.88394     -22.595509      723.28843    
    701000   303.16207      0.012897222    5.6329547      752.15345     -22.334747      729.8187     
    702000   289.98138      0.012897222    10.950156      719.4518      -22.911617      696.54018    
    703000   306.56964      0.012897222    8.2573225      760.60774     -19.116055      741.49169    
    704000   294.18443      0.012897222    5.9941867      729.87967     -15.560848      714.31882    
    705000   291.49928      0.012897222    4.670371       723.21775     -19.878896      703.33885    
    706000   294.35155      0.012897222    6.2711565      730.2943      -17.518836      712.77547    
    707000   305.84054      0.012897222    10.023673      758.7988      -13.592263      745.20654    
    708000   304.87318      0.012897222    11.754483      756.39876     -17.222093      739.17666    
    709000   304.45699      0.012897222    3.071473       755.36619     -12.900364      742.46583    
    710000   302.15016      0.012897222    8.5318651      749.64287     -13.384001      736.25887    
    711000   285.34631      0.012897222    15.023747      707.95207     -11.235841      696.71623    
    712000   302.95392      0.012897222    7.3538109      751.63702     -15.722913      735.91411    
    713000   301.86105      0.012897222    5.3352934      748.92558     -18.574456      730.35112    
    714000   299.76132      0.012897222    4.3408654      743.7161      -19.044127      724.67197    
    715000   291.85558      0.012897222    6.2191148      724.10174     -17.886855      706.21488    
    716000   296.30442      0.012897222    9.2359004      735.13944     -16.442655      718.69679    
    717000   309.91128      0.012897222    8.3425527      768.89843     -18.309459      750.58897    
    718000   306.72147      0.012897222    5.7491453      760.98442     -17.194915      743.7895     
    719000   283.6996       0.012897222    6.6204184      703.86652     -19.040351      684.82617    
    720000   297.19909      0.012897222    7.1601977      737.35913     -17.874982      719.48415    
    721000   298.59122      0.012897222    7.1134104      740.81304     -19.368031      721.44501    
    722000   310.86739      0.012897222    6.5193968      771.27056     -18.969279      752.30128    
    723000   299.19172      0.012897222    8.4415807      742.30291     -18.7528        723.55011    
    724000   290.12973      0.012897222    5.2464732      719.81987     -20.907558      698.91231    
    725000   306.78685      0.012897222    6.804132       761.14663     -17.070428      744.0762     
    726000   317.70461      0.012897222   -1.5144414      788.2339      -16.992096      771.2418     
    727000   298.20964      0.012897222    8.3228742      739.86635     -20.224457      719.64189    
    728000   289.77859      0.012897222    10.590141      718.94867     -16.518087      702.43059    
    729000   295.11426      0.012897222    6.6011485      732.18661     -15.270206      716.91641    
    730000   301.09082      0.012897222    5.1761646      747.01463     -18.531833      728.4828     
    731000   308.37886      0.012897222    6.9745208      765.09646     -21.646836      743.44962    
    732000   302.49633      0.012897222    7.1063679      750.50174     -23.746017      726.75572    
    733000   291.92934      0.012897222    7.2454406      724.28474     -24.719361      699.56538    
    734000   298.08486      0.012897222    6.6381236      739.55675     -24.094976      715.46178    
    735000   309.54102      0.012897222    8.4356091      767.9798      -21.100045      746.87976    
    736000   321.21503      0.012897222    6.9333701      796.94334     -22.182585      774.76076    
    737000   294.10809      0.012897222    5.0325818      729.69028     -25.194617      704.49566    
    738000   292.3019       0.012897222    6.8477775      725.20908     -27.378371      697.83071    
    739000   310.19479      0.012897222    7.9255241      769.60181     -26.441074      743.16074    
    740000   301.94981      0.012897222    3.4675421      749.14581     -24.28016       724.86565    
    741000   291.40536      0.012897222    7.9709521      722.98472     -19.85281       703.13191    
    742000   308.34482      0.012897222    7.2765562      765.01199     -22.627011      742.38498    
    743000   296.86139      0.012897222    6.3380973      736.5213      -22.067863      714.45343    
    744000   293.8525       0.012897222    5.9299547      729.05615     -21.218956      707.83719    
    745000   301.5884       0.012897222    7.4899295      748.24914     -21.706474      726.54267    
    746000   306.64917      0.012897222    7.5195566      760.80504     -24.221322      736.58371    
    747000   292.86328      0.012897222    6.7553781      726.60186     -23.671788      702.93007    
    748000   294.69209      0.012897222    6.7724826      731.1392      -19.314836      711.82437    
    749000   316.85849      0.012897222    5.8451411      786.13465     -22.756041      763.37861    
    750000   304.68041      0.012897222    7.9503121      755.92049     -29.31233       726.60816    
    751000   300.17703      0.012897222    7.860369       744.74749     -24.74669       720.0008     
    752000   292.8944       0.012897222    6.0642561      726.67909     -21.940427      704.73866    
    753000   307.22808      0.012897222    4.2695043      762.24133     -22.632305      739.60902    
    754000   306.89469      0.012897222    9.607224       761.41418     -23.869452      737.54473    
    755000   287.93282      0.012897222    9.0406872      714.36925     -21.643461      692.72579    
    756000   300.95751      0.012897222    2.9693509      746.68388     -22.032144      724.65174    
    757000   315.10533      0.012897222    7.507623       781.78502     -22.777626      759.00739    
    758000   306.12784      0.012897222    11.357785      759.5116      -24.156414      735.35518    
    759000   291.16182      0.012897222    8.1501477      722.38049     -23.423423      698.95707    
    760000   300.9611       0.012897222    5.7270909      746.69279     -25.150748      721.54204    
    761000   314.55569      0.012897222    7.7877459      780.42133     -19.949414      760.47192    
    762000   290.26412      0.012897222    6.6413338      720.15329     -23.279092      696.8742     
    763000   307.13223      0.012897222    8.7634807      762.00353     -20.991892      741.01163    
    764000   308.3962       0.012897222    6.9856015      765.13948     -23.572644      741.56684    
    765000   291.72689      0.012897222    7.5104581      723.78245     -24.28564       699.49681    
    766000   284.3489       0.012897222    5.174875       705.47745     -23.014886      682.46256    
    767000   309.36767      0.012897222    8.7400527      767.54972     -21.237736      746.31199    
    768000   294.28625      0.012897222    13.410981      730.13229     -19.738245      710.39404    
    769000   280.47947      0.012897222    7.3894416      695.8773      -22.001948      673.87535    
    770000   299.55405      0.012897222    5.4807695      743.20185     -21.427305      721.77454    
    771000   306.42803      0.012897222    6.6860651      760.25638     -23.207768      737.04861    
    772000   305.56476      0.012897222    8.0453129      758.1146      -21.924837      736.18976    
    773000   286.47203      0.012897222    7.9070661      710.745       -20.514691      690.23031    
    774000   292.75477      0.012897222    5.175609       726.33264     -18.453179      707.87946    
    775000   304.8108       0.012897222    4.3402948      756.24399     -19.198467      737.04553    
    776000   303.06144      0.012897222    8.8066772      751.90379     -20.315891      731.5879     
    777000   293.27392      0.012897222    7.686646       727.62069     -20.031441      707.58925    
    778000   301.35866      0.012897222    1.3238651      747.67913     -21.840175      725.83896    
    779000   311.10201      0.012897222    7.7537202      771.85267     -21.790598      750.06207    
    780000   299.66456      0.012897222    9.7869996      743.47604     -20.103639      723.37241    
    781000   292.66612      0.012897222    7.619954       726.1127      -19.3312        706.7815     
    782000   305.14154      0.012897222    5.5566218      757.06457     -21.201834      735.86274    
    783000   313.05913      0.012897222    7.1966889      776.70833     -20.550175      756.15816    
    784000   308.86757      0.012897222    7.2882324      766.30896     -19.718133      746.59082    
    785000   295.05793      0.012897222    7.2691708      732.04685     -20.191525      711.85533    
    786000   299.36028      0.012897222    3.6803529      742.72111     -19.62          723.10111    
    787000   303.17135      0.012897222    11.632003      752.17649     -16.995561      735.18093    
    788000   304.11482      0.012897222    6.4028515      754.51724     -18.684848      735.83239    
    789000   297.43568      0.012897222    6.4864634      737.94612     -21.173098      716.77302    
    790000   293.64347      0.012897222    7.2530638      728.53753     -16.481837      712.05569    
    791000   307.85483      0.012897222    7.8165841      763.79631     -22.3885        741.40781    
    792000   308.19451      0.012897222    7.0508491      764.63907     -19.600928      745.03814    
    793000   294.73335      0.012897222    7.6977098      731.24157     -23.329451      707.91211    
    794000   294.48035      0.012897222    8.3079384      730.61388     -23.077931      707.53595    
    795000   314.84058      0.012897222    6.0278216      781.12815     -21.237748      759.8904     
    796000   299.51074      0.012897222    5.4979991      743.09439     -19.661845      723.43254    
    797000   299.74567      0.012897222    8.5383797      743.67728     -19.639815      724.03746    
    798000   296.59979      0.012897222    7.3716648      735.87226     -19.264223      716.60804    
    799000   300.11916      0.012897222    7.026976       744.60391     -19.600131      725.00378    
    800000   307.75047      0.012897222    3.7104844      763.53739     -19.931459      743.60593    
    801000   307.17334      0.012897222    5.0154977      762.10552     -25.273251      736.83226    
    802000   294.78201      0.012897222    8.9138627      731.36229     -24.959484      706.40281    
    803000   298.03741      0.012897222    6.4246381      739.43902     -27.496407      711.94261    
    804000   300.38297      0.012897222    6.7225338      745.25843     -26.268671      718.98975    
    805000   297.55424      0.012897222    7.8770353      738.24027     -21.976791      716.26348    
    806000   297.73171      0.012897222    7.0050923      738.68058     -21.75843       716.92215    
    807000   305.3614       0.012897222    6.4328545      757.61004     -23.658255      733.95179    
    808000   291.91979      0.012897222    7.0714012      724.26104     -16.629606      707.63143    
    809000   296.03393      0.012897222    6.7595323      734.46833     -21.757187      712.71115    
    810000   316.83966      0.012897222    7.3845048      786.08793     -22.258872      763.82906    
    811000   304.4407       0.012897222    4.7086874      755.32576     -26.085791      729.23997    
    812000   290.68924      0.012897222    7.2596902      721.20803     -25.485142      695.72288    
    813000   314.86377      0.012897222    13.164067      781.18568     -25.427464      755.75822    
    814000   310.31962      0.012897222    7.0919158      769.91152     -21.925902      747.98562    
    815000   295.56774      0.012897222    5.8214143      733.31172     -22.513658      710.79806    
    816000   295.73338      0.012897222    6.9224795      733.72267     -23.676667      710.046      
    817000   297.90696      0.012897222    8.3887966      739.11537     -22.341869      716.77351    
    818000   328.64367      0.012897222    7.4476363      815.37401     -25.346301      790.02771    
    819000   294.64343      0.012897222    6.3235824      731.01847     -22.257295      708.76117    
    820000   285.53309      0.012897222    7.6881818      708.41547     -20.468926      687.94654    
    821000   304.98476      0.012897222    7.6702342      756.67561     -20.94582       735.72979    
    822000   307.33617      0.012897222    7.2148431      762.50951     -23.566633      738.94288    
    823000   296.98932      0.012897222    7.0198012      736.8387      -24.850145      711.98855    
    824000   285.64135      0.012897222    5.4661763      708.68406     -24.977525      683.70654    
    825000   303.01674      0.012897222    9.0137822      751.79287     -21.996842      729.79603    
    826000   309.83594      0.012897222    3.0568057      768.7115      -21.665519      747.04598    
    827000   293.48077      0.012897222    6.7337361      728.13389     -23.386261      704.74763    
    828000   297.13823      0.012897222    6.9021607      737.20815     -26.357914      710.85023    
    829000   302.12645      0.012897222    8.9164492      749.58405     -31.127435      718.45662    
    830000   299.9026       0.012897222    6.9458927      744.06663     -29.245302      714.82133    
    831000   297.87883      0.012897222    6.1163458      739.04559     -28.574606      710.47099    
    832000   297.12474      0.012897222    8.1560857      737.17468     -27.250788      709.92389    
    833000   302.74585      0.012897222    6.5513246      751.1208      -28.614113      722.50668    
    834000   293.26599      0.012897222    4.0033655      727.60101     -27.388906      700.21211    
    835000   305.63488      0.012897222    6.8779225      758.28857     -22.559552      735.72902    
    836000   301.7205       0.012897222    6.6078777      748.57689     -23.277001      725.29988    
    837000   309.56935      0.012897222    4.4047948      768.05009     -21.377185      746.6729     
    838000   291.84373      0.012897222    6.8281916      724.07233     -20.810824      703.26151    
    839000   296.12603      0.012897222    7.0989031      734.69685     -20.892483      713.80436    
    840000   298.18542      0.012897222    7.0787622      739.80624     -22.264386      717.54185    
    841000   308.44129      0.012897222    7.5201471      765.25134     -23.888954      741.36238    
    842000   303.19486      0.012897222    7.1817461      752.23481     -24.263168      727.97164    
    843000   287.56653      0.012897222    6.5500232      713.46048     -24.432455      689.02802    
    844000   315.66789      0.012897222    7.7020755      783.18074     -22.295993      760.88475    
    845000   305.84929      0.012897222    6.2056295      758.82052     -23.310339      735.51018    
    846000   288.7348       0.012897222    6.6040012      716.35899     -23.713005      692.64598    
    847000   313.24595      0.012897222    10.738889      777.17183     -26.621998      750.54983    
    848000   313.73705      0.012897222    7.001683       778.39027     -29.844411      748.54586    
    849000   297.61731      0.012897222    6.6393613      738.39675     -28.583582      709.81317    
    850000   288.50027      0.012897222    7.1791721      715.77711     -29.29761       686.4795     
    851000   305.31321      0.012897222    7.5140998      757.49048     -25.320105      732.17038    
    852000   304.0534       0.012897222    6.9985332      754.36486     -24.159494      730.20536    
    853000   298.18817      0.012897222    2.0771853      739.81306     -20.807871      719.00519    
    854000   288.072        0.012897222    6.5722561      714.71458     -24.997069      689.71751    
    855000   305.42037      0.012897222    8.9277058      757.75636     -24.512024      733.24433    
    856000   307.0918       0.012897222    6.6202664      761.90321     -28.66916       733.23405    
    857000   290.06235      0.012897222    5.375526       719.65268     -27.720695      691.93199    
    858000   297.06846      0.012897222    8.6364285      737.03504     -26.453051      710.58199    
    859000   314.98888      0.012897222    8.5145338      781.4961      -24.886171      756.60992    
    860000   299.77782      0.012897222    4.4099582      743.75705     -25.691924      718.06512    
    861000   291.88815      0.012897222    7.1401214      724.18254     -22.062773      702.11977    
    862000   312.60985      0.012897222    13.40162       775.59365     -21.181861      754.41179    
    863000   301.74156      0.012897222    3.6428968      748.62913     -26.216849      722.41228    
    864000   289.21012      0.012897222    6.6500995      717.53829     -23.473392      694.06489    
    865000   293.9938       0.012897222    15.096767      729.40672     -23.425038      705.98168    
    866000   306.17424      0.012897222    7.5894023      759.62674     -22.516056      737.11068    
    867000   302.4086       0.012897222    0.41395426     750.28406     -22.767942      727.51612    
    868000   308.36768      0.012897222    7.0758375      765.06871     -19.261413      745.8073     
    869000   303.71301      0.012897222    3.6093285      753.52035     -22.175633      731.34471    
    870000   290.65623      0.012897222    5.7589659      721.12613     -22.491514      698.63462    
    871000   299.1695       0.012897222    6.75362        742.24777     -22.471456      719.77632    
    872000   302.1706       0.012897222    8.2093372      749.69358     -26.577648      723.11593    
    873000   308.20657      0.012897222    6.0376887      764.66899     -24.191042      740.47795    
    874000   291.28958      0.012897222    4.7642958      722.69747     -28.024556      694.67292    
    875000   303.66835      0.012897222    11.42045       753.40955     -27.561023      725.84853    
    876000   305.8353       0.012897222    6.6177478      758.78581     -27.053682      731.73213    
    877000   302.6205       0.012897222    4.7796848      750.80981     -24.114169      726.69564    
    878000   292.76852      0.012897222    5.2884075      726.36676     -23.946781      702.41998    
    879000   295.87883      0.012897222    6.8009863      734.08353     -23.418441      710.66509    
    880000   306.70584      0.012897222    9.2212607      760.94564     -21.088662      739.85698    
    881000   299.93662      0.012897222    9.2251617      744.15103     -20.33448       723.81655    
    882000   283.97683      0.012897222    6.9790818      704.55435     -22.014713      682.53963    
    883000   297.38781      0.012897222    4.9355362      737.82736     -18.726498      719.10086    
    884000   304.65987      0.012897222    15.091366      755.86953     -19.616108      736.25342    
    885000   297.47932      0.012897222    9.9460571      738.05439     -20.775835      717.27856    
    886000   293.56027      0.012897222    6.211984       728.33112     -18.018239      710.31288    
    887000   312.96391      0.012897222    3.9310802      776.47209     -20.016174      756.45592    
    888000   302.36443      0.012897222    10.048124      750.17448     -21.239848      728.93463    
    889000   299.7885       0.012897222    5.5224589      743.78352     -18.106274      725.67725    
    890000   294.80428      0.012897222   -1.8431078      731.41753     -19.852902      711.56463    
    891000   306.01326      0.012897222    4.8480395      759.22734     -21.490736      737.7366     
    892000   304.23951      0.012897222    9.8024859      754.82662     -20.28921       734.53741    
    893000   293.52254      0.012897222    6.0008959      728.23751     -22.742843      705.49467    
    894000   300.1367       0.012897222    6.7681299      744.64743     -20.680549      723.96688    
    895000   306.14481      0.012897222    7.3951917      759.55372     -20.995785      738.55793    
    896000   289.38281      0.012897222    6.8261976      717.96674     -22.857179      695.10956    
    897000   300.86578      0.012897222    9.2715423      746.45628     -20.104371      726.35191    
    898000   310.89568      0.012897222    7.3071923      771.34076     -18.21352       753.12724    
    899000   298.63709      0.012897222    6.0393739      740.92685     -17.956477      722.97038    
    900000   297.9942       0.012897222    7.2535099      739.33183     -18.725213      720.60662    
    901000   303.83927      0.012897222    7.9755021      753.8336      -20.266332      733.56727    
    902000   303.25378      0.012897222    8.568784       752.38098     -23.151438      729.22954    
    903000   291.84286      0.012897222    7.4082434      724.07019     -20.111039      703.95915    
    904000   308.70197      0.012897222    6.9156755      765.89811     -20.170922      745.72719    
    905000   305.26663      0.012897222    7.8224833      757.37492     -19.847089      737.52783    
    906000   283.69459      0.012897222    7.798953       703.85411     -19.169691      684.68441    
    907000   302.90899      0.012897222    5.3658299      751.52554     -24.109231      727.41631    
    908000   311.78694      0.012897222    7.9194852      773.552       -19.26014       754.29186    
    909000   294.60322      0.012897222    5.6304175      730.9187      -19.575023      711.34368    
    910000   291.03073      0.012897222    6.4576882      722.05526     -20.654446      701.40081    
    911000   310.58317      0.012897222    7.7424071      770.5654      -18.653057      751.91234    
    912000   296.99003      0.012897222    7.7443384      736.84045     -18.834988      718.00547    
    913000   291.57654      0.012897222    5.8305987      723.40942     -16.966684      706.44274    
    914000   300.94196      0.012897222    6.5001694      746.6453      -15.595717      731.04958    
    915000   293.61734      0.012897222    2.8714977      728.47272     -17.607613      710.86511    
    916000   306.50537      0.012897222    7.5181923      760.44826     -22.09561       738.35265    
    917000   296.53376      0.012897222    7.833555       735.70842     -20.265316      715.4431     
    918000   305.2019       0.012897222    6.8249926      757.21433     -20.608299      736.60603    
    919000   297.11091      0.012897222    6.2565992      737.14035     -18.888776      718.25157    
    920000   308.27721      0.012897222    2.6677029      764.84427     -19.11344       745.73083    
    921000   306.50185      0.012897222    0.25107857     760.43953     -18.312614      742.12692    
    922000   309.38408      0.012897222    11.022554      767.59043     -17.818379      749.77205    
    923000   296.45794      0.012897222    6.1577623      735.52032     -21.905234      713.61509    
    924000   302.97684      0.012897222    4.399931       751.69389     -20.833036      730.86085    
    925000   298.08723      0.012897222    9.3319184      739.56263     -22.254258      717.30837    
    926000   309.24579      0.012897222    7.3700283      767.24734     -23.005354      744.24198    
    927000   299.75604      0.012897222    5.5941671      743.70299     -25.285708      718.41728    
    928000   290.5          0.012897222    1.7508034      720.7385      -23.416385      697.32211    
    929000   298.93062      0.012897222    7.2724943      741.65512     -23.821995      717.83312    
    930000   300.80633      0.012897222    7.4264313      746.3088      -26.896897      719.4119     
    931000   293.21685      0.012897222    5.071583       727.47909     -22.130251      705.34883    
    932000   308.61118      0.012897222    7.0034043      765.67284     -21.407284      744.26556    
    933000   297.80715      0.012897222    9.6564838      738.86774     -20.696001      718.17174    
    934000   299.3815       0.012897222    6.8991543      742.77375     -25.674136      717.09962    
    935000   301.87355      0.012897222    6.0790341      748.95661     -27.818774      721.13783    
    936000   306.28053      0.012897222    7.5986042      759.89044     -24.050662      735.83977    
    937000   296.99252      0.012897222    10.592902      736.84663     -25.463196      711.38344    
    938000   301.19257      0.012897222    1.2183745      747.26706     -29.267478      717.99958    
    939000   320.64799      0.012897222    5.3615122      795.53649     -27.846114      767.69038    
    940000   309.45788      0.012897222    9.276693       767.77353     -26.983652      740.78988    
    941000   291.67527      0.012897222    10.4321        723.65439     -25.676416      697.97798    
    942000   294.48597      0.012897222    6.9436642      730.6278      -24.681463      705.94634    
    943000   291.83319      0.012897222    6.6572536      724.04619     -21.88134       702.16485    
    944000   311.63049      0.012897222    7.0274416      773.16383     -20.777875      752.38595    
    945000   305.14456      0.012897222    7.4785397      757.07206     -21.011754      736.06031    
    946000   292.32437      0.012897222    5.7246584      725.26483     -20.25872       705.00611    
    947000   309.22693      0.012897222    5.0547973      767.20054     -20.212517      746.98802    
    948000   302.62327      0.012897222    8.0928115      750.81669     -17.609467      733.20722    
    949000   291.79266      0.012897222    7.2988779      723.94562     -16.231006      707.71462    
    950000   305.18845      0.012897222    5.1563047      757.18096     -20.832691      736.34827    
    951000   304.96805      0.012897222    8.0144171      756.63415     -19.135933      737.49822    
    952000   301.83489      0.012897222    6.3927784      748.86067     -22.816986      726.04369    
    953000   297.88423      0.012897222    8.0621658      739.05898     -23.410802      715.64818    
    954000   299.00409      0.012897222    3.5849897      741.83738     -22.631193      719.20619    
    955000   289.62989      0.012897222    4.0481605      718.57974     -21.422296      697.15745    
    956000   299.102        0.012897222    14.529803      742.0803      -22.889854      719.19044    
    957000   315.1791       0.012897222    5.6277378      781.96804     -23.184061      758.78398    
    958000   304.39866      0.012897222    5.1918848      755.22146     -22.051584      733.16988    
    959000   286.91941      0.012897222    2.2165138      711.85497     -23.345983      688.50899    
    960000   299.55003      0.012897222    7.0572769      743.19189     -20.79793       722.39396    
    961000   305.51054      0.012897222    9.4124125      757.98006     -17.78909       740.19097    
    962000   308.81018      0.012897222    7.7545939      766.16656     -19.187057      746.9795     
    963000   300.01285      0.012897222   -2.5500134      744.34014     -17.802018      726.53812    
    964000   305.8901       0.012897222    3.5886524      758.92177     -17.28699       741.63478    
    965000   284.50211      0.012897222    11.713862      705.85759     -20.799641      685.05795    
    966000   298.52956      0.012897222    8.4612132      740.66006     -22.333868      718.32619    
    967000   298.15744      0.012897222    9.5201904      739.73683     -22.212777      717.52405    
    968000   315.14311      0.012897222    6.6026333      781.87875     -21.29294       760.58581    
    969000   292.73335      0.012897222    2.9916762      726.27952     -20.968878      705.31064    
    970000   302.60857      0.012897222    7.3305176      750.78021     -18.543215      732.237      
    971000   300.26792      0.012897222    9.8294443      744.973       -19.612551      725.36045    
    972000   308.95937      0.012897222    7.0643516      766.5367      -18.044562      748.49214    
    973000   305.15907      0.012897222    5.003735       757.10806     -18.518691      738.58937    
    974000   303.62912      0.012897222    6.5691636      753.31222     -21.821342      731.49088    
    975000   295.59745      0.012897222    7.4667491      733.38543     -22.226935      711.15849    
    976000   309.98667      0.012897222    7.2852565      769.08546     -25.171308      743.91415    
    977000   305.87475      0.012897222    6.5387432      758.88368     -22.825595      736.05808    
    978000   293.64864      0.012897222    6.6953554      728.55038     -26.112163      702.43821    
    979000   291.75791      0.012897222    7.0828123      723.85942     -22.697001      701.16242    
    980000   293.2002       0.012897222    5.7098771      727.43778     -23.551878      703.8859     
    981000   296.97834      0.012897222    6.8617256      736.81145     -20.344453      716.467      
    982000   305.62602      0.012897222    7.967719       758.26657     -18.411852      739.85472    
    983000   300.2301       0.012897222    6.5520535      744.87914     -18.624524      726.25462    
    984000   297.45379      0.012897222    6.6155328      737.99106     -21.570708      716.42035    
    985000   281.61436      0.012897222    6.5087097      698.693       -23.795193      674.8978     
    986000   300.81492      0.012897222    5.3883036      746.33011     -25.667639      720.66247    
    987000   301.59707      0.012897222    7.1159994      748.27064     -21.614978      726.65566    
    988000   295.81228      0.012897222    8.7129464      733.91842     -20.944776      712.97365    
    989000   289.62973      0.012897222    4.4646475      718.57933     -22.135615      696.44372    
    990000   300.36792      0.012897222    5.0767818      745.2211      -22.367643      722.85346    
    991000   311.96371      0.012897222    5.7325516      773.99056     -23.019119      750.97144    
    992000   300.40437      0.012897222    8.1886766      745.31151     -23.908287      721.40323    
    993000   289.62972      0.012897222    6.7830782      718.57931     -22.387227      696.19208    
    994000   289.85321      0.012897222    5.6306389      719.13381     -24.270264      694.86355    
    995000   307.10362      0.012897222    6.5139518      761.93254     -19.43183       742.50071    
    996000   307.70054      0.012897222    5.8439259      763.41352     -19.511588      743.90193    
    997000   289.52389      0.012897222    6.8636709      718.31675     -22.860569      695.45618    
    998000   297.88297      0.012897222    7.2755617      739.05587     -22.269422      716.78645    
    999000   314.12232      0.012897222    5.6403489      779.34614     -22.490732      756.8554     
   1000000   296.35703      0.012897222    6.2272295      735.26995     -18.233283      717.03667    
   1001000   298.29736      0.012897222    8.2240785      740.08398     -21.691043      718.39294    
   1002000   306.19562      0.012897222    6.5540599      759.67977     -25.31921       734.36056    
   1003000   297.26186      0.012897222    6.4421121      737.51487     -22.404813      715.11006    
   1004000   275.73856      0.012897222    7.250082       684.11497     -22.207408      661.90756    
   1005000   303.62147      0.012897222    7.5021092      753.29323     -21.254496      732.03873    
   1006000   313.07009      0.012897222    5.6339811      776.73551     -18.734593      758.00092    
   1007000   301.95976      0.012897222    7.1351487      749.1705      -23.26775       725.90275    
   1008000   297.77137      0.012897222    7.535768       738.77898     -27.305188      711.47379    
   1009000   302.66223      0.012897222    9.0311349      750.91333     -32.879264      718.03407    
   1010000   304.55161      0.012897222    8.3133493      755.60094     -26.863328      728.73762    
   1011000   305.30008      0.012897222    6.6914118      757.4579      -28.574983      728.88292    
   1012000   295.78002      0.012897222    3.2107443      733.83838     -27.094874      706.7435     
   1013000   294.42934      0.012897222    8.0147506      730.48732     -23.973045      706.51427    
   1014000   305.78876      0.012897222    7.5981352      758.67035     -25.115409      733.55494    
   1015000   292.5574       0.012897222    6.3791944      725.84296     -24.425181      701.41778    
   1016000   300.64222      0.012897222    8.4288624      745.90163     -28.006029      717.8956     
   1017000   304.27787      0.012897222    7.6200845      754.92178     -20.562457      734.35932    
   1018000   290.95056      0.012897222    6.7977157      721.85637     -22.353757      699.50261    
   1019000   298.09703      0.012897222    6.7322204      739.58695     -17.707248      721.8797     
   1020000   301.0465       0.012897222    7.9025193      746.90467     -19.26362       727.64105    
   1021000   299.5231       0.012897222    7.2156704      743.12507     -16.684123      726.44094    
   1022000   316.0667       0.012897222    5.0334566      784.1702      -16.527066      767.64314    
   1023000   301.91434      0.012897222    6.3920917      749.05779     -17.972878      731.08491    
   1024000   298.46234      0.012897222    7.8663755      740.49328     -21.305134      719.18815    
   1025000   300.5284       0.012897222    6.4111922      745.61924     -19.485018      726.13422    
   1026000   309.74639      0.012897222    3.8808527      768.48933     -21.06954       747.41979    
   1027000   296.16261      0.012897222    6.9572562      734.7876      -22.644853      712.14275    
   1028000   302.06095      0.012897222    7.8127221      749.42153     -22.490664      726.93087    
   1029000   318.45615      0.012897222    7.3009223      790.09848     -21.788356      768.31012    
   1030000   305.99771      0.012897222    5.3937055      759.18876     -20.430267      738.75849    
   1031000   290.849        0.012897222    6.5137638      721.60439     -20.659819      700.94457    
   1032000   312.24983      0.012897222    14.634543      774.70044     -21.406142      753.2943     
   1033000   295.76345      0.012897222    6.9712459      733.79728     -18.286017      715.51126    
   1034000   303.51414      0.012897222    5.6043244      753.02695     -19.147755      733.8792     
   1035000   298.51689      0.012897222    5.5883117      740.62863     -23.546865      717.08177    
   1036000   282.19656      0.012897222    9.1467145      700.13743     -21.586128      678.55131    
   1037000   297.22822      0.012897222    12.409467      737.43142     -24.431365      713.00005    
   1038000   309.38503      0.012897222    10.283073      767.59278     -23.677471      743.91531    
   1039000   293.76158      0.012897222    0.72427184     728.83057     -22.503428      706.32714    
   1040000   295.56231      0.012897222    3.6357487      733.29824     -22.280528      711.01771    
   1041000   306.04961      0.012897222    13.20186       759.31751     -21.800782      737.51673    
   1042000   305.20975      0.012897222    10.680701      757.2338      -24.163602      733.0702     
   1043000   297.98691      0.012897222   -0.43093495     739.31373     -26.506388      712.80734    
   1044000   290.65937      0.012897222    8.4713455      721.13391     -21.983133      699.15078    
   1045000   303.77765      0.012897222    9.1781467      753.68072     -17.336966      736.34376    
   1046000   302.84803      0.012897222    11.289342      751.37431     -15.67106       735.70325    
   1047000   304.13899      0.012897222    8.8451753      754.57721     -18.674297      735.90291    
   1048000   299.82816      0.012897222    1.9729528      743.88192     -17.504746      726.37718    
   1049000   295.46843      0.012897222    10.852562      733.06533     -16.541769      716.52356    
   1050000   312.19689      0.012897222    12.563669      774.5691      -17.408048      757.16105    
   1051000   307.0859       0.012897222    2.1990132      761.88859     -18.261977      743.62661    
   1052000   292.86669      0.012897222    0.11932998     726.61033     -15.723435      710.88689    
   1053000   297.03168      0.012897222    9.7527763      736.94378     -18.419044      718.52473    
   1054000   309.75098      0.012897222    11.179485      768.50072     -18.11014       750.39058    
   1055000   307.34086      0.012897222    6.9438533      762.52114     -16.78483       745.73631    
   1056000   301.4074       0.012897222   -3.4348372      747.80006     -18.861024      728.93903    
   1057000   306.65432      0.012897222    8.9539476      760.81783     -17.662112      743.15572    
   1058000   301.23749      0.012897222    9.3465249      747.37852     -18.599667      728.77885    
   1059000   304.8265       0.012897222   -1.4543315      756.28295     -19.458533      736.82441    
   1060000   290.69394      0.012897222    3.4776603      721.21968     -23.673109      697.54657    
   1061000   303.02846      0.012897222    12.043243      751.82196     -21.855593      729.96637    
   1062000   304.38583      0.012897222    1.3363936      755.18963     -22.634519      732.55511    
   1063000   298.64504      0.012897222    2.8508202      740.94658     -23.363827      717.58275    
   1064000   298.23525      0.012897222    7.2025556      739.92988     -22.628876      717.301      
   1065000   309.41309      0.012897222    12.886007      767.66241     -20.673423      746.98898    
   1066000   299.62161      0.012897222    8.6542476      743.36947     -21.55773       721.81174    
   1067000   295.71309      0.012897222    3.7227165      733.67232     -20.355654      713.31667    
   1068000   296.38873      0.012897222    4.4763211      735.3486      -19.433945      715.91465    
   1069000   290.37224      0.012897222    3.6185675      720.42154     -18.57032       701.85122    
   1070000   294.73367      0.012897222    9.0025988      731.24237     -17.091756      714.15061    
   1071000   314.17691      0.012897222    8.8515126      779.48157     -19.234861      760.24671    
   1072000   304.17439      0.012897222    7.1438423      754.66504     -19.358644      735.30639    
   1073000   288.43646      0.012897222    7.2210163      715.61881     -20.344388      695.27442    
   1074000   299.38081      0.012897222    11.167701      742.77204     -23.349732      719.42231    
   1075000   308.73088      0.012897222    5.3703427      765.96982     -25.500187      740.46964    
   1076000   304.24795      0.012897222    4.1414683      754.84755     -23.245295      731.60225    
   1077000   294.53979      0.012897222    6.697766       730.76133     -22.106061      708.65527    
   1078000   290.86279      0.012897222    8.1444687      721.63859     -22.025822      699.61277    
   1079000   315.54457      0.012897222    7.0630984      782.87477     -23.441224      759.43354    
   1080000   306.46432      0.012897222    6.4453676      760.34643     -22.194537      738.15189    
   1081000   291.16892      0.012897222    9.3490561      722.39812     -20.972145      701.42598    
   1082000   294.94798      0.012897222    8.8843591      731.77408     -19.209558      712.56452    
   1083000   300.19939      0.012897222    5.6586194      744.80296     -19.972977      724.82998    
   1084000   306.19992      0.012897222    5.9220395      759.69043     -13.97776       745.71267    
   1085000   285.21781      0.012897222    6.4065141      707.63324     -13.940173      693.69307    
   1086000   293.86989      0.012897222    8.4867589      729.09931     -16.848332      712.25097    
   1087000   304.21669      0.012897222    6.9421254      754.76998     -19.530926      735.23906    
   1088000   296.85606      0.012897222    8.7732444      736.50806     -19.064918      717.44315    
   1089000   302.15252      0.012897222    7.0334193      749.64873     -19.015828      730.6329     
   1090000   302.18184      0.012897222    6.3118708      749.72147     -19.230994      730.49047    
   1091000   295.31267      0.012897222    14.470351      732.67888     -22.667279      710.0116     
   1092000   292.27616      0.012897222    7.4023903      725.1452      -22.31749       702.82771    
   1093000   299.52159      0.012897222    4.7113267      743.12131     -25.21871       717.9026     
   1094000   305.21482      0.012897222    7.0742238      757.24639     -20.345619      736.90077    
   1095000   301.61211      0.012897222    7.1290053      748.30796     -17.582161      730.7258     
   1096000   295.12966      0.012897222    7.2811207      732.22483     -12.82593       719.3989     
   1097000   294.14386      0.012897222    7.2006789      729.77902     -16.619469      713.15955    
   1098000   302.85149      0.012897222    6.162966       751.38289     -15.223722      736.15917    
   1099000   310.11228      0.012897222    7.7867596      769.39711     -14.748678      754.64843    
   1100000   295.84978      0.012897222    6.910939       734.01146     -18.237936      715.77353    
   1101000   298.95959      0.012897222    4.1315166      741.72698     -17.73157       723.99541    
   1102000   300.61288      0.012897222    7.3979594      745.82883     -17.720773      728.10806    
   1103000   300.88106      0.012897222    8.4014472      746.4942      -18.947496      727.5467     
   1104000   289.52863      0.012897222    10.530578      718.32852     -19.392828      698.93569    
   1105000   310.21649      0.012897222    5.5123715      769.65566     -18.891356      750.7643     
   1106000   308.43292      0.012897222    6.6272968      765.23057     -15.560855      749.66972    
   1107000   305.30037      0.012897222    9.2694209      757.45863     -17.937628      739.521      
   1108000   286.82886      0.012897222    6.9320458      711.6303      -18.195697      693.4346     
   1109000   302.54757      0.012897222    4.9279642      750.62886     -15.825546      734.80331    
   1110000   305.97901      0.012897222    6.1396896      759.14237     -20.321184      738.82119    
   1111000   296.58562      0.012897222    9.6036244      735.83711     -17.083519      718.75359    
   1112000   313.12416      0.012897222    10.866289      776.86966     -12.527085      764.34258    
   1113000   285.90546      0.012897222    3.701497       709.33933     -17.885119      691.45421    
   1114000   289.58191      0.012897222    2.1589662      718.46069     -14.756597      703.7041     
   1115000   314.4106       0.012897222    4.2991409      780.06137     -20.399872      759.6615     
   1116000   324.6313       0.012897222   -4.2530378      805.4192      -24.01325       781.40595    
   1117000   300.00738      0.012897222    2.8686224      744.32659     -22.46559       721.861      
   1118000   306.77033      0.012897222    13.523562      761.10565     -23.207325      737.89833    
   1119000   303.6899       0.012897222    7.2618821      753.463       -23.564556      729.89845    
   1120000   299.69736      0.012897222    5.9201587      743.55742     -23.117337      720.44009    
   1121000   296.12618      0.012897222    6.7057198      734.69721     -23.199308      711.49791    
   1122000   310.94893      0.012897222    9.435433       771.47287     -20.410795      751.06207    
   1123000   302.01843      0.012897222    8.2068398      749.31606     -23.204426      726.11163    
   1124000   295.25604      0.012897222    4.8492396      732.53837     -21.952988      710.58538    
   1125000   310.39853      0.012897222    5.9376436      770.10731     -23.342313      746.765      
   1126000   298.00991      0.012897222    7.9340885      739.37081     -23.245924      716.12488    
   1127000   303.00951      0.012897222    7.8676429      751.77494     -19.006941      732.768      
   1128000   290.52134      0.012897222    3.4414002      720.79146     -19.531765      701.2597     
   1129000   307.77455      0.012897222    8.8258912      763.59713     -21.081687      742.51545    
   1130000   302.31329      0.012897222    7.5301375      750.04761     -21.980358      728.06725    
   1131000   305.74574      0.012897222    6.9206269      758.56362     -23.665245      734.89838    
   1132000   306.3767       0.012897222    7.3662763      760.12904     -18.793954      741.33509    
   1133000   304.99795      0.012897222    6.444372       756.70831     -20.353959      736.35436    
   1134000   297.54601      0.012897222    5.8626451      738.21986     -21.95673       716.26313    
   1135000   308.90258      0.012897222    6.8259362      766.39582     -26.128331      740.26749    
   1136000   307.50345      0.012897222    3.2567224      762.92454     -20.498079      742.42646    
   1137000   297.63112      0.012897222    7.4177159      738.43101     -18.150951      720.28006    
   1138000   318.00575      0.012897222    5.3528349      788.98103     -21.662732      767.31829    
   1139000   286.59327      0.012897222    3.026395       711.0458      -20.232106      690.8137     
   1140000   287.15408      0.012897222    6.6391691      712.43719     -21.141921      691.29527    
   1141000   307.52214      0.012897222    8.4618982      762.9709      -20.913155      742.05774    
   1142000   307.33895      0.012897222    5.6691377      762.51641     -16.361774      746.15463    
   1143000   294.44606      0.012897222    7.4547608      730.52879     -16.137846      714.39094    
   1144000   303.6564       0.012897222    8.1653119      753.37991     -19.452471      733.92744    
   1145000   321.76874      0.012897222    6.8328162      798.3171      -18.645856      779.67125    
   1146000   307.19026      0.012897222    7.4446615      762.14751     -17.603379      744.54413    
   1147000   284.427        0.012897222    6.6279205      705.67124     -17.763405      687.90783    
   1148000   299.78454      0.012897222    6.5202154      743.77371     -20.662162      723.11155    
   1149000   323.13844      0.012897222    4.0171625      801.71539     -19.922901      781.79249    
   1150000   308.69638      0.012897222    8.8347657      765.88422     -24.626321      741.2579     
   1151000   300.25524      0.012897222    8.2783876      744.94151     -20.837456      724.10406    
   1152000   280.75272      0.012897222    5.1702483      696.55524     -20.799155      675.75609    
   1153000   307.72804      0.012897222    4.3363057      763.48176     -21.22728       742.25448    
   1154000   311.19682      0.012897222    8.5834198      772.08788     -18.957742      753.13014    
   1155000   292.61422      0.012897222    6.8696507      725.98395     -20.148122      705.83582    
   1156000   287.39854      0.012897222    6.9137935      713.04371     -21.370651      691.67306    
   1157000   308.25793      0.012897222    5.5649313      764.79643     -21.863215      742.93322    
   1158000   314.82975      0.012897222    7.7179048      781.1013      -21.195026      759.90627    
   1159000   300.6991       0.012897222    8.5014893      746.04275     -21.685635      724.35711    
   1160000   298.48199      0.012897222    7.3211559      740.54204     -20.056796      720.48524    
   1161000   306.12602      0.012897222    6.2741965      759.50709     -19.935987      739.5711     
   1162000   303.8009       0.012897222    5.6172297      753.73841     -19.201979      734.53644    
   1163000   302.79766      0.012897222    6.7912303      751.24935     -19.520181      731.72916    
   1164000   297.00349      0.012897222    7.1756248      736.87385     -16.773325      720.10053    
   1165000   303.95162      0.012897222    7.8934399      754.11234     -16.835981      737.27635    
   1166000   302.79303      0.012897222    6.4151183      751.23785     -14.958698      736.27915    
   1167000   302.4245       0.012897222    6.7393351      750.32352     -18.229831      732.09369    
   1168000   301.02805      0.012897222    9.6340186      746.8589      -18.143232      728.71567    
   1169000   298.585        0.012897222    5.5172568      740.79762     -18.222497      722.57512    
   1170000   300.43067      0.012897222    6.0350757      745.37677     -21.17944       724.19733    
   1171000   303.12699      0.012897222    7.4979076      752.06641     -23.150081      728.91633    
   1172000   290.45914      0.012897222    3.9428044      720.63713     -20.534363      700.10277    
   1173000   306.32208      0.012897222    6.9740643      759.99353     -23.195492      736.79804    
   1174000   302.46033      0.012897222    7.0334819      750.41242     -21.853887      728.55853    
   1175000   299.27913      0.012897222    7.6561631      742.51977     -23.207704      719.31207    
   1176000   305.34659      0.012897222    8.4316828      757.57331     -21.101792      736.47152    
   1177000   304.64288      0.012897222    7.5853832      755.82739     -19.893051      735.93434    
   1178000   292.12519      0.012897222    4.9907114      724.77064     -21.620993      703.14965    
   1179000   302.00877      0.012897222    5.0457117      749.29209     -19.644876      729.64721    
   1180000   302.84247      0.012897222    9.3041447      751.36053     -18.633805      732.72672    
   1181000   300.48203      0.012897222    6.600408       745.50421     -20.136016      725.36819    
   1182000   299.59612      0.012897222    1.8112448      743.30624     -15.464296      727.84194    
   1183000   301.72584      0.012897222    5.3591929      748.59014     -19.246101      729.34404    
   1184000   300.2851       0.012897222    14.828488      745.0156      -21.118677      723.89692    
   1185000   309.52208      0.012897222    9.9030267      767.9328      -22.089528      745.84327    
   1186000   290.09209      0.012897222    7.1555526      719.72647     -21.127308      698.59917    
   1187000   290.87899      0.012897222    5.3368116      721.67879     -23.346214      698.33258    
   1188000   312.9415       0.012897222    7.2727364      776.41649     -20.60208       755.81441    
   1189000   312.06024      0.012897222    8.4451597      774.23005     -20.962353      753.2677     
   1190000   284.42456      0.012897222    5.7066115      705.66516     -17.314266      688.3509     
   1191000   290.5104       0.012897222    5.9632832      720.76432     -23.779897      696.98442    
   1192000   309.15485      0.012897222    7.0952995      767.02171     -22.051912      744.9698     
   1193000   302.83888      0.012897222    8.775145       751.35162     -19.481025      731.8706     
   1194000   300.10009      0.012897222    8.3322392      744.55659     -22.738114      721.81848    
   1195000   293.33778      0.012897222    6.5822434      727.77911     -23.721472      704.05763    
   1196000   311.54041      0.012897222    6.0868957      772.94036     -18.997308      753.94305    
   1197000   305.00926      0.012897222    7.6241847      756.73638     -20.678158      736.05823    
   1198000   307.8674       0.012897222    8.0280376      763.82749     -20.668846      743.15865    
   1199000   292.2612       0.012897222    5.7985676      725.1081      -22.105978      703.00213    
   1200000   303.41692      0.012897222    7.3969857      752.78575     -23.212767      729.57299    
   1201000   303.51572      0.012897222    4.8336869      753.03086     -19.523724      733.50713    
   1202000   295.1845       0.012897222    4.213764       732.36088     -21.625256      710.73562    
   1203000   291.40505      0.012897222    4.1063721      722.98395     -17.317909      705.66604    
   1204000   288.93325      0.012897222    11.452395      716.85136     -14.984008      701.86735    
   1205000   307.4672       0.012897222    9.8121691      762.8346      -12.69654       750.13806    
   1206000   305.93134      0.012897222    7.2106062      759.0241      -14.85385       744.17025    
   1207000   290.04979      0.012897222    5.1392305      719.62154     -12.828444      706.79309    
   1208000   306.18908      0.012897222    10.936841      759.66355     -13.863584      745.79997    
   1209000   311.75417      0.012897222    5.7981442      773.47068     -16.758601      756.71208    
   1210000   295.23426      0.012897222   -4.4997758      732.48433     -17.64018       714.84415    
   1211000   296.62498      0.012897222    6.131028       735.93475     -20.61891       715.31584    
   1212000   305.09229      0.012897222    11.32053       756.94239     -21.95032       734.99207    
   1213000   299.53489      0.012897222   -6.3440457      743.15431     -19.552399      723.60191    
   1214000   296.58685      0.012897222    8.3702038      735.84015     -22.793558      713.04659    
   1215000   309.62579      0.012897222    14.199136      768.19012     -25.28608       742.90404    
   1216000   304.44489      0.012897222    8.3651429      755.33617     -21.958569      733.3776     
   1217000   298.8493       0.012897222    5.841241       741.45334     -21.634253      719.81909    
   1218000   287.96373      0.012897222    8.883524       714.44596     -25.39055       689.05541    
   1219000   294.57736      0.012897222    9.1811737      730.85456     -24.260259      706.5943     
   1220000   300.77512      0.012897222    8.9384411      746.23136     -18.690576      727.54078    
   1221000   309.74243      0.012897222    7.3989028      768.47952     -24.575632      743.90389    
   1222000   310.6943       0.012897222    5.4647852      770.84113     -23.95326       746.88787    
   1223000   284.3924       0.012897222    4.928046       705.58538     -21.234304      684.35107    
   1224000   284.5088       0.012897222    8.2225275      705.87418     -21.948262      683.92592    
   1225000   309.07375      0.012897222    7.0574392      766.8205      -22.874222      743.94628    
   1226000   296.58186      0.012897222    5.2614491      735.82777     -18.164365      717.6634     
   1227000   287.06923      0.012897222    8.2602053      712.22668     -18.108155      694.11853    
   1228000   305.66205      0.012897222    8.4006387      758.35598     -19.457123      738.89886    
   1229000   310.30904      0.012897222    6.9038517      769.88527     -21.250796      748.63447    
   1230000   293.57058      0.012897222    5.2146416      728.3567      -23.272625      705.08407    
   1231000   278.77374      0.012897222    8.2649035      691.64534     -26.731714      664.91363    
   1232000   305.19853      0.012897222    9.2557437      757.20597     -25.922303      731.28367    
   1233000   307.01944      0.012897222    5.1077075      761.72369     -25.92178       735.80191    
   1234000   304.24079      0.012897222    5.2743919      754.82979     -25.764948      729.06484    
   1235000   287.03939      0.012897222    8.6592467      712.15264     -25.349805      686.80283    
   1236000   292.55674      0.012897222    11.26904       725.84134     -26.802775      699.03857    
   1237000   309.04855      0.012897222    5.5564304      766.75796     -26.16263       740.59533    
   1238000   308.0976       0.012897222    2.5720662      764.39863     -24.278129      740.1205     
   1239000   292.90853      0.012897222    8.8994687      726.71415     -22.82184       703.89231    
   1240000   290.50548      0.012897222    8.3701526      720.7521      -27.31719       693.43491    
   1241000   300.32498      0.012897222    9.0973498      745.11456     -28.073436      717.04113    
   1242000   315.38432      0.012897222    7.1968568      782.47719     -26.752009      755.72518    
   1243000   299.47782      0.012897222    7.7466993      743.01274     -26.668169      716.34457    
   1244000   299.80208      0.012897222    6.8240676      743.81722     -27.452804      716.36442    
   1245000   299.59337      0.012897222    8.4223094      743.29941     -25.843152      717.45626    
   1246000   304.53154      0.012897222    10.112281      755.55114     -20.174732      735.37641    
   1247000   306.42216      0.012897222    6.7467623      760.24182     -25.184796      735.05702    
   1248000   288.06593      0.012897222    5.6710307      714.69952     -25.651643      689.04788    
   1249000   298.5153       0.012897222    5.1224576      740.62469     -24.537489      716.08721    
   1250000   301.24322      0.012897222    7.3152907      747.39274     -22.527078      724.86567    
   1251000   297.83608      0.012897222    6.2887856      738.93953     -23.34136       715.59817    
   1252000   291.94736      0.012897222    5.4180785      724.32944     -26.787025      697.54241    
   1253000   295.59161      0.012897222    8.0952906      733.37093     -24.963935      708.40699    
   1254000   299.68499      0.012897222    6.360571       743.52671     -28.410474      715.11624    
   1255000   302.94782      0.012897222    6.1644159      751.62189     -25.839479      725.78241    
   1256000   302.42115      0.012897222    9.430976       750.3152      -27.702231      722.61297    
   1257000   305.6326       0.012897222    7.7669499      758.28291     -28.456086      729.82683    
   1258000   293.67025      0.012897222    6.8448703      728.60398     -25.21168       703.3923     
   1259000   300.24977      0.012897222    6.4159115      744.92796     -28.210084      716.71788    
   1260000   291.17643      0.012897222    7.5482693      722.41675     -23.720809      698.69594    
   1261000   297.46057      0.012897222    7.2416533      738.00788     -27.219535      710.78834    
   1262000   303.01058      0.012897222    6.6088859      751.77759     -21.487106      730.29049    
   1263000   293.76827      0.012897222    8.1287385      728.84718     -20.791165      708.05602    
   1264000   298.77546      0.012897222    8.1091594      741.27015     -24.366409      716.90374    
   1265000   310.43628      0.012897222    5.8824424      770.20097     -24.161367      746.0396     
   1266000   290.91629      0.012897222    6.2006046      721.77134     -24.338776      697.43256    
   1267000   292.39963      0.012897222    7.0111439      725.45155     -22.883907      702.56764    
   1268000   306.00942      0.012897222    8.329047       759.21781     -23.618712      735.5991     
   1269000   312.01781      0.012897222    7.1937222      774.1248      -28.978351      745.14645    
   1270000   284.1806       0.012897222    5.7472711      705.05991     -25.851642      679.20827    
   1271000   293.93935      0.012897222    6.2476171      729.27163     -24.599158      704.67247    
   1272000   306.23102      0.012897222    6.788198       759.7676      -25.845872      733.92173    
   1273000   300.29927      0.012897222    7.1362559      745.05076     -25.22065       719.83011    
   1274000   291.14644      0.012897222    6.4810703      722.34235     -27.981224      694.36113    
   1275000   313.70848      0.012897222    5.9018084      778.31939     -29.615149      748.70424    
   1276000   304.47486      0.012897222    7.0442219      755.41051     -33.332412      722.0781     
   1277000   273.20929      0.012897222    5.9203252      677.83978     -32.3872        645.45258    
   1278000   302.29486      0.012897222    5.4940202      750.00187     -34.54934       715.45253    
   1279000   310.74312      0.012897222    8.5935821      770.96224     -29.686863      741.27537    
   1280000   291.68229      0.012897222    7.1019246      723.6718      -30.536622      693.13518    
   1281000   290.12646      0.012897222    2.750933       719.81173     -28.913997      690.89774    
   1282000   312.182        0.012897222    8.6350399      774.53215     -24.205483      750.32667    
   1283000   302.80575      0.012897222    11.594517      751.26941     -26.376079      724.89333    
   1284000   282.41239      0.012897222    9.6537742      700.67293     -26.487708      674.18522    
   1285000   295.98595      0.012897222    1.6138485      734.3493      -23.848004      710.50129    
   1286000   318.26938      0.012897222    6.6385478      789.63511     -27.182806      762.4523     
   1287000   300.2457       0.012897222    9.1246717      744.91786     -26.304161      718.6137     
   1288000   291.10309      0.012897222   -1.4817556      722.23479     -28.835621      693.39917    
   1289000   299.13829      0.012897222    6.7971902      742.17033     -28.80898       713.36135    
   1290000   304.6203       0.012897222    14.4277        755.77136     -28.631734      727.13962    
   1291000   293.33123      0.012897222    4.5303863      727.76287     -26.382043      701.38083    
   1292000   307.76239      0.012897222    8.2798041      763.56697     -23.407307      740.15966    
   1293000   295.9603       0.012897222    10.403987      734.28566     -29.15798       705.12768    
   1294000   297.80721      0.012897222    5.5610218      738.8679      -31.572183      707.29572    
   1295000   303.09396      0.012897222    6.3755571      751.98448     -29.540276      722.4442     
   1296000   305.23679      0.012897222    7.6188419      757.30088     -27.276559      730.02432    
   1297000   283.45355      0.012897222    9.0984627      703.25607     -24.180837      679.07523    
   1298000   285.99316      0.012897222    5.806056       709.55692     -22.950114      686.60681    
   1299000   313.93352      0.012897222    7.118885       778.87772     -24.220255      754.65747    
   1300000   294.11895      0.012897222    6.1058445      729.71721     -19.160524      710.55669    
   1301000   294.44541      0.012897222    6.8462833      730.52717     -22.851459      707.67571    
   1302000   313.42154      0.012897222    5.9938345      777.60749     -25.534719      752.07277    
   1303000   317.88604      0.012897222    7.6058401      788.68403     -28.213007      760.47102    
   1304000   303.89737      0.012897222    6.9672141      753.97774     -27.255953      726.72179    
   1305000   284.20429      0.012897222    6.9298712      705.11867     -31.41697       673.7017     
   1306000   295.14714      0.012897222    7.5844903      732.26819     -30.408599      701.85959    
   1307000   323.06272      0.012897222    6.1512204      801.5275      -28.237474      773.29003    
   1308000   303.65148      0.012897222    6.5883038      753.36769     -24.445164      728.92252    
   1309000   296.34566      0.012897222    6.3195351      735.24176     -25.084111      710.15765    
   1310000   288.77076      0.012897222    6.8858652      716.44822     -27.169736      689.27849    
   1311000   310.38872      0.012897222    7.456906       770.08298     -24.186777      745.8962     
   1312000   318.37988      0.012897222    7.8762155      789.90925     -25.152009      764.75724    
   1313000   286.71133      0.012897222    8.693643       711.33872     -27.292701      684.04602    
   1314000   288.29665      0.012897222    5.7789768      715.27195     -26.483723      688.78822    
   1315000   298.89522      0.012897222    4.5433003      741.56729     -24.446449      717.12084    
   1316000   311.65172      0.012897222    6.7471506      773.21651     -22.015558      751.20096    
   1317000   299.64712      0.012897222    7.9114446      743.43275     -21.068314      722.36444    
   1318000   291.05542      0.012897222    6.555623       722.11652     -23.97875       698.13777    
   1319000   297.50885      0.012897222    6.7564015      738.12765     -21.784863      716.34279    
   1320000   304.66261      0.012897222    5.3619667      755.87633     -22.159168      733.71716    
   1321000   309.78826      0.012897222    9.6321379      768.5932      -21.378908      747.21429    
   1322000   287.22397      0.012897222    7.2633438      712.6106      -18.760162      693.85044    
   1323000   300.08652      0.012897222    4.5426312      744.52292     -24.86458       719.65834    
   1324000   297.22617      0.012897222    14.31922       737.42632     -24.7317        712.69462    
   1325000   294.86799      0.012897222    4.6207986      731.5756      -28.132425      703.44318    
   1326000   295.96775      0.012897222    2.7051948      734.30414     -25.367879      708.93626    
   1327000   314.35442      0.012897222    4.8375783      779.92198     -26.500456      753.42152    
   1328000   300.58596      0.012897222    13.477614      745.76204     -22.703691      723.05835    
   1329000   295.69638      0.012897222    0.4878012      733.63088     -23.127872      710.503      
   1330000   297.7587       0.012897222    9.1864688      738.74754     -22.948607      715.79893    
   1331000   295.23628      0.012897222    7.3242964      732.48934     -22.864644      709.6247     
   1332000   295.41255      0.012897222    0.95972584     732.92667     -26.047187      706.87949    
   1333000   299.40493      0.012897222    7.7068156      742.83189     -23.487252      719.34464    
   1334000   319.15444      0.012897222    7.3104345      791.83096     -22.812529      769.01843    
   1335000   304.83         0.012897222    8.756086       756.29164     -23.543913      732.74773    
   1336000   295.96525      0.012897222    8.3802857      734.29793     -21.138158      713.15977    
   1337000   291.57458      0.012897222    8.8840975      723.40458     -18.564869      704.83971    
   1338000   291.55815      0.012897222   -0.66811809     723.36381     -22.537702      700.82611    
   1339000   312.77125      0.012897222    9.3184412      775.9941      -22.710706      753.28339    
   1340000   303.87069      0.012897222    11.210681      753.91156     -22.398239      731.51332    
   1341000   280.71311      0.012897222    5.7432803      696.45697     -19.221465      677.2355     
   1342000   304.29045      0.012897222    4.0695966      754.95299     -22.391012      732.56198    
   1343000   306.43507      0.012897222    5.6458195      760.27385     -22.935663      737.33818    
   1344000   299.27056      0.012897222    6.561464       742.4985      -25.442493      717.05601    
   1345000   297.51512      0.012897222    11.700736      738.14321     -19.811724      718.33149    
   1346000   296.50337      0.012897222    4.414593       735.63303     -17.586837      718.04619    
   1347000   300.87031      0.012897222    3.8690638      746.46753     -17.952306      728.51522    
   1348000   302.58799      0.012897222    8.6694309      750.72914     -13.931216      736.79793    
   1349000   304.05581      0.012897222    15.099157      754.37084     -17.541404      736.82943    
   1350000   291.30781      0.012897222    9.8406879      722.74271     -16.374934      706.36778    
   1351000   297.35637      0.012897222    5.0309719      737.74935     -16.263835      721.48552    
   1352000   329.58607      0.012897222    14.070257      817.71212     -17.336912      800.37521    
   1353000   302.82534      0.012897222    6.9679124      751.31802     -18.97353       732.34449    
   1354000   290.71107      0.012897222    6.5177697      721.26218     -26.157521      695.10466    
   1355000   289.10027      0.012897222    6.878097       717.26574     -24.344186      692.92155    
   1356000   308.5493       0.012897222    6.9477134      765.51932     -21.72502       743.7943     
   1357000   300.25489      0.012897222    7.0978474      744.94065     -20.40467       724.53598    
   1358000   295.40292      0.012897222    6.1734265      732.90278     -19.323635      713.57914    
   1359000   302.96541      0.012897222    6.5904485      751.66553     -20.202825      731.4627     
   1360000   305.30514      0.012897222    8.2119459      757.47047     -20.774633      736.69584    
   1361000   294.4719       0.012897222    7.1958924      730.59289     -23.030622      707.56227    
   1362000   299.49899      0.012897222    5.9286667      743.06526     -25.416585      717.64867    
   1363000   290.90514      0.012897222    5.5728752      721.74366     -26.019204      695.72446    
   1364000   286.29527      0.012897222    7.7412673      710.30646     -26.706329      683.60013    
   1365000   309.57131      0.012897222    10.779424      768.05496     -25.119264      742.93569    
   1366000   307.57151      0.012897222    5.5705914      763.0934      -26.73028       736.36312    
   1367000   291.75047      0.012897222    6.0122686      723.84095     -29.408516      694.43244    
   1368000   301.81471      0.012897222    7.0148115      748.81062     -30.54239       718.26823    
   1369000   304.75942      0.012897222    7.3952049      756.11653     -26.300191      729.81634    
   1370000   300.33357      0.012897222    7.1476924      745.13585     -26.543921      718.59193    
   1371000   303.56131      0.012897222    7.3740733      753.14397     -23.213967      729.93       
   1372000   302.09323      0.012897222    6.7918917      749.50164     -22.193871      727.30776    
   1373000   292.87147      0.012897222    5.7261409      726.62219     -23.545516      703.07667    
   1374000   297.85728      0.012897222    7.0608674      738.99211     -24.658701      714.33341    
   1375000   309.04967      0.012897222    6.983339       766.76075     -26.085108      740.67564    
   1376000   307.23734      0.012897222    6.5947199      762.26431     -23.317568      738.94674    
   1377000   284.12444      0.012897222    6.685671       704.92056     -23.072672      681.84789    
   1378000   303.60935      0.012897222    5.5434713      753.26316     -22.174352      731.08881    
   1379000   313.08112      0.012897222    6.5919023      776.76288     -23.935151      752.82773    
   1380000   299.89178      0.012897222    8.0164931      744.03978     -22.550013      721.48977    
   1381000   309.15748      0.012897222    11.336193      767.02823     -19.848365      747.17986    
   1382000   296.86101      0.012897222    4.7964706      736.52035     -20.154265      716.36609    
   1383000   288.68061      0.012897222    7.9939706      716.22454     -20.017885      696.20666    
   1384000   314.27027      0.012897222    13.934993      779.71321     -20.975328      758.73788    
   1385000   308.2285       0.012897222    6.2224564      764.72341     -16.35174       748.37167    
   1386000   293.56657      0.012897222    2.7764712      728.34675     -15.733771      712.61298    
   1387000   304.57743      0.012897222    9.9717399      755.66501     -18.323358      737.34165    
   1388000   297.38245      0.012897222    9.0586025      737.81406     -20.236197      717.57787    
   1389000   305.93103      0.012897222    3.2638834      759.02333     -25.50831       733.51502    
   1390000   317.89035      0.012897222    3.7268637      788.69472     -29.632447      759.06227    
   1391000   292.44909      0.012897222    4.0805021      725.57424     -21.813183      703.76106    
   1392000   288.00079      0.012897222    7.1043265      714.53789     -24.221399      690.31649    
   1393000   300.08753      0.012897222    8.8735519      744.52544     -19.677849      724.8476     
   1394000   314.40417      0.012897222    5.1950838      780.04542     -18.404932      761.64049    
   1395000   301.43136      0.012897222    6.4414345      747.85952     -21.867236      725.99228    
   1396000   291.28482      0.012897222    7.4056579      722.68567     -23.136658      699.54902    
   1397000   304.59621      0.012897222    8.5548429      755.7116      -18.16415       737.54745    
   1398000   312.11123      0.012897222    7.6274656      774.35657     -18.399207      755.95737    
   1399000   298.29626      0.012897222    6.2822388      740.08126     -21.443299      718.63796    
   1400000   293.35136      0.012897222    6.4978661      727.81281     -17.424561      710.38825    
   1401000   305.09431      0.012897222    6.6409649      756.9474      -23.157457      733.78995    
   1402000   304.69046      0.012897222    6.9247759      755.94544     -22.487234      733.4582     
   1403000   296.20897      0.012897222    7.1531148      734.90262     -27.906179      706.99644    
   1404000   288.506        0.012897222    7.1883612      715.79134     -26.573476      689.21786    
   1405000   302.47369      0.012897222    6.8516699      750.44556     -27.176097      723.26947    
   1406000   300.86605      0.012897222    7.0637032      746.45696     -31.342861      715.1141     
   1407000   291.30126      0.012897222    7.3887446      722.72645     -25.472251      697.2542     
   1408000   304.818        0.012897222    6.5901003      756.26187     -29.889847      726.37202    
   1409000   306.77671      0.012897222    6.3917937      761.12147     -23.112298      738.00917    
   1410000   294.63398      0.012897222    7.5163908      730.99502     -21.243392      709.75162    
   1411000   288.91552      0.012897222    6.4828451      716.80736     -28.351322      688.45604    
   1412000   311.80339      0.012897222    9.0055895      773.59281     -27.366479      746.22633    
   1413000   291.02016      0.012897222    6.350704       722.02903     -28.209455      693.81958    
   1414000   300.21201      0.012897222    7.7787408      744.83427     -24.035551      720.79872    
   1415000   302.78776      0.012897222    6.9008304      751.22477     -21.908548      729.31622    
   1416000   307.69441      0.012897222    3.6484105      763.39831     -22.483782      740.91452    
   1417000   292.43534      0.012897222    5.7655748      725.54015     -23.323086      702.21707    
   1418000   280.32232      0.012897222    9.7874729      695.4874      -19.240912      676.24649    
   1419000   302.18234      0.012897222    7.4392589      749.72271     -23.928124      725.79458    
   1420000   311.69433      0.012897222    5.157723       773.32222     -28.99299       744.32923    
   1421000   289.72145      0.012897222    5.1558789      718.80691     -25.950891      692.85602    
   1422000   284.65431      0.012897222    7.3861043      706.23519     -25.155215      681.07998    
   1423000   317.65344      0.012897222    6.4240131      788.10694     -20.944473      767.16247    
   1424000   300.16055      0.012897222    7.4523661      744.70659     -21.803574      722.90302    
   1425000   289.5625       0.012897222    6.628441       718.41255     -20.016647      698.39591    
   1426000   304.86319      0.012897222    7.0238628      756.37398     -22.935002      733.43897    
   1427000   323.80981      0.012897222    9.5001491      803.38107     -22.955112      780.42595    
   1428000   284.62383      0.012897222    8.8323688      706.15958     -23.736386      682.42319    
   1429000   290.19924      0.012897222    6.6876157      719.99231     -23.141882      696.85043    
   1430000   292.41367      0.012897222    7.0940631      725.48636     -22.141158      703.34521    
   1431000   301.7287       0.012897222    7.4927261      748.59723     -19.993063      728.60417    
   1432000   301.14619      0.012897222    7.000144       747.152       -21.099939      726.05206    
   1433000   295.59989      0.012897222    6.1007952      733.39148     -24.94288       708.4486     
   1434000   297.62592      0.012897222    7.836647       738.41812     -25.583781      712.83434    
   1435000   297.9351       0.012897222    7.1264138      739.18519     -23.514367      715.67082    
   1436000   309.81363      0.012897222    6.3285799      768.65615     -21.242885      747.41327    
   1437000   313.22042      0.012897222    6.3286048      777.10849     -21.725983      755.38251    
   1438000   284.56459      0.012897222    4.7408869      706.01259     -20.135312      685.87728    
   1439000   293.79857      0.012897222    7.2505441      728.92236     -20.758365      708.16399    
   1440000   308.31112      0.012897222    7.8556455      764.9284      -23.596067      741.33233    
   1441000   303.38476      0.012897222    7.0218508      752.70594     -21.56069       731.14525    
   1442000   300.37855      0.012897222    4.6823064      745.24747     -22.759612      722.48786    
   1443000   290.90927      0.012897222    7.3224542      721.75392     -24.47631       697.27761    
   1444000   308.69355      0.012897222    9.0160248      765.87722     -24.404152      741.47306    
   1445000   298.7825       0.012897222    4.0450476      741.28761     -22.442965      718.84464    
   1446000   291.39197      0.012897222    7.0728806      722.95151     -25.667717      697.28379    
   1447000   294.16987      0.012897222    6.1597016      729.84355     -23.935266      705.90828    
   1448000   302.80955      0.012897222    8.4465149      751.27883     -24.459424      726.81941    
   1449000   308.45919      0.012897222    7.4093836      765.29576     -27.645995      737.64976    
   1450000   302.68994      0.012897222    5.1562206      750.98209     -26.575829      724.40626    
   1451000   289.96972      0.012897222    6.202221       719.42287     -27.976482      691.44638    
   1452000   316.48324      0.012897222    9.3714822      785.20364     -23.643421      761.56022    
   1453000   303.20437      0.012897222    7.0253681      752.25839     -24.436824      727.82156    
   1454000   278.21043      0.012897222    3.7074512      690.24776     -22.098314      668.14944    
   1455000   305.15855      0.012897222    7.2769069      757.10677     -22.974247      734.13252    
   1456000   304.22902      0.012897222    8.1950272      754.80059     -22.915852      731.88474    
   1457000   297.23662      0.012897222    6.6368788      737.45226     -25.246113      712.20614    
   1458000   305.92124      0.012897222    2.9323854      758.99903     -28.730683      730.26835    
   1459000   305.99116      0.012897222    6.802167       759.1725      -28.734388      730.43811    
   1460000   308.96312      0.012897222    9.2418633      766.54602     -32.298335      734.24769    
   1461000   315.89394      0.012897222    0.83542757     783.74158     -25.924267      757.81731    
   1462000   285.24847      0.012897222    1.5605578      707.70933     -27.162671      680.54666    
   1463000   292.96303      0.012897222    8.9405635      726.84936     -25.407909      701.44145    
   1464000   315.67382      0.012897222    4.9023286      783.19544     -25.525799      757.66964    
   1465000   297.08541      0.012897222    1.6608306      737.07709     -23.554082      713.52301    
   1466000   285.68898      0.012897222    7.1548937      708.80223     -27.656071      681.14616    
   1467000   311.34585      0.012897222    11.246302      772.45764     -25.268782      747.18886    
   1468000   311.513        0.012897222    13.231916      772.87233     -22.23467       750.63766    
   1469000   304.77133      0.012897222    6.0589497      756.14607     -22.37689       733.76918    
   1470000   275.30877      0.012897222    6.0026713      683.04864     -22.208435      660.84021    
   1471000   290.66455      0.012897222    8.0892094      721.14675     -21.779569      699.36719    
   1472000   314.4829       0.012897222    9.8313574      780.24073     -24.966242      755.27449    
   1473000   312.43176      0.012897222    3.0419271      775.1518      -25.847128      749.30468    
   1474000   290.31117      0.012897222    7.0398883      720.27002     -22.2445        698.02552    
   1475000   303.60585      0.012897222    7.9921989      753.25449     -21.455479      731.79901    
   1476000   304.70878      0.012897222    7.157101       755.99088     -23.334511      732.65637    
   1477000   302.93396      0.012897222    7.2853659      751.58751     -21.749585      729.83793    
   1478000   284.45045      0.012897222    5.8531803      705.7294      -18.940847      686.78855    
   1479000   292.38366      0.012897222    6.0499452      725.41192     -20.162915      705.249      
   1480000   304.75992      0.012897222    7.2830277      756.11776     -23.350904      732.76685    
   1481000   297.67885      0.012897222    8.1455353      738.54942     -24.153399      714.39602    
   1482000   292.81807      0.012897222    6.8872539      726.48971     -26.206168      700.28354    
   1483000   296.22894      0.012897222    8.2975913      734.95216     -24.382722      710.56944    
   1484000   301.2447       0.012897222    7.4690061      747.39639     -28.027608      719.36879    
   1485000   317.17572      0.012897222    7.358347       786.92169     -26.884616      760.03708    
   1486000   290.00745      0.012897222    6.3018699      719.51649     -29.159608      690.35688    
   1487000   287.47445      0.012897222    5.9069756      713.23204     -27.774999      685.45704    
   1488000   305.71603      0.012897222    6.6414138      758.4899      -26.813979      731.67592    
   1489000   307.54532      0.012897222    8.7645187      763.02841     -24.936913      738.09149    
   1490000   311.79592      0.012897222    7.3214117      773.57427     -23.512733      750.06153    
   1491000   291.43232      0.012897222    7.9397512      723.05163     -25.996436      697.05519    
   1492000   282.93625      0.012897222    4.4767579      701.97265     -25.524165      676.44848    
   1493000   294.04533      0.012897222    3.2541035      729.53457     -26.613761      702.92081    
   1494000   309.61268      0.012897222    7.3013468      768.1576      -31.865384      736.29222    
   1495000   307.70358      0.012897222    6.6979102      763.42107     -30.033496      733.38758    
   1496000   290.07017      0.012897222    5.8182068      719.67209     -28.678083      690.99401    
   1497000   293.49836      0.012897222    7.5938588      728.17753     -29.961482      698.21604    
   1498000   324.40686      0.012897222    6.8854931      804.86235     -27.933164      776.92919    
   1499000   290.73157      0.012897222    6.2298955      721.31304     -29.28523       692.02781    
   1500000   288.46686      0.012897222    1.471007       715.69422     -24.121597      691.57262    
   1501000   303.83177      0.012897222    9.7105134      753.815       -22.756686      731.05832    
   1502000   296.43284      0.012897222    7.7881014      735.45804     -29.61341       705.84463    
   1503000   297.09471      0.012897222    2.1685664      737.10017     -27.521362      709.57881    
   1504000   283.53194      0.012897222    10.417184      703.45056     -23.943184      679.50738    
   1505000   318.80473      0.012897222    6.3962303      790.96332     -29.37453       761.58879    
   1506000   295.06969      0.012897222    6.3961215      732.07603     -29.710164      702.36586    
   1507000   292.76978      0.012897222    14.005358      726.36989     -30.847256      695.52264    
   1508000   308.82833      0.012897222    5.8081884      766.21159     -27.007345      739.20425    
   1509000   293.83031      0.012897222    2.3537946      729.0011      -30.411931      698.58917    
   1510000   293.42985      0.012897222    9.794813       728.00756     -25.990049      702.01751    
   1511000   310.4576       0.012897222    9.1540543      770.25387     -23.752049      746.50182    
   1512000   308.35887      0.012897222    5.361845       765.04685     -22.795779      742.25107    
   1513000   289.8593       0.012897222    6.8400859      719.14891     -22.709814      696.4391     
   1514000   299.89573      0.012897222    7.439811       744.04958     -23.131658      720.91792    
   1515000   304.7056       0.012897222    6.6075635      755.983       -27.757387      728.22562    
   1516000   304.19678      0.012897222    6.8635415      754.72059     -26.442078      728.27851    
   1517000   301.59832      0.012897222    7.6217851      748.27374     -28.518181      719.75556    
   1518000   297.70034      0.012897222    9.5710689      738.60276     -27.354375      711.24838    
   1519000   307.82553      0.012897222    5.3803153      763.72363     -27.626347      736.09728    
   1520000   302.97499      0.012897222    4.0215971      751.68929     -26.244655      725.44464    
   1521000   304.84373      0.012897222    6.0721832      756.3257      -26.830549      729.49515    
   1522000   286.96176      0.012897222    9.1367863      711.96004     -24.28194       687.6781     
   1523000   295.58322      0.012897222    7.3720486      733.35011     -26.56737       706.78274    
   1524000   312.30525      0.012897222    7.283503       774.83792     -20.008017      754.82991    
   1525000   308.79367      0.012897222    7.7107         766.12561     -22.773515      743.35209    
   1526000   286.69         0.012897222    7.2322939      711.2858      -20.472583      690.81322    
   1527000   304.15707      0.012897222    8.1380121      754.62209     -22.937133      731.68495    
   1528000   306.78496      0.012897222    5.6671719      761.14195     -20.625705      740.51624    
   1529000   294.66922      0.012897222    8.6007559      731.08246     -20.367291      710.71517    
   1530000   304.86262      0.012897222    6.4753086      756.37256     -24.223066      732.14949    
   1531000   295.0173       0.012897222    6.5419314      731.94605     -22.799663      709.14639    
   1532000   300.29218      0.012897222    6.8909867      745.03317     -20.914338      724.11883    
   1533000   304.91922      0.012897222    6.7861605      756.51298     -22.816851      733.69613    
   1534000   314.13664      0.012897222    7.9383161      779.38166     -21.894807      757.48685    
   1535000   306.85365      0.012897222    7.9218174      761.31238     -24.673115      736.63926    
   1536000   293.72318      0.012897222    6.8003101      728.7353      -28.384629      700.35067    
   1537000   302.78574      0.012897222    7.8940654      751.21975     -23.574169      727.64559    
   1538000   310.0446       0.012897222    9.0244484      769.22919     -23.692112      745.53708    
   1539000   297.04485      0.012897222    5.9410668      736.97647     -22.029434      714.94704    
   1540000   289.47973      0.012897222    3.5434648      718.20719     -23.801324      694.40586    
   1541000   306.53616      0.012897222    8.575953       760.52467     -24.159641      736.36502    
   1542000   307.43802      0.012897222    6.5906113      762.76221     -25.919606      736.8426     
   1543000   294.31412      0.012897222    6.6391335      730.20146     -25.53078       704.67068    
   1544000   285.37798      0.012897222    6.2954006      708.03063     -22.254226      685.7764     
   1545000   302.80041      0.012897222    5.8536798      751.25617     -26.258704      724.99746    
   1546000   284.85936      0.012897222    6.6198861      706.74393     -25.284898      681.45903    
   1547000   299.96961      0.012897222    7.2455165      744.23288     -24.952187      719.28069    
   1548000   314.6052       0.012897222    7.6695015      780.54416     -24.484962      756.0592     
   1549000   301.2522       0.012897222    6.0553295      747.41501     -23.070736      724.34427    
   1550000   297.39269      0.012897222    6.9729378      737.83946     -26.445919      711.39354    
   1551000   294.95498      0.012897222    6.0923205      731.79144     -21.787452      710.00399    
   1552000   302.75649      0.012897222    7.404125       751.14721     -20.816179      730.33103    
   1553000   297.56034      0.012897222    8.5885343      738.25541     -22.46995       715.78546    
   1554000   297.90921      0.012897222    6.3133596      739.12095     -24.75877       714.36218    
   1555000   298.76803      0.012897222    6.9364443      741.25172     -21.685731      719.56599    
   1556000   297.38651      0.012897222    8.2850263      737.82414     -22.770105      715.05403    
   1557000   294.3572       0.012897222    5.8296216      730.30834     -20.799245      709.50909    
   1558000   310.52025      0.012897222    7.2851775      770.4093      -20.899033      749.51027    
   1559000   301.95918      0.012897222    6.791947       749.16906     -21.046317      728.12274    
   1560000   291.05167      0.012897222    6.566115       722.10721     -25.91483       696.19238    
   1561000   294.72708      0.012897222    7.7121197      731.22602     -27.134894      704.09112    
   1562000   299.53177      0.012897222    6.5916106      743.14659     -30.138244      713.00834    
   1563000   301.47831      0.012897222    6.1774168      747.976       -23.871866      724.10413    
   1564000   305.08518      0.012897222    7.7164464      756.92473     -22.163193      734.76154    
   1565000   285.23789      0.012897222    5.6667114      707.68307     -22.105727      685.57735    
   1566000   297.77727      0.012897222    7.7340363      738.7936      -29.556466      709.23714    
   1567000   304.48824      0.012897222    8.4004974      755.44373     -26.546839      728.89689    
   1568000   309.99296      0.012897222    7.4703146      769.10107     -28.83332       740.26775    
   1569000   291.85438      0.012897222    9.006917       724.09877     -25.759114      698.33965    
   1570000   297.27337      0.012897222    6.7187496      737.54342     -28.000192      709.54323    
   1571000   305.32159      0.012897222    6.7666893      757.51129     -26.173473      731.33782    
   1572000   307.25146      0.012897222    8.3094434      762.29935     -26.23279       736.06656    
   1573000   290.49517      0.012897222    6.4069304      720.72652     -22.260781      698.46574    
   1574000   304.12373      0.012897222    5.9253418      754.53934     -20.12508       734.41427    
   1575000   303.55239      0.012897222    8.4074816      753.12185     -21.399765      731.72209    
   1576000   304.44626      0.012897222    6.325596       755.33955     -16.96551       738.37404    
   1577000   299.133        0.012897222    3.9883471      742.15722     -17.111661      725.04556    
   1578000   312.27552      0.012897222    8.5744606      774.76417     -19.534464      755.22971    
   1579000   307.29483      0.012897222    6.8147945      762.40694     -21.405342      741.0016     
   1580000   297.25723      0.012897222    6.7378666      737.50339     -26.581058      710.92233    
   1581000   291.19475      0.012897222    6.8645488      722.46219     -23.108324      699.35387    
   1582000   310.87006      0.012897222    7.6653989      771.27719     -20.924832      750.35235    
   1583000   297.70364      0.012897222    7.2525068      738.61094     -19.310965      719.29997    
   1584000   285.38428      0.012897222    6.1557345      708.04626     -18.597278      689.44898    
   1585000   301.55636      0.012897222    5.6314669      748.16964     -19.311514      728.85813    
   1586000   305.40961      0.012897222    6.9545456      757.72966     -18.090924      739.63874    
   1587000   303.79339      0.012897222    6.6367449      753.71978     -18.720984      734.9988     
   1588000   302.80645      0.012897222    7.0802782      751.27114     -21.004338      730.2668     
   1589000   311.25555      0.012897222    7.5025648      772.23359     -22.459608      749.77399    
   1590000   289.09575      0.012897222    5.8465868      717.25452     -24.417634      692.83689    
   1591000   301.52549      0.012897222    5.9517961      748.09306     -23.726468      724.36659    
   1592000   304.82613      0.012897222    7.5244242      756.28204     -22.001112      734.28093    
   1593000   290.95424      0.012897222    7.8885972      721.8655      -21.073541      700.79196    
   1594000   305.50805      0.012897222    5.8851612      757.9739      -21.871334      736.10256    
   1595000   318.65516      0.012897222    2.3567294      790.59224     -20.601661      769.99058    
   1596000   302.04658      0.012897222    8.7795879      749.3859      -17.866621      731.51928    
   1597000   285.70617      0.012897222    3.9333473      708.84489     -17.804746      691.04014    
   1598000   313.70301      0.012897222    5.9893783      778.30582     -16.357341      761.94848    
   1599000   306.82465      0.012897222    7.4200945      761.24042     -20.367713      740.87271    
   1600000   277.84481      0.012897222    9.6125662      689.34064     -18.912671      670.42797    
   1601000   289.78407      0.012897222    6.2134205      718.96227     -18.84295       700.11932    
   1602000   301.63094      0.012897222    6.5247453      748.35467     -16.658584      731.69608    
   1603000   335.37524      0.012897222    8.5955305      832.07521     -18.098789      813.97642    
   1604000   297.65732      0.012897222    5.6120756      738.49602     -16.317723      722.1783     
   1605000   287.29604      0.012897222    6.8331802      712.78938     -21.385817      691.40357    
   1606000   307.14528      0.012897222    10.094887      762.0359      -23.316355      738.71955    
   1607000   304.56407      0.012897222    7.4722941      755.63185     -20.926337      734.70551    
   1608000   293.20719      0.012897222    6.1120972      727.45511     -23.985664      703.46945    
   1609000   304.13446      0.012897222    4.2010504      754.56598     -24.350343      730.21563    
   1610000   295.55485      0.012897222    5.5666218      733.27973     -22.133488      711.14624    
   1611000   296.62537      0.012897222    7.4901991      735.93571     -22.404243      713.53147    
   1612000   314.37623      0.012897222    13.243738      779.97608     -18.027297      761.94879    
   1613000   309.92937      0.012897222    8.397249       768.9433      -17.352969      751.59034    
   1614000   305.16124      0.012897222    7.2695523      757.11345     -17.122264      739.99118    
   1615000   288.49236      0.012897222    7.0094135      715.7575      -17.387353      698.37015    
   1616000   292.87243      0.012897222    6.3259661      726.62458     -15.052773      711.5718     
   1617000   308.65215      0.012897222    7.7883652      765.77449     -18.553502      747.22099    
   1618000   299.01344      0.012897222    8.8615892      741.86058     -17.718829      724.14175    
   1619000   290.01462      0.012897222    6.9615128      719.53426     -17.003321      702.53094    
   1620000   312.51182      0.012897222    7.0695107      775.35045     -16.570651      758.7798     
   1621000   305.29276      0.012897222    7.1736459      757.43974     -18.821477      738.61827    
   1622000   288.72226      0.012897222    6.2404802      716.32788     -20.912028      695.41585    
   1623000   300.26008      0.012897222    7.3563055      744.95353     -17.187079      727.76645    
   1624000   307.02098      0.012897222    6.7050285      761.7275      -16.945176      744.78233    
   1625000   308.69256      0.012897222    6.8253736      765.87475     -20.983527      744.89122    
   1626000   305.1263       0.012897222    6.1315809      757.02676     -21.58986       735.4369     
   1627000   296.41196      0.012897222    6.569567       735.40624     -22.648071      712.75817    
   1628000   303.62733      0.012897222    7.5117502      753.30778     -20.071564      733.23621    
   1629000   303.84332      0.012897222    6.1002432      753.84365     -20.074644      733.76901    
   1630000   298.02226      0.012897222    6.3959933      739.40145     -19.759145      719.64231    
   1631000   294.1954       0.012897222    6.2632067      729.9069      -17.661953      712.24495    
   1632000   303.83802      0.012897222    7.6588949      753.83049     -17.057736      736.77276    
   1633000   308.3517       0.012897222    8.7849737      765.02906     -14.902928      750.12613    
   1634000   298.35739      0.012897222    6.6507859      740.23292     -22.648001      717.58492    
   1635000   302.05639      0.012897222    6.6980399      749.41023     -23.480393      725.92983    
   1636000   296.90812      0.012897222    7.8650712      736.63724     -21.888678      714.74856    
   1637000   304.8489       0.012897222    7.6110922      756.33854     -19.469203      736.86933    
   1638000   297.49305      0.012897222    8.1835775      738.08846     -17.604226      720.48423    
   1639000   293.81242      0.012897222    0.90708272     728.95672     -20.237852      708.71886    
   1640000   314.62256      0.012897222    5.2039274      780.58725     -21.723573      758.86368    
   1641000   298.08634      0.012897222    9.5795368      739.56043     -19.924573      719.63586    
   1642000   286.05985      0.012897222    7.1434455      709.72238     -20.248414      689.47396    
   1643000   307.07865      0.012897222    3.4180196      761.87059     -19.787233      742.08335    
   1644000   310.71965      0.012897222    8.569123       770.90403     -20.9912        749.91283    
   1645000   299.03146      0.012897222    7.3213352      741.9053      -22.625953      719.27935    
   1646000   276.29763      0.012897222    8.031892       685.50204     -21.238963      664.26308    
   1647000   300.34243      0.012897222    6.0846639      745.15784     -19.395495      725.76235    
   1648000   303.81037      0.012897222    5.2795995      753.76189     -21.814152      731.94774    
   1649000   307.8204       0.012897222    7.3542303      763.7109      -21.22549       742.48541    
   1650000   302.07547      0.012897222    9.2525971      749.45757     -18.077614      731.37995    
   1651000   299.71283      0.012897222    4.6998712      743.59579     -17.789665      725.80613    
   1652000   305.34268      0.012897222    8.462128       757.56361     -15.944819      741.61879    
   1653000   289.68392      0.012897222    14.838529      718.71378     -16.789432      701.92435    
   1654000   292.91034      0.012897222    6.7154381      726.71862     -16.353659      710.36497    
   1655000   308.9391       0.012897222    5.2853872      766.48641     -18.465565      748.02085    
   1656000   300.31478      0.012897222    7.9899726      745.08925     -18.754658      726.3346     
   1657000   286.41748      0.012897222    9.1361331      710.60966     -19.71066       690.899      
   1658000   300.68459      0.012897222    3.7208211      746.00676     -24.239884      721.76688    
   1659000   309.98008      0.012897222    6.7531916      769.06911     -21.88556       747.18355    
   1660000   299.52225      0.012897222    8.434568       743.12296     -19.758934      723.36402    
   1661000   283.17343      0.012897222    8.3950661      702.56109     -18.045327      684.51576    
   1662000   298.94089      0.012897222    3.243099       741.68058     -21.474907      720.20567    
   1663000   305.03556      0.012897222    5.8316686      756.80162     -16.920434      739.88119    
   1664000   316.24948      0.012897222    8.7518497      784.62367     -16.733322      767.89034    
   1665000   302.10728      0.012897222    7.5797277      749.53648     -18.647335      730.88914    
   1666000   287.99193      0.012897222    5.5150792      714.51593     -17.689543      696.82638    
   1667000   296.95784      0.012897222    7.5573447      736.76058     -17.205024      719.55555    
   1668000   313.20029      0.012897222    7.6293376      777.05855     -15.916359      761.14219    
   1669000   292.75648      0.012897222    7.0128172      726.3369      -21.381909      704.955      
   1670000   294.70169      0.012897222    6.0491201      731.16302     -20.53899       710.62403    
   1671000   314.44477      0.012897222    7.9806766      780.14615     -21.521575      758.62457    
   1672000   296.60691      0.012897222    7.843325       735.88992     -21.342533      714.54739    
   1673000   287.96582      0.012897222    6.8327159      714.45114     -22.838546      691.6126     
   1674000   296.71637      0.012897222    8.6539767      736.1615      -21.720263      714.44124    
   1675000   299.53064      0.012897222    5.5965558      743.14377     -20.134176      723.00959    
   1676000   298.80954      0.012897222    6.302185       741.3547      -17.826384      723.52832    
   1677000   305.00892      0.012897222    10.125584      756.73555     -19.858798      736.87675    
   1678000   304.81557      0.012897222    6.0262199      756.25583     -22.627901      733.62793    
   1679000   290.16033      0.012897222    6.2891088      719.89577     -18.609186      701.28659    
   1680000   300.82638      0.012897222    8.4233812      746.35854     -22.520261      723.83828    
   1681000   303.86877      0.012897222    7.0500765      753.9068      -25.402453      728.50434    
   1682000   285.21165      0.012897222    4.9767272      707.61797     -18.448635      689.16934    
   1683000   307.54406      0.012897222    9.2801359      763.02529     -15.533981      747.49131    
   1684000   302.8684       0.012897222    6.1014525      751.42484     -17.93477       733.49007    
   1685000   297.0702       0.012897222    4.8867123      737.03936     -16.871283      720.16808    
   1686000   281.94386      0.012897222    10.950109      699.51049     -17.282066      682.22843    
   1687000   313.20885      0.012897222    8.1921555      777.07978     -15.610084      761.4697     
   1688000   301.92888      0.012897222    4.1732454      749.09388     -18.98474       730.10914    
   1689000   293.07357      0.012897222    6.6568144      727.12361     -18.237768      708.88584    
   1690000   298.31572      0.012897222    10.124614      740.12953     -17.275399      722.85413    
   1691000   306.39843      0.012897222    4.2119144      760.18294     -18.344852      741.83809    
   1692000   288.14867      0.012897222    10.864979      714.9048      -15.380637      699.52416    
   1693000   310.13878      0.012897222    8.6960751      769.46286     -16.133389      753.32947    
   1694000   301.42875      0.012897222    4.7349751      747.85304     -17.993261      729.85977    
   1695000   282.56104      0.012897222   -1.4086227      701.04173     -15.798029      685.2437     
   1696000   298.42364      0.012897222    8.5704802      740.39728     -16.36522       724.03206    
   1697000   306.10439      0.012897222    7.8315579      759.45343     -17.631385      741.82204    
   1698000   305.16817      0.012897222    4.2313661      757.13064     -12.468025      744.66262    
   1699000   285.16383      0.012897222    7.740455       707.49932     -16.175292      691.32403    
   1700000   302.251        0.012897222    10.47084       749.89307     -18.969316      730.92375    
   1701000   313.5457       0.012897222    7.1001842      777.91553     -17.143506      760.77202    
   1702000   291.15865      0.012897222    5.367359       722.37263     -19.770918      702.60172    
   1703000   296.10838      0.012897222    7.0102203      734.65305     -20.943227      713.70982    
   1704000   299.42716      0.012897222    7.3478334      742.88705     -17.431989      725.45506    
   1705000   312.33979      0.012897222    7.6132969      774.92362     -16.684882      758.23874    
   1706000   298.48883      0.012897222    7.0052423      740.55901     -20.120077      720.43893    
   1707000   303.18158      0.012897222    6.7303522      752.20185     -20.376289      731.82556    
   1708000   294.44661      0.012897222    8.6117112      730.53017     -27.479586      703.05058    
   1709000   303.46756      0.012897222    9.2235737      752.91138     -22.942969      729.96841    
   1710000   301.8202       0.012897222    6.4282543      748.82424     -21.95331       726.87093    
   1711000   277.70597      0.012897222    9.1608774      688.99616     -24.698064      664.2981     
   1712000   313.51194      0.012897222    9.497678       777.83176     -30.909086      746.92268    
   1713000   307.51121      0.012897222    0.81276015     762.94378     -31.4008        731.54298    
   1714000   292.5227       0.012897222    6.6616668      725.75689     -29.747156      696.00973    
   1715000   293.38566      0.012897222    8.5697166      727.89792     -27.422454      700.47547    
   1716000   305.14132      0.012897222    6.4988041      757.06402     -30.995601      726.06842    
   1717000   302.95603      0.012897222    7.3040872      751.64226     -32.47162       719.17064    
   1718000   300.94208      0.012897222    8.7119952      746.6456      -30.591886      716.05372    
   1719000   303.1008       0.012897222    7.9820823      752.00145     -28.54098       723.46047    
   1720000   287.11164      0.012897222    1.9410264      712.3319      -26.220836      686.11106    
   1721000   299.62654      0.012897222    7.3935234      743.38169     -23.204656      720.17704    
   1722000   299.64166      0.012897222    8.2965833      743.41922     -21.489656      721.92956    
   1723000   307.23964      0.012897222    5.2528899      762.27003     -21.323249      740.94678    
   1724000   313.4167       0.012897222    7.7112834      777.59547     -23.926347      753.66912    
   1725000   281.44143      0.012897222    10.352266      698.26395     -24.146537      674.11741    
   1726000   304.6951       0.012897222    5.8193182      755.95695     -26.343617      729.61333    
   1727000   302.04986      0.012897222    6.1704781      749.39404     -23.989669      725.40437    
   1728000   313.36128      0.012897222    7.840641       777.45797     -22.826829      754.63114    
   1729000   298.31091      0.012897222    6.7296312      740.11758     -21.144297      718.97328    
   1730000   292.28429      0.012897222    6.1254649      725.16539     -21.744315      703.42108    
   1731000   319.34806      0.012897222    7.6777598      792.31134     -21.655903      770.65544    
   1732000   300.65235      0.012897222    5.4003718      745.92676     -19.556632      726.37013    
   1733000   282.72809      0.012897222    7.3901025      701.45619     -17.925189      683.531      
   1734000   292.18478      0.012897222    8.5872173      724.91849     -18.389266      706.52923    
   1735000   315.69041      0.012897222    6.9531133      783.2366      -21.448373      761.78823    
   1736000   312.03153      0.012897222    4.1167355      774.15883     -19.61181       754.54702    
   1737000   290.23066      0.012897222    5.813317       720.07027     -19.889428      700.18084    
   1738000   304.37354      0.012897222    8.3956006      755.15915     -21.496289      733.66286    
   1739000   308.38092      0.012897222    6.8513576      765.10157     -19.949982      745.15159    
   1740000   301.00529      0.012897222    5.6539368      746.80243     -21.045637      725.75679    
   1741000   302.06032      0.012897222    14.831937      749.41998     -22.340718      727.07926    
   1742000   300.85707      0.012897222    8.8934762      746.43469     -21.038622      725.39607    
   1743000   302.09553      0.012897222    5.2114156      749.50733     -22.303741      727.20359    
   1744000   299.59474      0.012897222    6.9124984      743.30282     -21.349943      721.95287    
   1745000   301.90312      0.012897222    7.32268        749.02997     -20.005342      729.02462    
   1746000   308.54492      0.012897222    7.3385993      765.50844     -21.590839      743.9176     
   1747000   314.45394      0.012897222    7.8301968      780.16888     -18.982386      761.1865     
   1748000   302.29101      0.012897222    6.5827148      749.99233     -20.379085      729.61324    
   1749000   297.08882      0.012897222    7.0064902      737.08555     -18.778744      718.30681    
   1750000   300.37117      0.012897222    8.1085687      745.22914     -17.677925      727.55122    
   1751000   318.41435      0.012897222    8.7028642      789.99477     -20.91285       769.08192    
   1752000   292.81924      0.012897222    4.6896132      726.4926      -26.087439      700.40516    
   1753000   298.154        0.012897222    7.0922197      739.72828     -20.652177      719.07611    
   1754000   314.32428      0.012897222    7.5309823      779.84721     -24.513041      755.33416    
   1755000   299.09305      0.012897222    7.381296       742.0581      -25.093651      716.96445    
   1756000   299.56327      0.012897222    7.6724911      743.22473     -25.835702      717.38902    
   1757000   298.51511      0.012897222    5.5796775      740.62422     -25.129215      715.495      
   1758000   293.65838      0.012897222    3.7824559      728.57452     -20.150575      708.42395    
   1759000   305.98586      0.012897222    6.004736       759.15936     -23.673984      735.48538    
   1760000   305.98911      0.012897222    9.9102766      759.16742     -15.451569      743.71585    
   1761000   301.43034      0.012897222    6.2836209      747.85697     -27.129493      720.72748    
   1762000   298.48736      0.012897222    7.5924955      740.55537     -25.756226      714.79915    
   1763000   301.11709      0.012897222    6.3438607      747.07979     -28.165818      718.91398    
   1764000   299.15405      0.012897222    6.1583492      742.20945     -25.986147      716.22331    
   1765000   283.90512      0.012897222    8.9958057      704.37644     -25.932598      678.44384    
   1766000   301.87478      0.012897222    8.7516985      748.95964     -24.425793      724.53385    
   1767000   293.69207      0.012897222    6.8034114      728.65811     -23.534157      705.12396    
   1768000   288.77817      0.012897222    6.3802547      716.46659     -21.800021      694.66657    
   1769000   303.70875      0.012897222    5.6172967      753.50978     -23.347394      730.16238    
   1770000   300.34391      0.012897222    8.2396061      745.16152     -22.59875       722.56277    
   1771000   299.46729      0.012897222    7.4332966      742.9866      -30.305336      712.68126    
   1772000   300.50393      0.012897222    6.7883169      745.55853     -32.957239      712.60129    
   1773000   313.10421      0.012897222    6.9988752      776.82019     -23.237702      753.58248    
   1774000   288.49513      0.012897222    9.9116534      715.76437     -25.004146      690.76022    
   1775000   291.28879      0.012897222    6.4079829      722.69552     -23.411399      699.28412    
   1776000   307.98846      0.012897222    5.5484894      764.12785     -24.310357      739.81749    
   1777000   325.50845      0.012897222    7.6626077      807.59544     -25.771591      781.82385    
   1778000   294.0763       0.012897222    7.1458461      729.6114      -24.075289      705.53611    
   1779000   298.04308      0.012897222    6.7030771      739.45309     -23.67228       715.78081    
   1780000   306.6434       0.012897222    8.0213786      760.79073     -22.681931      738.10879    
   1781000   309.44563      0.012897222    7.588681       767.74314     -24.89099       742.85215    
   1782000   308.05659      0.012897222    5.662605       764.29689     -26.83389       737.463      
   1783000   292.48683      0.012897222    7.4673232      725.66789     -25.043117      700.62478    
   1784000   294.69936      0.012897222    6.1192076      731.15723     -22.554368      708.60286    
   1785000   304.18136      0.012897222    7.4184039      754.68233     -19.136314      735.54602    
   1786000   296.12392      0.012897222    8.3140822      734.6916      -20.742299      713.9493     
   1787000   303.26261      0.012897222    3.9312467      752.4029      -22.804537      729.59836    
   1788000   305.07854      0.012897222    7.5385747      756.90827     -20.4655        736.44277    
   1789000   306.25507      0.012897222    8.1504624      759.82726     -20.502732      739.32453    
   1790000   308.36869      0.012897222    9.8204534      765.07122     -21.137049      743.93417    
   1791000   296.50215      0.012897222    4.1529134      735.63001     -23.828116      711.80189    
   1792000   287.22624      0.012897222    9.6627974      712.61621     -17.740306      694.8759     
   1793000   309.34974      0.012897222    15.567837      767.50522     -22.589797      744.91543    
   1794000   300.25165      0.012897222    4.2341841      744.93262     -23.034157      721.89847    
   1795000   283.89985      0.012897222    2.2480885      704.36336     -15.752745      688.61062    
   1796000   299.8074       0.012897222    9.9709999      743.83043     -23.332371      720.49806    
   1797000   310.83584      0.012897222    11.735699      771.1923      -22.468331      748.72397    
   1798000   308.2746       0.012897222    6.8147538      764.83778     -24.698231      740.13954    
   1799000   294.88947      0.012897222    6.689293       731.62891     -23.537181      708.09173    
   1800000   307.81591      0.012897222    11.142149      763.69977     -26.876274      736.82349    
   1801000   312.46601      0.012897222    9.6282345      775.23678     -24.313212      750.92357    
   1802000   294.48933      0.012897222    6.1959011      730.63615     -21.081644      709.55451    
   1803000   293.63392      0.012897222    0.70477626     728.51386     -23.95211       704.56175    
   1804000   301.66604      0.012897222    8.7313839      748.44177     -24.775515      723.66626    
   1805000   302.34509      0.012897222    1.419394       750.1265      -23.414665      726.71184    
   1806000   297.08228      0.012897222    3.1073251      737.06932     -22.145739      714.92358    
   1807000   289.7847       0.012897222    7.3381459      718.96383     -22.526637      696.43719    
   1808000   287.91297      0.012897222    12.650054      714.32003     -23.898192      690.42183    
   1809000   298.89407      0.012897222    6.9763         741.56443     -29.022252      712.54218    
   1810000   299.02562      0.012897222    6.967346       741.8908      -22.990799      718.9        
   1811000   302.88085      0.012897222    5.5295247      751.45575     -23.069907      728.38584    
   1812000   296.42476      0.012897222    3.0514684      735.438       -21.066977      714.37103    
   1813000   284.77453      0.012897222    5.4826017      706.53345     -24.249848      682.2836     
   1814000   299.0326       0.012897222    9.5405342      741.90813     -21.493035      720.4151     
   1815000   308.759        0.012897222    8.2832038      766.03958     -22.752228      743.28735    
   1816000   291.9886       0.012897222    5.3744262      724.43176     -23.717532      700.71423    
   1817000   286.53569      0.012897222    8.7305839      710.90294     -23.936947      686.966      
   1818000   313.10013      0.012897222    5.9061091      776.81005     -22.745109      754.06494    
   1819000   287.08622      0.012897222    9.5985479      712.26883     -18.982413      693.28642    
   1820000   286.67515      0.012897222    5.9625806      711.24894     -19.872799      691.37614    
   1821000   301.87203      0.012897222    5.2731375      748.95283     -22.519985      726.43285    
   1822000   311.07802      0.012897222    8.2320652      771.79315     -21.446808      750.34635    
   1823000   304.48432      0.012897222    9.4779399      755.43398     -17.553801      737.88018    
   1824000   295.90674      0.012897222    6.466305       734.15277     -18.437709      715.71507    
   1825000   295.82024      0.012897222    5.0616136      733.93816     -17.211053      716.72711    
   1826000   306.32512      0.012897222    6.7520976      760.00106     -19.208499      740.79256    
   1827000   314.60204      0.012897222    11.980549      780.53634     -21.129763      759.40657    
   1828000   303.456        0.012897222    9.4493914      752.88271     -22.760488      730.12222    
   1829000   280.57171      0.012897222    4.698976       696.10616     -22.848298      673.25786    
   1830000   288.63598      0.012897222    3.0446192      716.11381     -22.340833      693.77298    
   1831000   307.35806      0.012897222    5.8788743      762.56383     -24.195854      738.36797    
   1832000   311.40298      0.012897222    6.0362317      772.59938     -28.003451      744.59593    
   1833000   292.97634      0.012897222    8.3088563      726.88236     -27.888004      698.99436    
   1834000   292.52658      0.012897222    6.3546779      725.76651     -26.310064      699.45644    
   1835000   308.06306      0.012897222    6.9877277      764.31294     -27.421653      736.89129    
   1836000   313.19975      0.012897222    9.7829884      777.05721     -25.086837      751.97038    
   1837000   290.84882      0.012897222    7.716239       721.60395     -28.01713       693.58682    
   1838000   291.50855      0.012897222    6.5984544      723.24075     -25.200508      698.04024    
   1839000   311.72996      0.012897222    4.2120733      773.41063     -16.823464      756.58716    
   1840000   302.04873      0.012897222    7.8981851      749.39121     -18.756985      730.63423    
   1841000   287.637        0.012897222    6.4800718      713.63533     -19.026168      694.60916    
   1842000   302.54491      0.012897222    6.3830888      750.62226     -19.084459      731.5378     
   1843000   306.26198      0.012897222    9.1753346      759.84442     -22.231918      737.61251    
   1844000   306.93664      0.012897222    8.1236647      761.51827     -20.085534      741.43274    
   1845000   304.38292      0.012897222    7.1129983      755.18242     -22.019065      733.16335    
   1846000   307.11058      0.012897222    7.8333093      761.9498      -19.628273      742.32153    
   1847000   286.15218      0.012897222    5.3048685      709.95145     -18.444364      691.50708    
   1848000   296.92078      0.012897222    6.8051634      736.66865     -19.685053      716.9836     
   1849000   300.84064      0.012897222    9.2838968      746.39391     -20.093012      726.3009     
   1850000   285.44394      0.012897222    8.0748628      708.19429     -22.071125      686.12316    
   1851000   304.73543      0.012897222    5.9257361      756.05701     -23.926427      732.13058    
   1852000   303.40736      0.012897222    7.5156044      752.76203     -18.54232       734.21971    
   1853000   308.77882      0.012897222    6.7985751      766.08877     -20.589458      745.49931    
   1854000   289.14152      0.012897222    6.3667332      717.36808     -21.59103       695.77705    
   1855000   297.34138      0.012897222    8.4779153      737.71215     -20.345211      717.36694    
   1856000   307.6881       0.012897222    6.9571729      763.38265     -19.10314       744.27951    
   1857000   288.27982      0.012897222    8.0654628      715.23017     -21.71166       693.51851    
   1858000   306.25016      0.012897222    5.7238463      759.8151      -23.224401      736.59069    
   1859000   302.85364      0.012897222    5.9926488      751.38822     -22.572507      728.81572    
   1860000   292.94425      0.012897222    7.2870213      726.80276     -20.388889      706.41388    
   1861000   302.43105      0.012897222    7.2133117      750.33978     -17.363001      732.97678    
   1862000   303.01587      0.012897222    7.6289715      751.79072     -19.682527      732.10819    
   1863000   305.22816      0.012897222    9.8840878      757.27948     -18.786348      738.49313    
   1864000   300.56069      0.012897222    7.5422331      745.69936     -22.215161      723.4842     
   1865000   290.34897      0.012897222    7.2070775      720.3638      -23.000177      697.36362    
   1866000   308.34499      0.012897222    7.6575497      765.01242     -22.391718      742.6207     
   1867000   303.63471      0.012897222    4.5588644      753.32608     -22.175005      731.15107    
   1868000   290.24922      0.012897222    6.7504916      720.11631     -21.952113      698.1642     
   1869000   302.30345      0.012897222    6.9530744      750.0232      -21.714682      728.30852    
   1870000   306.52172      0.012897222    7.3241444      760.48883     -19.704375      740.78445    
   1871000   291.84145      0.012897222    7.6112612      724.06668     -19.039357      705.02732    
   1872000   288.18483      0.012897222    6.5661621      714.99452     -23.064574      691.92994    
   1873000   303.90697      0.012897222    9.5677762      754.00156     -19.568337      734.43322    
   1874000   312.91666      0.012897222    8.3515034      776.35486     -18.745373      757.60948    
   1875000   301.10975      0.012897222    6.5674606      747.0616      -18.729985      728.33161    
   1876000   297.3109       0.012897222    4.3423242      737.63653     -24.012142      713.62439    
   1877000   306.1226       0.012897222    6.8868409      759.49862     -25.938802      733.55982    
   1878000   300.90612      0.012897222    20.440168      746.55638     -28.70922       717.84716    
   1879000   304.93442      0.012897222    3.3795202      756.55071     -22.831866      733.71884    
   1880000   292.94776      0.012897222    2.7598706      726.81146     -22.976979      703.83448    
   1881000   299.13894      0.012897222    15.876886      742.17196     -21.345589      720.82637    
   1882000   311.64455      0.012897222    11.788263      773.19872     -23.499922      749.6988     
   1883000   303.79134      0.012897222    1.9390958      753.7147      -21.683049      732.03165    
   1884000   293.5286       0.012897222    5.2018994      728.25255     -23.029003      705.22355    
   1885000   309.81256      0.012897222    7.3967386      768.6535      -19.347403      749.3061     
   1886000   312.17174      0.012897222    7.2300001      774.50669     -21.76135       752.74534    
   1887000   300.06512      0.012897222    8.1837699      744.46984     -19.637429      724.83241    
   1888000   304.8152       0.012897222    7.566572       756.2549      -21.912429      734.34248    
   1889000   293.2822       0.012897222    5.9451806      727.64123     -20.737911      706.90332    
   1890000   300.83099      0.012897222    5.8346328      746.36997     -20.537182      725.83279    
   1891000   315.51658      0.012897222    8.2431917      782.80534     -17.476754      765.32858    
   1892000   298.89095      0.012897222    6.8055443      741.55668     -20.097127      721.45955    
   1893000   296.48322      0.012897222    6.3318644      735.58304     -20.589066      714.99398    
   1894000   311.17508      0.012897222    8.6918272      772.03395     -18.843914      753.19004    
   1895000   297.34034      0.012897222    7.3222458      737.70959     -19.030589      718.679      
   1896000   290.70148      0.012897222    6.1740549      721.23838     -18.325633      702.91274    
   1897000   298.18967      0.012897222    5.7591287      739.81679     -17.529667      722.28712    
   1898000   309.67373      0.012897222    8.3595039      768.30905     -16.625697      751.68335    
   1899000   292.55181      0.012897222    7.0293336      725.8291      -11.190116      714.63898    
   1900000   303.49681      0.012897222    7.0626269      752.98396     -13.306895      739.67707    
   1901000   310.08415      0.012897222    7.3290329      769.32733     -16.852621      752.47471    
   1902000   296.37946      0.012897222    6.7966452      735.32561     -19.261018      716.06459    
   1903000   306.84152      0.012897222    6.8776576      761.28227     -21.425124      739.85714    
   1904000   298.61709      0.012897222    5.4715737      740.87722     -25.541014      715.33621    
   1905000   300.77267      0.012897222    5.0837371      746.22528     -22.462392      723.76288    
   1906000   310.24891      0.012897222    12.494117      769.73609     -24.27835       745.45774    
   1907000   299.4737       0.012897222    8.3799699      743.0025      -23.880946      719.12155    
   1908000   298.91037      0.012897222    8.3459647      741.60487     -22.277167      719.3277     
   1909000   303.49042      0.012897222    4.3535069      752.96809     -19.567263      733.40083    
   1910000   297.73184      0.012897222    3.8413942      738.6809      -23.329195      715.35171    
   1911000   300.80694      0.012897222    7.3959222      746.31032     -19.669086      726.64124    
   1912000   294.81169      0.012897222    9.0400665      731.43593     -15.719212      715.71672    
   1913000   309.79134      0.012897222    4.7668685      768.60085     -17.508751      751.0921     
   1914000   309.68992      0.012897222    8.1479968      768.34923     -17.113649      751.23559    
   1915000   300.4125       0.012897222    9.8782647      745.33168     -16.455138      728.87655    
   1916000   292.62661      0.012897222    10.224726      726.01468     -20.517269      705.49741    
   1917000   306.17515      0.012897222    13.200248      759.629       -18.435327      741.19367    
   1918000   302.4517       0.012897222    2.2300229      750.39101     -14.672833      735.71817    
   1919000   304.8352       0.012897222    8.0203468      756.30454     -18.120223      738.18432    
   1920000   309.20751      0.012897222    10.009994      767.15237     -20.009631      747.14274    
   1921000   302.64593      0.012897222    8.1825607      750.87289     -19.357674      731.51522    
   1922000   310.02624      0.012897222    8.7231663      769.18364     -25.342343      743.84129    
   1923000   298.05485      0.012897222    7.708814       739.48229     -24.268597      715.21369    
   1924000   285.1272       0.012897222    5.0817839      707.40845     -29.524373      677.88408    
   1925000   312.83473      0.012897222   -0.12928411     776.15158     -25.780394      750.37119    
   1926000   315.54238      0.012897222    9.294522       782.86933     -23.129409      759.73992    
   1927000   298.65796      0.012897222    13.159519      740.97863     -17.580595      723.39803    
   1928000   286.21445      0.012897222    6.5120752      710.10595     -19.603648      690.5023     
   1929000   296.46244      0.012897222   -14.205208      735.53149     -18.837401      716.69409    
   1930000   308.42627      0.012897222    17.626523      765.21407     -18.182342      747.03173    
   1931000   302.83502      0.012897222    18.933839      751.34204     -20.749615      730.59242    
   1932000   303.61896      0.012897222    5.435042       753.287       -25.31858       727.96842    
   1933000   292.5281       0.012897222    4.6140542      725.77029     -28.099553      697.67073    
   1934000   314.14515      0.012897222    12.49555       779.40277     -25.760499      753.64228    
   1935000   294.70985      0.012897222    7.5071058      731.18325     -22.062516      709.12074    
   1936000   290.94346      0.012897222    4.8224942      721.83875     -25.935841      695.90291    
   1937000   306.38404      0.012897222    5.5963917      760.14725     -21.48603       738.66122    
   1938000   302.5743       0.012897222    9.7664988      750.69518     -25.065061      725.63012    
   1939000   305.39814      0.012897222    6.5592243      757.7012      -22.695284      735.00591    
   1940000   300.52643      0.012897222    3.9347355      745.61435     -26.443733      719.17062    
   1941000   305.87488      0.012897222    7.5527313      758.88402     -21.984884      736.89913    
   1942000   305.14143      0.012897222    12.42306       757.06431     -31.203106      725.8612     
   1943000   299.41684      0.012897222    8.7319503      742.86144     -25.15996       717.70148    
   1944000   290.05941      0.012897222    3.5436592      719.64538     -26.346798      693.29858    
   1945000   298.71093      0.012897222    6.4932737      741.11005     -21.456692      719.65336    
   1946000   303.02823      0.012897222    12.084744      751.82139     -21.358343      730.46304    
   1947000   293.50982      0.012897222    7.3149132      728.20594     -23.938537      704.26741    
   1948000   297.01698      0.012897222    6.5806622      736.90732     -23.18023       713.72709    
   1949000   305.41491      0.012897222    4.1200571      757.7428      -20.495319      737.24748    
   1950000   299.42205      0.012897222    8.5094186      742.87436     -22.480899      720.39346    
   1951000   306.42102      0.012897222    7.2894648      760.23899     -19.846224      740.39276    
   1952000   301.51706      0.012897222    6.4831249      748.07213     -20.000223      728.07191    
   1953000   308.62396      0.012897222    7.5779552      765.70454     -17.747317      747.95723    
   1954000   296.36467      0.012897222    7.3559325      735.28892     -23.874611      711.41431    
   1955000   309.46189      0.012897222    7.7468153      767.78347     -22.107396      745.67607    
   1956000   312.76393      0.012897222    7.2882643      775.97594     -22.407868      753.56807    
   1957000   295.20229      0.012897222    6.6917315      732.40502     -23.746088      708.65894    
   1958000   289.62519      0.012897222    6.2570847      718.56808     -20.782558      697.78552    
   1959000   296.84182      0.012897222    7.5252552      736.47274     -21.442782      715.02995    
   1960000   312.18492      0.012897222    7.472381       774.53938     -21.327123      753.21226    
   1961000   299.72224      0.012897222    6.5144236      743.61914     -17.482023      726.13712    
   1962000   288.43828      0.012897222    6.8220074      715.62332     -18.099704      697.52362    
   1963000   315.45402      0.012897222    7.8279202      782.65011     -21.574686      761.07543    
   1964000   311.90815      0.012897222    7.0586487      773.85272     -22.608591      751.24413    
   1965000   297.5322       0.012897222    7.0622996      738.18558     -24.173585      714.01199    
   1966000   304.97434      0.012897222    6.6536891      756.64974     -22.646474      734.00326    
   1967000   290.31304      0.012897222    6.402636       720.27466     -25.348527      694.92613    
   1968000   307.7126       0.012897222    8.491507       763.44345     -24.252074      739.19138    
   1969000   303.57952      0.012897222    6.4122736      753.18917     -20.59624       732.59293    
   1970000   304.46529      0.012897222    5.6338478      755.38678     -24.73485       730.65193    
   1971000   287.56632      0.012897222    6.5571681      713.45996     -20.709107      692.75086    
   1972000   294.91652      0.012897222    6.2971724      731.69602     -27.489984      704.20603    
   1973000   309.97832      0.012897222    6.8505455      769.06477     -29.095947      739.96882    
   1974000   294.37317      0.012897222    6.0989654      730.34794     -26.121105      704.22684    
   1975000   299.46642      0.012897222    7.2976347      742.98444     -24.60233       718.38211    
   1976000   309.24905      0.012897222    7.2000065      767.25541     -24.199838      743.05557    
   1977000   300.69834      0.012897222    4.2655277      746.04088     -22.137855      723.90302    
   1978000   281.34134      0.012897222    3.8837719      698.01563     -25.621288      672.39434    
   1979000   290.64824      0.012897222    5.7615466      721.10628     -20.964389      700.14189    
   1980000   290.17713      0.012897222    8.7015548      719.93747     -25.243969      694.6935     
   1981000   310.2606       0.012897222    7.1806087      769.76509     -25.965348      743.79975    
   1982000   297.49779      0.012897222    6.5157612      738.10021     -22.498806      715.60141    
   1983000   275.01643      0.012897222    5.7754918      682.32334     -22.208327      660.11501    
   1984000   288.80138      0.012897222    10.121593      716.52419     -18.858173      697.66602    
   1985000   317.13029      0.012897222    7.1536395      786.809       -20.655366      766.15363    
   1986000   292.4126       0.012897222    4.6452709      725.48372     -21.153416      704.3303     
   1987000   288.01497      0.012897222    8.2723302      714.57308     -19.384871      695.18821    
   1988000   290.81824      0.012897222    7.503571       721.52808     -21.229363      700.29872    
   1989000   314.61482      0.012897222    6.92471        780.56805     -19.830804      760.73725    
   1990000   306.43144      0.012897222    5.0951984      760.26484     -22.25622       738.00862    
   1991000   296.15967      0.012897222    6.1797815      734.7803      -25.682404      709.0979     
   1992000   289.77871      0.012897222    8.5439309      718.94896     -25.010605      693.93835    
   1993000   307.53587      0.012897222    7.7333829      763.00496     -25.302299      737.70266    
   1994000   316.05056      0.012897222    6.113579       784.13014     -24.939267      759.19087    
   1995000   295.04076      0.012897222    8.3598482      732.00426     -23.658505      708.34576    
   1996000   291.61094      0.012897222    9.4870023      723.49478     -26.28227       697.21251    
   1997000   321.12626      0.012897222    6.7449398      796.7231      -18.971392      777.75171    
   1998000   310.87879      0.012897222    3.1709735      771.29885     -16.742382      754.55647    
   1999000   297.18788      0.012897222    6.5104133      737.33133     -17.667883      719.66345    
   2000000   295.34142      0.012897222    8.6562111      732.75021     -19.878731      712.87148    
   2001000   322.98695      0.012897222    8.8816109      801.33952     -22.988341      778.35118    
   2002000   296.82824      0.012897222    4.1450801      736.43904     -23.2031        713.23594    
   2003000   291.48602      0.012897222    11.934837      723.18485     -21.858415      701.32644    
   2004000   303.11453      0.012897222    10.67234       752.03549     -27.47415       724.56134    
   2005000   305.04127      0.012897222    4.1046258      756.8158      -24.439248      732.37655    
   2006000   298.21257      0.012897222    3.8378345      739.87362     -27.10619       712.76743    
   2007000   296.26487      0.012897222    9.9594184      735.04132     -29.554819      705.4865     
   2008000   305.29493      0.012897222    12.797171      757.44515     -25.176348      732.2688     
   2009000   302.93982      0.012897222    6.7748127      751.60204     -32.761721      718.84032    
   2010000   299.11936      0.012897222   -0.79972503     742.12339     -28.331902      713.79149    
   2011000   294.47722      0.012897222    6.851934       730.6061      -26.123791      704.48231    
   2012000   305.2501       0.012897222    9.6125724      757.33391     -26.557848      730.77606    
   2013000   311.87554      0.012897222    7.4941195      773.77181     -24.632739      749.13907    
   2014000   296.90375      0.012897222    0.41265454     736.62638     -25.959814      710.66657    
   2015000   290.68893      0.012897222    7.5220542      721.20725     -21.065981      700.14126    
   2016000   292.24053      0.012897222    6.8435283      725.0568      -25.409569      699.64723    
   2017000   306.49009      0.012897222    9.9844824      760.41036     -25.95254       734.45782    
   2018000   304.41075      0.012897222    0.71099764     755.25147     -27.081851      728.16961    
   2019000   293.54076      0.012897222    8.4972475      728.28272     -27.505036      700.77768    
   2020000   303.35224      0.012897222    6.7017531      752.62526     -24.102961      728.5223     
   2021000   300.84507      0.012897222    1.2452136      746.40491     -24.533293      721.87162    
   2022000   302.94144      0.012897222    7.5933101      751.60607     -30.380217      721.22585    
   2023000   301.59826      0.012897222    7.3009967      748.2736      -28.705385      719.56821    
   2024000   290.84753      0.012897222    7.6565538      721.60074     -29.902901      691.69784    
   2025000   288.10863      0.012897222    6.4171166      714.80546     -21.535465      693.26999    
   2026000   307.15817      0.012897222    8.4230632      762.0679      -18.572669      743.49523    
   2027000   305.41442      0.012897222    7.7800389      757.7416      -20.757332      736.98427    
   2028000   305.02727      0.012897222    5.7487685      756.78107     -21.117508      735.66356    
   2029000   293.72964      0.012897222    6.2793107      728.75134     -23.383699      705.36764    
   2030000   293.56667      0.012897222    7.3522501      728.347       -29.101305      699.24569    
   2031000   305.18754      0.012897222    7.4816452      757.1787      -28.278409      728.90029    
   2032000   308.49389      0.012897222    8.1476724      765.38184     -26.13611       739.24573    
   2033000   301.45658      0.012897222    5.843172       747.92209     -26.953924      720.96817    
   2034000   281.13723      0.012897222    11.238118      697.50923     -28.766988      668.74224    
   2035000   290.86495      0.012897222    7.4175755      721.64397     -27.021655      694.62231    
   2036000   308.86307      0.012897222    6.4097342      766.29779     -21.083162      745.21463    
   2037000   300.37273      0.012897222    6.6551946      745.23302     -22.076074      723.15695    
   2038000   303.33079      0.012897222    9.70624        752.57205     -23.572576      728.99947    
   2039000   304.36897      0.012897222    7.1005644      755.14781     -26.572162      728.57564    
   2040000   305.17135      0.012897222    7.1722732      757.13853     -25.420503      731.71803    
   2041000   294.28758      0.012897222    6.3916989      730.1356      -22.453268      707.68233    
   2042000   299.27068      0.012897222    7.0901607      742.49881     -22.044206      720.45461    
   2043000   306.02492      0.012897222    10.110234      759.25625     -20.27885       738.9774     
   2044000   297.34628      0.012897222    7.3511024      737.72433     -23.572082      714.15225    
   2045000   299.60187      0.012897222    6.2198793      743.3205      -19.230615      724.08988    
   2046000   298.33917      0.012897222    7.3506365      740.1877      -24.321279      715.86642    
   2047000   289.98427      0.012897222    6.7562472      719.45897     -21.889831      697.56914    
   2048000   302.65688      0.012897222    6.8191557      750.90006     -19.670152      731.22991    
   2049000   304.82767      0.012897222    7.1471341      756.28586     -19.690918      736.59495    
   2050000   293.32182      0.012897222    7.689261       727.73953     -20.529576      707.20995    
   2051000   309.88215      0.012897222    6.6924132      768.82616     -23.645725      745.18044    
   2052000   306.26957      0.012897222    7.2419477      759.86324     -18.258551      741.60469    
   2053000   297.02782      0.012897222    12.702575      736.93421     -18.129722      718.80449    
   2054000   298.12205      0.012897222    6.9244705      739.64902     -18.237702      721.41132    
   2055000   307.42664      0.012897222    6.0667301      762.73397     -23.309003      739.42497    
   2056000   316.36077      0.012897222    10.706212      784.8998      -21.452616      763.44718    
   2057000   298.09891      0.012897222    7.338443       739.59162     -21.437107      718.15451    
   2058000   303.29635      0.012897222    5.9931361      752.4866      -18.403658      734.08295    
   2059000   308.67363      0.012897222    6.3244196      765.82777     -18.728932      747.09884    
   2060000   302.87069      0.012897222    8.1199683      751.43052     -21.554529      729.87599    
   2061000   294.84443      0.012897222    7.281428       731.51716     -19.873119      711.64404    
   2062000   301.92829      0.012897222    6.747723       749.09242     -22.509063      726.58335    
   2063000   294.90845      0.012897222    7.2282973      731.67599     -22.26867       709.40732    
   2064000   304.00982      0.012897222    8.2216913      754.25675     -23.316982      730.93977    
   2065000   294.74543      0.012897222    4.9208376      731.27153     -23.220488      708.05104    
   2066000   306.20274      0.012897222    6.4335993      759.69743     -19.174772      740.52266    
   2067000   308.33486      0.012897222    8.0325908      764.98728     -19.610986      745.37629    
   2068000   299.54337      0.012897222    8.507915       743.17536     -20.491205      722.68416    
   2069000   289.38217      0.012897222    5.9787264      717.96514     -21.955813      696.00933    
   2070000   300.95606      0.012897222    6.3091601      746.68028     -24.508464      722.17181    
   2071000   300.3966       0.012897222    10.662381      745.29225     -23.679457      721.6128     
   2072000   297.8526       0.012897222    7.9696517      738.98052     -24.322254      714.65826    
   2073000   288.4686       0.012897222    1.1903181      715.69854     -23.545772      692.15277    
   2074000   319.42191      0.012897222    7.7091818      792.49456     -23.309793      769.18477    
   2075000   305.83301      0.012897222    10.238048      758.78013     -23.111671      735.66846    
   2076000   304.78978      0.012897222    4.9389527      756.19184     -20.888427      735.30341    
   2077000   300.7214       0.012897222    6.7725315      746.09809     -18.719589      727.3785     
   2078000   288.29338      0.012897222    7.3552669      715.26382     -18.622765      696.64105    
   2079000   291.28445      0.012897222    6.3193826      722.68475     -21.723154      700.9616     
   2080000   302.51098      0.012897222    7.3588451      750.53809     -21.77496       728.76313    
   2081000   283.50802      0.012897222    5.2121307      703.3912      -20.54076       682.85044    
   2082000   301.0933       0.012897222    5.1172198      747.02078     -20.690218      726.33056    
   2083000   312.8073       0.012897222    8.2923504      776.08354     -26.859577      749.22397    
   2084000   296.38243      0.012897222    13.959022      735.33297     -24.807881      710.52509    
   2085000   289.36076      0.012897222    11.444309      717.91202     -24.784866      693.12715    
   2086000   290.29183      0.012897222    5.0350471      720.22204     -24.784572      695.43747    
   2087000   305.21936      0.012897222    6.0584645      757.25765     -23.944021      733.31363    
   2088000   303.35025      0.012897222    4.8543325      752.62032     -20.464426      732.1559     
   2089000   293.79183      0.012897222    13.092222      728.90564     -20.050205      708.85543    
   2090000   292.09204      0.012897222    8.8503897      724.68841     -21.669405      703.019      
   2091000   305.75077      0.012897222   -1.1480034      758.57609     -22.888771      735.68732    
   2092000   314.95685      0.012897222    12.707992      781.41662     -23.862554      757.55406    
   2093000   289.68728      0.012897222    10.976348      718.72213     -25.789688      692.93244    
   2094000   300.34322      0.012897222    2.7524402      745.15981     -23.38639       721.77342    
   2095000   317.57069      0.012897222    2.6544023      787.90163     -25.020977      762.88066    
   2096000   303.98089      0.012897222    13.199769      754.18497     -21.774408      732.41056    
   2097000   291.56104      0.012897222    15.776731      723.37097     -25.863608      697.50736    
   2098000   303.35834      0.012897222    4.6110733      752.6404      -24.210033      728.43037    
   2099000   314.29097      0.012897222    5.075733       779.76457     -19.996564      759.768      
   2100000   310.16423      0.012897222    10.706691      769.52601     -21.308249      748.21776    
   2101000   288.40575      0.012897222    9.0751244      715.54261     -28.573188      686.96942    
   2102000   296.81084      0.012897222    7.0372896      736.39587     -29.585165      706.81071    
   2103000   303.66631      0.012897222    6.560388       753.40448     -27.052763      726.35172    
   2104000   300.75209      0.012897222    7.0228056      746.17423     -24.353554      721.82067    
   2105000   299.74832      0.012897222    7.3155387      743.68383     -25.449959      718.23387    
   2106000   297.65325      0.012897222    5.8570552      738.48592     -23.674325      714.8116     
   2107000   296.80751      0.012897222    8.008634       736.38763     -23.272599      713.11503    
   2108000   300.93332      0.012897222    7.2836423      746.62386     -23.781669      722.84219    
   2109000   300.41826      0.012897222    5.6684437      745.34598     -23.12639       722.21959    
   2110000   303.19583      0.012897222    6.6961391      752.23722     -22.012614      730.2246     
   2111000   303.23832      0.012897222    9.3478698      752.34262     -21.735495      730.60712    
   2112000   304.2944       0.012897222    11.803068      754.96281     -26.981453      727.98135    
   2113000   294.07797      0.012897222    1.4930211      729.61555     -26.360661      703.25489    
   2114000   293.19775      0.012897222    12.843611      727.4317      -25.06082       702.37088    
   2115000   304.51372      0.012897222    10.351277      755.50693     -29.697793      725.80913    
   2116000   305.89512      0.012897222    9.3243485      758.93423     -29.191445      729.74279    
   2117000   302.18754      0.012897222    5.1248912      749.73562     -27.864886      721.87073    
   2118000   297.90126      0.012897222    7.4883399      739.10123     -26.661047      712.44018    
   2119000   307.14632      0.012897222    7.7447771      762.0385      -27.335685      734.70281    
   2120000   297.81694      0.012897222    6.4847184      738.89204     -27.98935       710.90269    
   2121000   288.32796      0.012897222    6.4454449      715.34962     -28.148269      687.20135    
   2122000   296.97427      0.012897222    7.1258757      736.80135     -26.914378      709.88697    
   2123000   301.51925      0.012897222    7.5018798      748.07758     -25.667892      722.40968    
   2124000   293.47308      0.012897222    6.82269        728.11479     -24.845863      703.26893    
   2125000   301.62453      0.012897222    7.7432554      748.33877     -24.946384      723.39238    
   2126000   301.81331      0.012897222    6.9896429      748.80714     -21.758854      727.04828    
   2127000   294.67174      0.012897222    5.9700903      731.08872     -24.073601      707.01512    
   2128000   309.1463       0.012897222    6.4721561      767.00049     -23.989726      743.01076    
   2129000   307.04053      0.012897222    8.8121097      761.77601     -21.384559      740.39145    
   2130000   296.47074      0.012897222    8.4936321      735.55207     -21.482718      714.06936    
   2131000   288.39234      0.012897222    3.8510954      715.50934     -22.937512      692.57183    
   2132000   305.94527      0.012897222    7.4163914      759.05865     -26.877062      732.18158    
   2133000   305.42144      0.012897222    7.6833092      757.759       -25.484891      732.27411    
   2134000   291.96088      0.012897222    7.7660078      724.36299     -25.847368      698.51563    
   2135000   291.4973       0.012897222    6.1454353      723.21283     -25.511479      697.70135    
   2136000   304.59738      0.012897222    7.0149942      755.71449     -22.8204        732.89409    
   2137000   301.79398      0.012897222    6.0088705      748.75918     -23.18992       725.56926    
   2138000   290.99173      0.012897222    4.727399       721.95851     -23.522517      698.436      
   2139000   301.37129      0.012897222    7.5674273      747.71047     -22.095823      725.61465    
   2140000   312.20459      0.012897222    8.0247136      774.5882      -20.27231       754.31589    
   2141000   296.25357      0.012897222    6.7438335      735.01328     -22.147838      712.86544    
   2142000   293.05645      0.012897222    5.7572305      727.08113     -21.237412      705.84372    
   2143000   309.32992      0.012897222    8.0808973      767.45607     -22.64031       744.81576    
   2144000   297.06014      0.012897222    5.3675574      737.0144      -18.875593      718.13881    
   2145000   301.94787      0.012897222    6.2758397      749.141       -18.661854      730.47915    
   2146000   304.91678      0.012897222    7.1934636      756.50693     -20.663371      735.84356    
   2147000   314.11394      0.012897222    7.1408195      779.32535     -21.993267      757.33208    
   2148000   294.74827      0.012897222    5.0667687      731.27857     -18.549735      712.72884    
   2149000   300.04147      0.012897222    6.9176751      744.41115     -21.420936      722.99021    
   2150000   296.78852      0.012897222    7.3238384      736.34049     -22.583223      713.75727    
   2151000   310.67601      0.012897222    10.768541      770.79575     -16.084638      754.71111    
   2152000   310.24641      0.012897222    5.7253845      769.7299      -22.399624      747.33028    
   2153000   298.5038       0.012897222    5.8046397      740.59617     -22.347969      718.2482     
   2154000   284.75894      0.012897222    12.067748      706.49477     -18.217111      688.27766    
   2155000   309.53944      0.012897222    9.334339       767.97587     -21.562138      746.41374    
   2156000   293.52605      0.012897222   -1.5809339      728.24623     -22.430291      705.81594    
   2157000   285.75205      0.012897222    5.3932616      708.9587      -20.628636      688.33006    
   2158000   306.38074      0.012897222    12.924488      760.13907     -21.648043      738.49102    
   2159000   311.18871      0.012897222    3.340848       772.06776     -21.278027      750.78974    
   2160000   291.59556      0.012897222    2.0362203      723.45662     -20.167682      703.28894    
   2161000   292.2873       0.012897222    8.9701588      725.17286     -17.614957      707.5579     
   2162000   311.63         0.012897222    8.2045674      773.16261     -19.781874      753.38074    
   2163000   300.13345      0.012897222    0.78895028     744.63936     -23.385953      721.25341    
   2164000   296.15416      0.012897222    10.61156       734.76663     -23.369942      711.39669    
   2165000   298.78993      0.012897222    5.4684706      741.30604     -23.768953      717.53709    
   2166000   310.82677      0.012897222    2.5077426      771.16979     -23.727198      747.44259    
   2167000   295.08597      0.012897222    7.1386015      732.11642     -24.790788      707.32563    
   2168000   302.71841      0.012897222    8.7087585      751.05271     -22.633653      728.41906    
   2169000   295.16304      0.012897222    8.4308837      732.30764     -20.902603      711.40504    
   2170000   301.47326      0.012897222    6.310284       747.96346     -22.629609      725.33385    
   2171000   302.93186      0.012897222    7.2125086      751.58228     -24.934587      726.6477     
   2172000   292.41434      0.012897222    4.8143351      725.48805     -18.349279      707.13877    
   2173000   307.52495      0.012897222    6.5161784      762.97789     -18.278863      744.69903    
   2174000   323.13743      0.012897222    8.0417561      801.71287     -19.5207        782.19217    
   2175000   304.76323      0.012897222    6.7320569      756.12598     -20.440129      735.68585    
   2176000   307.96254      0.012897222    2.18803        764.06354     -23.529784      740.53376    
   2177000   298.06067      0.012897222    7.8704429      739.49673     -21.293668      718.20306    
   2178000   296.15184      0.012897222    6.4962585      734.76088     -21.547921      713.21296    
   2179000   288.36995      0.012897222    5.4512667      715.45379     -16.640255      698.81353    
   2180000   298.93965      0.012897222    7.5056012      741.67751     -18.978361      722.69915    
   2181000   293.28147      0.012897222    9.232874       727.63942     -19.713286      707.92613    
   2182000   293.47935      0.012897222    9.7031227      728.13036     -18.371534      709.75883    
   2183000   303.37487      0.012897222    7.1314915      752.68141     -19.919146      732.76226    
   2184000   300.5067       0.012897222    6.368473       745.56541     -20.826359      724.73905    
   2185000   311.93189      0.012897222    6.5717268      773.91161     -22.665308      751.2463     
   2186000   297.73544      0.012897222    8.1543323      738.68984     -22.503718      716.18612    
   2187000   279.07282      0.012897222    6.6730707      692.38737     -19.940498      672.44687    
   2188000   292.97574      0.012897222    7.3136466      726.8809      -18.007402      708.8735     
   2189000   311.98516      0.012897222    7.7918416      774.04378     -17.249233      756.79455    
   2190000   308.53163      0.012897222    6.2994273      765.47547     -18.188141      747.28733    
   2191000   273.62449      0.012897222    5.0353914      678.86991     -20.234119      658.63579    
   2192000   297.16959      0.012897222    5.0646177      737.28593     -18.769275      718.51666    
   2193000   302.62777      0.012897222    7.1225817      750.82784     -18.650455      732.17739    
   2194000   291.29194      0.012897222    6.6896105      722.70334     -18.961841      703.7415     
   2195000   310.15937      0.012897222    2.6617789      769.51394     -18.744146      750.76979    
   2196000   308.49393      0.012897222    8.6677695      765.38195     -20.968173      744.41378    
   2197000   290.70661      0.012897222    12.119206      721.2511      -16.103182      705.14792    
   2198000   297.69487      0.012897222    2.519906       738.58917     -21.103355      717.48581    
   2199000   307.31224      0.012897222    1.5291826      762.45014     -20.64817       741.80197    
   2200000   308.41673      0.012897222    9.5122019      765.19042     -17.549665      747.64075    
   2201000   287.68367      0.012897222    8.4219163      713.75113     -17.170661      696.58047    
   2202000   307.34185      0.012897222    6.4326943      762.52361     -19.49361       743.03       
   2203000   302.17035      0.012897222    6.6982586      749.69296     -16.795081      732.89788    
   2204000   299.46405      0.012897222    7.5786217      742.97857     -19.012812      723.96575    
   2205000   300.93413      0.012897222    7.636111       746.62588     -22.681695      723.94418    
   2206000   292.38108      0.012897222    7.0874312      725.40552     -21.535687      703.86983    
   2207000   300.78824      0.012897222    6.604654       746.26391     -27.334026      718.92988    
   2208000   298.20479      0.012897222    7.1166372      739.8543      -27.268913      712.58539    
   2209000   300.93791      0.012897222    7.8354888      746.63525     -25.558564      721.07668    
   2210000   296.8275       0.012897222    7.4298235      736.43721     -24.460313      711.9769     
   2211000   294.25188      0.012897222    6.5387728      730.04704     -21.756075      708.29096    
   2212000   304.07936      0.012897222    6.4645846      754.42928     -20.89844       733.53084    
   2213000   297.26328      0.012897222    7.452581       737.51839     -24.599433      712.91896    
   2214000   296.60284      0.012897222    6.0322943      735.87983     -23.887097      711.99274    
   2215000   299.6938       0.012897222    6.2634521      743.54857     -24.316733      719.23183    
   2216000   297.71306      0.012897222    9.334259       738.6343      -27.633575      711.00072    
   2217000   307.02815      0.012897222    7.6235047      761.74529     -24.413784      737.33151    
   2218000   306.67433      0.012897222    6.9409085      760.86747     -26.390779      734.47669    
   2219000   290.86254      0.012897222    6.1928869      721.63799     -26.951636      694.68635    
   2220000   282.76284      0.012897222    6.8995241      701.5424      -26.094326      675.44807    
   2221000   300.08797      0.012897222    6.8420782      744.52651     -22.221801      722.30471    
   2222000   300.88344      0.012897222    7.0967492      746.50011     -24.192869      722.30724    
   2223000   299.26873      0.012897222    6.5138838      742.49397     -23.293235      719.20073    
   2224000   293.88989      0.012897222    6.9964898      729.14891     -24.211701      704.93721    
   2225000   305.24285      0.012897222    7.7033058      757.31593     -19.984462      737.33147    
   2226000   303.51192      0.012897222    4.1119752      753.02145     -22.976494      730.04495    
   2227000   290.70833      0.012897222    7.3392111      721.25538     -21.637319      699.61806    
   2228000   299.05768      0.012897222    8.5099481      741.97035     -19.694601      722.27575    
   2229000   303.34267      0.012897222    6.8258892      752.60154     -22.422963      730.17857    
   2230000   304.75672      0.012897222    1.6118573      756.10983     -27.570083      728.53974    
   2231000   298.44034      0.012897222    5.4367182      740.43871     -26.751404      713.68731    
   2232000   291.45694      0.012897222    7.7893702      723.1127      -24.352031      698.76067    
   2233000   297.96758      0.012897222    8.2952517      739.26577     -24.169023      715.09675    
   2234000   305.2882       0.012897222    3.9305546      757.42843     -24.514854      732.91358    
   2235000   291.38018      0.012897222    3.0908156      722.92227     -27.743458      695.17881    
   2236000   290.86055      0.012897222    8.3823296      721.63305     -27.797569      693.83548    
   2237000   302.19822      0.012897222    6.4914595      749.76212     -28.86371       720.89841    
   2238000   317.97292      0.012897222    8.4495808      788.89957     -23.861855      765.03772    
   2239000   291.44382      0.012897222    6.8315276      723.08014     -28.558085      694.52205    
   2240000   294.12619      0.012897222    7.4962417      729.73519     -29.600855      700.13434    
   2241000   303.47352      0.012897222    7.4536153      752.92616     -28.77566       724.1505     
   2242000   297.94767      0.012897222    6.9398828      739.21637     -27.200159      712.01621    
   2243000   303.4993       0.012897222    6.7303338      752.99014     -25.85456       727.13558    
   2244000   290.36343      0.012897222    7.002251       720.39967     -26.564857      693.83481    
   2245000   295.32168      0.012897222    11.346234      732.70122     -26.170754      706.53047    
   2246000   312.87978      0.012897222    8.3118121      776.26336     -27.487922      748.77544    
   2247000   312.38223      0.012897222    10.958966      775.02893     -26.181497      748.84744    
   2248000   305.08691      0.012897222    4.5504613      756.92902     -27.625455      729.30357    
   2249000   307.169        0.012897222    6.1754659      762.09477     -28.18334       733.91143    
   2250000   297.32967      0.012897222    6.2899757      737.68311     -25.595912      712.08719    
   2251000   299.70307      0.012897222    8.3723554      743.57158     -25.578269      717.99332    
   2252000   311.87961      0.012897222    7.740696       773.7819      -27.302933      746.47896    
   2253000   314.60334      0.012897222    3.1846881      780.53955     -27.77369       752.76586    
   2254000   288.36246      0.012897222    4.9260766      715.43522     -25.637087      689.79813    
   2255000   293.07197      0.012897222    9.7541947      727.11963     -28.153405      698.96622    
   2256000   309.37548      0.012897222    8.3230307      767.56909     -25.465506      742.10358    
   2257000   311.06032      0.012897222    7.848478       771.74923     -25.211478      746.53775    
   2258000   296.51219      0.012897222    4.9784333      735.65492     -23.821891      711.83303    
   2259000   297.34196      0.012897222    6.1703549      737.71359     -23.591113      714.12248    
   2260000   304.53257      0.012897222    8.744585       755.55369     -20.05804       735.49565    
   2261000   307.2983       0.012897222    8.8161716      762.41556     -21.582607      740.83295    
   2262000   299.38304      0.012897222    4.0799523      742.77756     -24.494476      718.28309    
   2263000   293.64732      0.012897222    8.4821317      728.5471      -26.092442      702.45465    
   2264000   297.51616      0.012897222    8.2830842      738.14579     -23.749112      714.39668    
   2265000   294.21527      0.012897222    8.1599119      729.9562      -23.852956      706.10325    
   2266000   302.03356      0.012897222    7.1590605      749.35359     -22.597592      726.756      
   2267000   305.48974      0.012897222    5.8449824      757.92846     -23.602262      734.3262     
   2268000   291.71849      0.012897222    3.902956       723.7616      -18.117003      705.6446     
   2269000   304.5349       0.012897222    7.3169429      755.55947     -18.578915      736.98056    
   2270000   290.71733      0.012897222    6.4900791      721.27771     -20.254545      701.02316    
   2271000   301.09988      0.012897222    6.7090905      747.03711     -20.39861       726.6385     
   2272000   298.56175      0.012897222    7.4426603      740.73994     -18.2019        722.53804    
   2273000   298.91257      0.012897222    7.0551486      741.61032     -23.287944      718.32238    
   2274000   306.2077       0.012897222    6.5357838      759.70974     -20.462604      739.24714    
   2275000   295.52888      0.012897222    10.212708      733.2153      -26.769649      706.44565    
   2276000   305.17156      0.012897222    5.340843       757.13906     -26.674579      730.46448    
   2277000   299.8517       0.012897222    5.9682425      743.94033     -25.673929      718.2664     
   2278000   297.69916      0.012897222    7.2189207      738.59983     -22.070093      716.52973    
   2279000   293.6888       0.012897222    7.7275894      728.65001     -19.383842      709.26617    
   2280000   302.78024      0.012897222    8.27759        751.20612     -21.032167      730.17396    
   2281000   301.40893      0.012897222    6.8725629      747.80386     -19.881742      727.92212    
   2282000   300.77829      0.012897222    6.9496531      746.23923     -21.089107      725.15013    
   2283000   293.66601      0.012897222    6.970448       728.59347     -21.411685      707.18178    
   2284000   308.6178       0.012897222    8.1471709      765.68927     -25.240607      740.44866    
   2285000   292.70028      0.012897222    6.4507591      726.19746     -24.291083      701.90638    
   2286000   288.73419      0.012897222    6.801907       716.35749     -23.702259      692.65523    
   2287000   292.65886      0.012897222    8.595106       726.0947      -21.938229      704.15647    
   2288000   317.39662      0.012897222    7.5261052      787.46975     -21.98897       765.48078    
   2289000   294.30255      0.012897222    3.7720125      730.17273     -27.04578       703.12695    
   2290000   294.92092      0.012897222    6.831642       731.70694     -27.436417      704.27052    
   2291000   297.46259      0.012897222    7.6814343      738.0129      -24.305522      713.70737    
   2292000   306.52357      0.012897222    6.8917719      760.49344     -26.156044      734.33739    
   2293000   302.80139      0.012897222    7.0733736      751.2586      -25.189236      726.06937    
   2294000   305.04435      0.012897222    7.8612861      756.82344     -20.917096      735.90634    
   2295000   298.14186      0.012897222    7.6484972      739.69817     -21.195511      718.50266    
   2296000   296.39139      0.012897222    6.7743559      735.35522     -20.179806      715.17541    
   2297000   300.82619      0.012897222    6.5010721      746.35806     -23.871522      722.48654    
   2298000   293.97693      0.012897222    6.8618202      729.36486     -19.670835      709.69403    
   2299000   295.0291       0.012897222    7.7088868      731.97534     -22.30058       709.67476    
   2300000   306.60473      0.012897222    11.203929      760.6948      -22.878746      737.81605    
   2301000   309.57329      0.012897222    6.359438       768.05987     -22.692159      745.36771    
   2302000   303.63687      0.012897222    5.4237492      753.33144     -25.038351      728.29309    
   2303000   279.42736      0.012897222    9.2471891      693.26699     -23.056613      670.21038    
   2304000   307.16323      0.012897222    8.809557       762.08045     -26.782767      735.29768    
   2305000   312.1641       0.012897222    0.20209489     774.48773     -22.247664      752.24007    
   2306000   286.59073      0.012897222    1.3754182      711.03951     -20.213953      690.82556    
   2307000   293.30395      0.012897222    6.4091091      727.69519     -20.009295      707.68589    
   2308000   311.62254      0.012897222    18.884659      773.14412     -21.075928      752.0682     
   2309000   306.04014      0.012897222    11.171031      759.29401     -26.668782      732.62523    
   2310000   297.19792      0.012897222   -0.35836863     737.35624     -27.264498      710.09174    
   2311000   298.31968      0.012897222    2.5844134      740.13934     -27.307139      712.8322     
   2312000   300.22288      0.012897222    12.860277      744.86124     -29.116229      715.74502    
   2313000   303.1162       0.012897222    13.38206       752.03964     -21.980912      730.05873    
   2314000   305.46572      0.012897222    5.3897105      757.86888     -24.979257      732.88963    
   2315000   295.15281      0.012897222    7.4455234      732.28226     -20.841289      711.44097    
   2316000   302.85758      0.012897222    15.802672      751.398       -20.962736      730.43527    
   2317000   303.61079      0.012897222    7.001918       753.26675     -19.749882      733.51686    
   2318000   302.80695      0.012897222    3.6951583      751.27239     -23.382621      727.88977    
   2319000   297.51604      0.012897222    4.2504306      738.1455      -23.059867      715.08563    
   2320000   299.8474       0.012897222    6.8358671      743.92965     -22.265051      721.6646     
   2321000   295.36132      0.012897222    7.5464491      732.79958     -21.710345      711.08923    
   2322000   299.13449      0.012897222    9.0810681      742.16093     -21.286575      720.87435    
   2323000   311.05158      0.012897222    7.9584155      771.72755     -18.256407      753.47115    
   2324000   305.46005      0.012897222    6.2177352      757.85479     -19.430013      738.42478    
   2325000   299.29886      0.012897222    2.0791082      742.56872     -20.508928      722.05979    
   2326000   301.86919      0.012897222    5.9047408      748.94579     -20.609949      728.33584    
   2327000   291.25498      0.012897222    8.8337562      722.61162     -23.283069      699.32855    
   2328000   303.35721      0.012897222    8.9120699      752.63761     -21.106434      731.53117    
   2329000   311.98923      0.012897222    7.3530447      774.05389     -20.398709      753.65518    
   2330000   292.41741      0.012897222    5.202432       725.49566     -17.359688      708.13597    
   2331000   293.70567      0.012897222    5.2870561      728.69185     -21.417217      707.27464    
   2332000   310.98264      0.012897222    10.762523      771.55651     -19.314594      752.24192    
   2333000   310.07104      0.012897222    7.5657166      769.2948      -19.705376      749.58942    
   2334000   290.16606      0.012897222    7.2222307      719.91        -20.811943      699.09806    
   2335000   304.68552      0.012897222    7.2761912      755.93317     -23.143351      732.78982    
   2336000   302.664        0.012897222    7.1131713      750.91773     -21.111547      729.80618    
   2337000   299.50399      0.012897222    6.7503077      743.07766     -23.635189      719.44247    
   2338000   300.31765      0.012897222    6.5745942      745.09637     -19.222399      725.87397    
   2339000   305.19273      0.012897222    5.9611363      757.19157     -17.423714      739.76786    
   2340000   291.80183      0.012897222    7.5850656      723.96837     -17.649915      706.31846    
   2341000   298.89203      0.012897222    7.454267       741.55937     -20.90753       720.65184    
   2342000   314.36431      0.012897222    8.5526775      779.94652     -20.580499      759.36602    
   2343000   315.20273      0.012897222    6.3810694      782.02667     -21.087374      760.93929    
   2344000   299.41402      0.012897222    7.6150013      742.85444     -20.418307      722.43614    
   2345000   304.9734       0.012897222    6.5911652      756.6474      -20.508398      736.139      
   2346000   296.01474      0.012897222    1.7705522      734.42072     -22.320837      712.09988    
   2347000   298.28257      0.012897222    4.5306233      740.04728     -23.448356      716.59893    
   2348000   298.85482      0.012897222    10.797341      741.46704     -21.997186      719.46985    
   2349000   298.81473      0.012897222    10.635406      741.36759     -18.435477      722.93212    
   2350000   297.72282      0.012897222    7.819009       738.65851     -21.048276      717.61024    
   2351000   311.40583      0.012897222   -0.26114992     772.60646     -20.742439      751.86402    
   2352000   293.25233      0.012897222    11.264982      727.56711     -20.33723       707.22988    
   2353000   275.57771      0.012897222    1.9615059      683.7159      -19.694043      664.02185    
   2354000   303.94013      0.012897222    10.273929      754.08385     -18.027171      736.05668    
   2355000   312.73247      0.012897222    0.68159695     775.89787     -12.365489      763.53239    
   2356000   298.16225      0.012897222   -9.8812757      739.74876     -14.242244      725.50652    
   2357000   289.41803      0.012897222    10.330775      718.05411     -17.081861      700.97225    
   2358000   309.32306      0.012897222    13.732582      767.43903     -15.588838      751.85019    
   2359000   310.03576      0.012897222    0.93114752     769.20726     -21.419162      747.7881     
   2360000   287.54994      0.012897222    10.386418      713.41933     -21.988906      691.43042    
   2361000   300.73896      0.012897222    12.98929       746.14166     -17.95908       728.18258    
   2362000   318.02357      0.012897222    7.2374341      789.02523     -23.18543       765.8398     
   2363000   298.72103      0.012897222    6.9586076      741.1351      -14.922683      726.21242    
   2364000   308.95601      0.012897222    6.8633825      766.52837     -18.480824      748.04754    
   2365000   297.88465      0.012897222    6.8149942      739.06004     -17.215121      721.84492    
   2366000   316.16119      0.012897222    8.4446207      784.40462     -19.42186       764.98276    
   2367000   303.90593      0.012897222    6.9928124      753.99899     -17.167822      736.83117    
   2368000   302.74389      0.012897222    7.8352614      751.11593     -16.858435      734.2575     
   2369000   299.83221      0.012897222    7.4276159      743.89198     -19.516311      724.37567    
   2370000   307.17693      0.012897222    5.9077241      762.11442     -17.895815      744.21861    
   2371000   301.2549       0.012897222    6.9607061      747.42171     -21.025783      726.39593    
   2372000   287.65634      0.012897222    6.9848101      713.6833      -16.911696      696.7716     
   2373000   286.71019      0.012897222    4.9024932      711.33588     -18.120928      693.21495    
   2374000   311.95202      0.012897222    6.0268195      773.96155     -18.423851      755.5377     
   2375000   305.25148      0.012897222    8.4984536      757.33734     -20.890753      736.44658    
   2376000   282.61388      0.012897222    5.7387718      701.17283     -19.178409      681.99442    
   2377000   293.17584      0.012897222    4.7188888      727.37735     -18.50474       708.87261    
   2378000   306.45603      0.012897222    7.1443491      760.32586     -16.807835      743.51802    
   2379000   316.75443      0.012897222    9.7799629      785.87647     -18.13672       767.73975    
   2380000   284.9579       0.012897222    7.5594587      706.98841     -15.491729      691.49668    
   2381000   297.20573      0.012897222    6.4526125      737.37562     -18.401141      718.97448    
   2382000   311.35374      0.012897222    6.8853624      772.47721     -17.237223      755.23999    
   2383000   300.40091      0.012897222    5.6945716      745.30294     -19.368074      725.93487    
   2384000   289.86578      0.012897222    7.2449638      719.165       -16.303666      702.86134    
   2385000   296.89204      0.012897222    8.0916006      736.59733     -17.567975      719.02935    
   2386000   298.80829      0.012897222    6.7533253      741.3516      -18.351792      722.99981    
   2387000   301.21825      0.012897222    2.6108955      747.33078     -14.717978      732.6128     
   2388000   294.26154      0.012897222    6.2675345      730.07099     -18.822477      711.24851    
   2389000   296.57947      0.012897222    10.886535      735.82185     -16.629868      719.19198    
   2390000   299.72297      0.012897222    4.2867997      743.62095     -15.812494      727.80846    
   2391000   297.20748      0.012897222    7.1564531      737.37994     -18.676095      718.70385    
   2392000   306.20635      0.012897222    9.0715644      759.7064      -19.805678      739.90072    
   2393000   300.65789      0.012897222    6.1821042      745.94051     -19.612949      726.32756    
   2394000   301.51423      0.012897222    4.0075109      748.06512     -18.170653      729.89447    
   2395000   290.95281      0.012897222    4.7856478      721.86193     -17.925232      703.9367     
   2396000   298.50309      0.012897222    7.4426071      740.59439     -20.296785      720.29761    
   2397000   303.2419       0.012897222    6.5498354      752.35152     -22.65008       729.70144    
   2398000   311.05533      0.012897222    6.6136137      771.73684     -20.057325      751.67952    
   2399000   293.87143      0.012897222    7.5955001      729.10311     -20.475187      708.62792    
   2400000   300.69966      0.012897222    15.347837      746.04415     -22.940488      723.10366    
   2401000   299.92419      0.012897222    0.26222316     744.12018     -21.693207      722.42697    
   2402000   305.51842      0.012897222    12.275211      757.99962     -28.264752      729.73486    
   2403000   306.47964      0.012897222    8.4145526      760.38444     -22.320755      738.06368    
   2404000   291.39711      0.012897222    1.9314347      722.96426     -25.005919      697.95834    
   2405000   293.47372      0.012897222    14.091239      728.11639     -23.864777      704.25161    
   2406000   316.43211      0.012897222    8.5217225      785.0768      -23.073375      762.00342    
   2407000   317.78676      0.012897222   -0.45359259     788.43771     -21.4775        766.96021    
   2408000   283.83069      0.012897222    6.3468688      704.19177     -19.779332      684.41244    
   2409000   296.02374      0.012897222    9.1777982      734.44306     -20.61995       713.82311    
   2410000   307.31106      0.012897222    10.05193       762.4472      -18.540469      743.90673    
   2411000   315.7371       0.012897222   -0.68661987     783.35244     -16.063227      767.28921    
   2412000   295.47416      0.012897222    3.9288428      733.07954     -16.002118      717.07742    
   2413000   290.97945      0.012897222    3.2622749      721.92805     -17.895199      704.03285    
   2414000   306.74334      0.012897222    7.2343233      761.03869     -16.929993      744.1087     
   2415000   294.31356      0.012897222    7.5519057      730.20005     -22.454013      707.74603    
   2416000   302.23299      0.012897222    5.3171943      749.84838     -19.921394      729.92698    
   2417000   293.65888      0.012897222    8.2798507      728.57577     -18.094511      710.48126    
   2418000   289.11544      0.012897222    7.3520393      717.30337     -22.459102      694.84427    
   2419000   297.3245       0.012897222    7.1402423      737.67027     -23.434346      714.23593    
   2420000   301.95957      0.012897222    7.1619769      749.17001     -19.102434      730.06757    
   2421000   313.97469      0.012897222    5.4145071      778.97987     -17.824386      761.15548    
   2422000   303.09258      0.012897222    7.3195497      751.98105     -18.035004      733.94605    
   2423000   303.6603       0.012897222    7.5306937      753.38957     -19.388878      734.0007     
   2424000   307.13496      0.012897222    10.748261      762.01029     -18.15315       743.85714    
   2425000   293.59133      0.012897222    6.6046897      728.40818     -24.782088      703.62609    
   2426000   307.59449      0.012897222    6.4464043      763.15041     -22.704926      740.44549    
   2427000   291.87326      0.012897222    10.692586      724.14559     -20.058203      704.08739    
   2428000   301.1721       0.012897222    6.6616258      747.21628     -19.688798      727.52748    
   2429000   308.5477       0.012897222    6.2147316      765.51535     -24.221437      741.29391    
   2430000   295.22135      0.012897222    7.1924909      732.45231     -20.000623      712.45169    
   2431000   302.87768      0.012897222    9.8717276      751.44786     -17.733847      733.71401    
   2432000   297.56502      0.012897222    3.8771954      738.26701     -18.229692      720.03732    
   2433000   315.55555      0.012897222    6.5049891      782.90203     -17.210528      765.6915     
   2434000   296.00239      0.012897222    10.506257      734.39008     -19.317696      715.07238    
   2435000   287.25817      0.012897222    5.3989529      712.69543     -18.272147      694.42329    
   2436000   311.56686      0.012897222    5.6527373      773.00597     -20.266138      752.73983    
   2437000   298.14693      0.012897222    8.8008574      739.71074     -21.744165      717.96658    
   2438000   294.3779       0.012897222    6.6976293      730.35967     -23.918806      706.44087    
   2439000   296.34137      0.012897222    2.1163684      735.2311      -25.69569       709.53541    
   2440000   311.32035      0.012897222    15.312562      772.39437     -22.927567      749.4668     
   2441000   297.7866       0.012897222    8.9202681      738.81676     -20.914322      717.90244    
   2442000   286.84243      0.012897222    6.936206       711.66398     -26.661651      685.00233    
   2443000   300.4478       0.012897222    4.3005545      745.41926     -23.795328      721.62393    
   2444000   301.20612      0.012897222    11.999168      747.30069     -24.826992      722.47369    
   2445000   301.48348      0.012897222    8.6626645      747.98881     -20.779457      727.20936    
   2446000   309.7077       0.012897222    5.5490517      768.39334     -20.435586      747.95775    
   2447000   304.3027       0.012897222    14.062345      754.98338     -18.246228      736.73715    
   2448000   292.74531      0.012897222    6.1585808      726.30919     -20.749015      705.56018    
   2449000   308.55505      0.012897222    5.0897971      765.53359     -19.894433      745.63915    
   2450000   297.92044      0.012897222    10.10202       739.14882     -20.717012      718.43181    
   2451000   297.48596      0.012897222    8.0458332      738.07087     -24.764361      713.30651    
   2452000   309.19957      0.012897222    4.8720309      767.13267     -23.08146       744.05121    
   2453000   304.4104       0.012897222    5.0374721      755.2506      -18.851055      736.39954    
   2454000   298.90816      0.012897222    7.7276259      741.5994      -19.110802      722.48859    
   2455000   299.30766      0.012897222    8.1755679      742.59054     -22.60663       719.98391    
   2456000   303.58298      0.012897222    2.5530667      753.19774     -23.019703      730.17804    
   2457000   291.52863      0.012897222    7.5054059      723.29058     -20.514669      702.77591    
   2458000   299.30254      0.012897222    10.321156      742.57785     -21.548969      721.02888    
   2459000   300.27901      0.012897222    4.3001744      745.0005      -18.112461      726.88803    
   2460000   319.53048      0.012897222    7.1257256      792.76393     -20.535324      772.2286     
   2461000   293.64064      0.012897222    13.47411       728.53052     -20.767824      707.7627     
   2462000   294.0273       0.012897222    5.7856004      729.48983     -20.451015      709.03881    
   2463000   312.40154      0.012897222    3.8898529      775.07684     -22.322435      752.7544     
   2464000   304.17906      0.012897222    8.5207803      754.67664     -26.29436       728.38228    
   2465000   293.88847      0.012897222    8.3745618      729.14539     -23.602095      705.54329    
   2466000   302.21722      0.012897222    5.3589896      749.80926     -25.479103      724.33016    
   2467000   310.33545      0.012897222    7.0385733      769.9508      -28.005038      741.94576    
   2468000   295.53859      0.012897222    7.233586       733.23939     -23.960056      709.27934    
   2469000   310.36321      0.012897222    8.048064       770.01968     -25.102548      744.91713    
   2470000   293.6411       0.012897222    7.3670382      728.53167     -29.259197      699.27248    
   2471000   289.09529      0.012897222    6.5061236      717.25339     -23.970175      693.28321    
   2472000   313.68252      0.012897222    6.8586002      778.25499     -21.399551      756.85543    
   2473000   309.8541       0.012897222    5.8089359      768.75656     -23.886986      744.86958    
   2474000   286.69181      0.012897222    8.0406228      711.29027     -24.768469      686.5218     
   2475000   294.59935      0.012897222    6.7006796      730.9091      -23.681053      707.22804    
   2476000   311.96159      0.012897222    7.2411505      773.98531     -22.867127      751.11818    
   2477000   298.91544      0.012897222    6.6756238      741.61744     -23.638354      717.97909    
   2478000   293.54638      0.012897222    9.9199716      728.29666     -23.132491      705.16417    
   2479000   298.64419      0.012897222    12.334848      740.94447     -21.500769      719.4437     
   2480000   303.88174      0.012897222    5.4741878      753.93897     -20.755685      733.18328    
   2481000   303.10694      0.012897222    6.0444375      752.01668     -22.88913       729.12755    
   2482000   286.83239      0.012897222    6.8213455      711.63907     -21.581485      690.05758    
   2483000   298.24041      0.012897222    7.2306084      739.94268     -21.741211      718.20147    
   2484000   310.31063      0.012897222    7.3040782      769.88922     -24.967956      744.92127    
   2485000   291.67368      0.012897222    6.0056352      723.65044     -26.131861      697.51858    
   2486000   289.32172      0.012897222    6.7542769      717.81515     -25.579794      692.23536    
   2487000   312.27621      0.012897222    9.0506945      774.76589     -24.737444      750.02844    
   2488000   304.18912      0.012897222    7.0090376      754.70159     -25.277191      729.4244     
   2489000   309.74745      0.012897222    6.2931117      768.49196     -31.00123       737.49073    
   2490000   297.19466      0.012897222    6.4690216      737.34814     -30.251743      707.0964     
   2491000   313.90973      0.012897222    6.5730779      778.81869     -29.03451       749.78418    
   2492000   303.34783      0.012897222    5.1257156      752.61433     -30.344216      722.27012    
   2493000   294.11506      0.012897222    6.7378517      729.70756     -27.558022      702.14954    
   2494000   303.41346      0.012897222    5.9114523      752.77717     -27.038696      725.73847    
   2495000   308.98275      0.012897222    7.3291546      766.59471     -26.707454      739.88726    
   2496000   300.26556      0.012897222    7.3256723      744.96712     -25.151804      719.81532    
   2497000   302.32265      0.012897222    7.893131       750.07082     -24.196723      725.8741     
   2498000   305.06159      0.012897222    6.4786943      756.86621     -25.760466      731.10574    
   2499000   290.0256       0.012897222    6.4094911      719.56152     -27.449106      692.11241    
   2500000   302.39627      0.012897222    8.304881       750.25349     -23.738021      726.51547    
   2501000   294.27539      0.012897222    6.5645448      730.10536     -27.459709      702.64565    
   2502000   297.33434      0.012897222    7.4762218      737.6947      -26.190697      711.50401    
   2503000   289.6914       0.012897222    8.6511081      718.73235     -29.65718       689.07517    
   2504000   311.00582      0.012897222    6.0516382      771.61401     -24.0744        747.53961    
   2505000   306.54847      0.012897222    7.7754683      760.55521     -18.02191       742.53329    
   2506000   286.56968      0.012897222    7.298394       710.98727     -19.414644      691.57263    
   2507000   293.17563      0.012897222    6.4836445      727.37681     -20.385165      706.99164    
   2508000   315.14867      0.012897222    7.8998433      781.89253     -23.345513      758.54702    
   2509000   312.08666      0.012897222    8.2848771      774.2956      -24.480179      749.81543    
   2510000   294.55069      0.012897222    6.0842281      730.78838     -26.82661       703.96177    
   2511000   293.64527      0.012897222    7.3068965      728.54201     -24.20998       704.33203    
   2512000   301.82146      0.012897222    6.4218444      748.82737     -25.67868       723.14869    
   2513000   311.83586      0.012897222    8.2404359      773.67336     -28.3413        745.33206    
   2514000   294.06486      0.012897222    9.5686038      729.58303     -24.15254       705.43049    
   2515000   291.46267      0.012897222    6.8068957      723.12693     -26.934852      696.19207    
   2516000   300.62395      0.012897222    8.5082314      745.85631     -29.955246      715.90106    
   2517000   313.21286      0.012897222    7.3504069      777.08974     -24.486239      752.6035     
   2518000   298.98049      0.012897222    7.5849868      741.77884     -24.354658      717.42418    
   2519000   300.82164      0.012897222    6.4112177      746.34678     -27.126375      719.2204     
   2520000   298.26454      0.012897222    6.1616358      740.00255     -25.788234      714.21432    
   2521000   308.5274       0.012897222    8.7354407      765.46498     -29.086353      736.37862    
   2522000   301.33         0.012897222    8.4808072      747.60805     -21.042123      726.56592    
   2523000   284.33766      0.012897222    5.5732166      705.44958     -24.072462      681.37712    
   2524000   294.1292       0.012897222    6.5006464      729.74265     -23.424705      706.31794    
   2525000   315.03843      0.012897222    8.0360253      781.61904     -23.783305      757.83573    
   2526000   298.87439      0.012897222    7.3453317      741.5156      -25.267524      716.24808    
   2527000   289.13856      0.012897222    4.9342054      717.36073     -26.802161      690.55857    
   2528000   304.03382      0.012897222    7.0716565      754.31629     -25.669476      728.64681    
   2529000   306.63234      0.012897222    8.0091714      760.76329     -24.637702      736.12559    
   2530000   294.05591      0.012897222    6.989715       729.56081     -23.449763      706.11105    
   2531000   293.88873      0.012897222    5.7359286      729.14605     -25.236815      703.90923    
   2532000   307.92377      0.012897222    7.3551395      763.96737     -24.452657      739.51472    
   2533000   297.15252      0.012897222    8.0395936      737.2436      -23.604172      713.63943    
   2534000   298.72389      0.012897222    3.343991       741.14222     -21.313167      719.82905    
   2535000   301.60143      0.012897222    7.9833113      748.28146     -20.491417      727.79005    
   2536000   289.30373      0.012897222    7.6860005      717.77054     -24.206439      693.5641     
   2537000   282.92897      0.012897222    6.5312788      701.95456     -29.110891      672.84367    
   2538000   297.02886      0.012897222    4.6466788      736.93678     -23.485398      713.45138    
   2539000   313.51844      0.012897222    7.0268256      777.8479      -24.70063       753.14727    
   2540000   303.21452      0.012897222    7.3590376      752.28359     -26.401466      725.88212    
   2541000   298.68403      0.012897222    6.5843159      741.04331     -24.323971      716.71934    
   2542000   293.00507      0.012897222    4.4272429      726.95366     -24.208158      702.7455     
   2543000   306.41273      0.012897222    9.5385674      760.21843     -22.473829      737.7446     
   2544000   300.53403      0.012897222    12.7972        745.63321     -24.090708      721.5425     
   2545000   305.27358      0.012897222    5.992868       757.39217     -27.271555      730.12061    
   2546000   308.77087      0.012897222    4.0069434      766.06904     -21.604697      744.46435    
   2547000   299.54475      0.012897222    8.2894302      743.17877     -20.370416      722.80835    
   2548000   293.79106      0.012897222    7.4203669      728.90373     -21.708667      707.19506    
   2549000   306.09656      0.012897222    6.5413679      759.434       -17.118515      742.31548    
   2550000   307.3308       0.012897222    6.5185631      762.49618     -21.14144       741.35474    
   2551000   294.32927      0.012897222    10.698814      730.23903     -20.864882      709.37415    
   2552000   292.54304      0.012897222    6.8048849      725.80734     -22.426862      703.38048    
   2553000   307.65593      0.012897222    6.7889246      763.30285     -19.934612      743.36824    
   2554000   304.55427      0.012897222    7.8463044      755.60753     -22.650905      732.95663    
   2555000   287.92634      0.012897222    7.8270013      714.35318     -22.856919      691.49626    
   2556000   303.7695       0.012897222    6.8364349      753.6605      -23.860384      729.80012    
   2557000   310.22183      0.012897222    7.4375235      769.66891     -24.921789      744.74712    
   2558000   296.41692      0.012897222    4.6077969      735.41855     -23.085131      712.33342    
   2559000   278.16081      0.012897222    5.9664838      690.12463     -24.931618      665.19301    
   2560000   299.87826      0.012897222    7.1921932      744.00623     -28.710101      715.29613    
   2561000   302.51319      0.012897222    8.3097334      750.54355     -26.62937       723.91418    
   2562000   304.95605      0.012897222    6.9411388      756.60436     -28.51076       728.0936     
   2563000   307.64513      0.012897222    6.3355845      763.27604     -28.000098      735.27594    
   2564000   302.25371      0.012897222    5.6503154      749.89978     -28.086848      721.81293    
   2565000   305.62926      0.012897222    11.30561       758.27463     -29.147103      729.12753    
   2566000   301.98218      0.012897222    7.0893895      749.22612     -25.447585      723.77854    
   2567000   302.22209      0.012897222    6.4104602      749.82134     -20.571995      729.24935    
   2568000   299.38248      0.012897222    5.4582626      742.77618     -24.315549      718.46063    
   2569000   299.69958      0.012897222    7.3372175      743.56292     -24.044861      719.51806    
   2570000   301.52403      0.012897222    7.2073985      748.08942     -21.760541      726.32888    
   2571000   295.75485      0.012897222    6.1826331      733.77594     -21.650089      712.12585    
   2572000   295.24684      0.012897222    6.9844741      732.51556     -21.041044      711.47452    
   2573000   303.3822       0.012897222    8.120521       752.69961     -19.099911      733.5997     
   2574000   322.87334      0.012897222    8.3364174      801.05766     -17.247541      783.81012    
   2575000   297.85228      0.012897222    5.8017702      738.97973     -19.137359      719.84237    
   2576000   294.98127      0.012897222    6.8727935      731.85665     -19.690796      712.16586    
   2577000   298.95966      0.012897222    7.6385931      741.72716     -18.786508      722.94065    
   2578000   312.35148      0.012897222    7.5570992      774.95262     -20.731711      754.22091    
   2579000   290.13102      0.012897222    7.7864473      719.82305     -16.495713      703.32734    
   2580000   296.77871      0.012897222    6.5700065      736.31616     -16.172885      720.14328    
   2581000   308.74963      0.012897222    7.6733827      766.01634     -18.36635       747.64999    
   2582000   289.24612      0.012897222    6.5109503      717.6276      -16.78599       700.84161    
   2583000   297.72424      0.012897222    5.3454018      738.66204     -20.955738      717.7063     
   2584000   298.74203      0.012897222    7.6934242      741.18721     -22.342473      718.84474    
   2585000   302.57763      0.012897222    6.5871863      750.70344     -22.183826      728.51962    
   2586000   302.63936      0.012897222    8.2632192      750.85659     -24.725309      726.13128    
   2587000   306.49228      0.012897222    7.6706097      760.4158      -23.354323      737.06148    
   2588000   312.61484      0.012897222    7.7727514      775.60603     -19.351488      756.25454    
   2589000   280.47172      0.012897222    6.8011497      695.85807     -22.819106      673.03897    
   2590000   294.20058      0.012897222    5.9295437      729.91974     -22.483274      707.43646    
   2591000   312.39915      0.012897222    4.4398021      775.07091     -22.077541      752.99337    
   2592000   305.13016      0.012897222    6.5661665      757.03633     -21.551408      735.48492    
   2593000   306.99295      0.012897222    9.6605948      761.65797     -20.229518      741.42846    
   2594000   302.37025      0.012897222    7.7074899      750.18893     -22.179559      728.00937    
   2595000   292.51326      0.012897222    2.5990932      725.73347     -22.458858      703.27461    
   2596000   309.52805      0.012897222    7.7384586      767.94764     -24.290853      743.65678    
   2597000   296.66682      0.012897222    9.1955105      736.03857     -20.701358      715.33721    
   2598000   293.71016      0.012897222    5.7505567      728.703       -19.867502      708.8355     
   2599000   299.62256      0.012897222    5.8327389      743.37183     -24.026046      719.34578    
   2600000   323.65589      0.012897222    9.426372       802.99919     -21.095092      781.9041     
   2601000   300.91699      0.012897222    7.2568761      746.58334     -23.858954      722.72438    
   2602000   291.87617      0.012897222    6.2733657      724.15283     -23.017118      701.13572    
   2603000   295.76736      0.012897222    7.5038015      733.80696     -24.67634       709.13062    
   2604000   304.46736      0.012897222    8.3752516      755.39191     -21.555415      733.83649    
   2605000   301.00525      0.012897222    6.9660889      746.80233     -24.933943      721.86839    
   2606000   307.39861      0.012897222    5.8798355      762.66442     -27.988672      734.67575    
   2607000   289.5788       0.012897222    7.8685092      718.45298     -27.234598      691.21839    
   2608000   295.37881      0.012897222    7.8318825      732.84296     -23.595026      709.24794    
   2609000   310.83752      0.012897222    6.4176381      771.19646     -20.961113      750.23535    
   2610000   306.2959       0.012897222    6.8380891      759.92858     -21.372621      738.55596    
   2611000   295.78812      0.012897222    7.5032455      733.85848     -19.818616      714.03987    
   2612000   301.04155      0.012897222    7.1761019      746.89237     -22.986182      723.90619    
   2613000   308.15503      0.012897222    4.8830435      764.54113     -23.970494      740.57064    
   2614000   287.3564       0.012897222    7.8527797      712.93916     -26.873129      686.06603    
   2615000   289.91673      0.012897222    8.6082228      719.2914      -25.236973      694.05443    
   2616000   314.87609      0.012897222    8.7297305      781.21626     -22.444312      758.77195    
   2617000   304.09113      0.012897222    4.6214058      754.45848     -29.67084       724.78764    
   2618000   295.53142      0.012897222    5.2221903      733.2216      -24.674059      708.54754    
   2619000   287.1066       0.012897222    6.327288       712.31938     -24.699196      687.62018    
   2620000   296.75613      0.012897222    10.386326      736.26014     -21.51252       714.74763    
   2621000   308.57672      0.012897222    8.9058117      765.58735     -23.174661      742.41269    
   2622000   309.49821      0.012897222    5.0440875      767.87358     -21.776211      746.09737    
   2623000   287.89526      0.012897222    2.745326       714.27606     -21.306174      692.96989    
   2624000   299.00844      0.012897222    8.2159089      741.84817     -22.61817       719.23       
   2625000   311.50555      0.012897222    10.778798      772.85386     -20.863487      751.99037    
   2626000   292.50909      0.012897222    0.55752113     725.72311     -20.400059      705.32305    
   2627000   284.39042      0.012897222   -1.5806803      705.58046     -20.992444      684.58802    
   2628000   306.53992      0.012897222    9.3500289      760.53399     -19.460992      741.073      
   2629000   317.48622      0.012897222    7.049766       787.69205     -21.47616       766.21589    
   2630000   322.17015      0.012897222    8.4154142      799.31302     -23.716965      775.59605    
   2631000   297.15121      0.012897222    7.5247151      737.24035     -25.196252      712.0441     
   2632000   285.54699      0.012897222    6.9191065      708.44996     -24.052623      684.39734    
   2633000   304.51042      0.012897222    9.4522369      755.49875     -23.804881      731.69387    
   2634000   304.81018      0.012897222    6.1022953      756.24245     -21.684054      734.55839    
   2635000   287.67968      0.012897222    6.6636077      713.74122     -24.306112      689.4351     
   2636000   298.03693      0.012897222    7.3464867      739.43784     -23.537428      715.90041    
   2637000   302.74879      0.012897222    7.189672       751.12808     -23.571296      727.55679    
   2638000   311.25555      0.012897222    7.4857429      772.23361     -21.78866       750.44495    
   2639000   303.0902       0.012897222    6.3229213      751.97514     -21.59918       730.37596    
   2640000   284.87252      0.012897222    4.3848666      706.77658     -22.848542      683.92803    
   2641000   304.62782      0.012897222    9.8789248      755.79002     -20.945466      734.84455    
   2642000   300.61534      0.012897222    7.8865733      745.83495     -23.30533       722.52961    
   2643000   307.5708       0.012897222    5.9930224      763.09163     -22.239717      740.85191    
   2644000   302.9412       0.012897222    5.6117203      751.60547     -17.670984      733.93448    
   2645000   294.45508      0.012897222    6.2647396      730.55117     -21.68266       708.86851    
   2646000   292.13967      0.012897222    6.6650953      724.80658     -18.302152      706.50443    
   2647000   297.90321      0.012897222    7.2179254      739.10608     -21.714474      717.3916     
   2648000   307.39444      0.012897222    7.3740221      762.65408     -23.268642      739.38544    
   2649000   289.94417      0.012897222    5.797042       719.35948     -24.639295      694.72018    
   2650000   293.66378      0.012897222    7.2433189      728.58793     -24.914779      703.67315    
   2651000   303.3612       0.012897222    7.6152914      752.6475      -23.30147       729.34603    
   2652000   310.02224      0.012897222    5.7824037      769.17373     -25.708043      743.46569    
   2653000   296.91524      0.012897222    6.7990326      736.65489     -26.73543       709.91946    
   2654000   299.69279      0.012897222    8.4831027      743.54607     -22.415645      721.13043    
   2655000   296.96084      0.012897222    7.1093361      736.76804     -22.30718       714.46086    
   2656000   302.2503       0.012897222    6.7632697      749.89134     -21.538442      728.35289    
   2657000   304.50813      0.012897222    8.580875       755.49307     -21.309331      734.18374    
   2658000   306.9645       0.012897222    7.2796994      761.58738     -27.602711      733.98467    
   2659000   303.36975      0.012897222    4.9669961      752.66871     -24.079077      728.58964    
   2660000   289.24805      0.012897222    7.5937864      717.63239     -24.061217      693.57118    
   2661000   308.60344      0.012897222    8.4229407      765.65363     -20.272046      745.38159    
   2662000   304.94048      0.012897222    6.5548895      756.56573     -21.915114      734.65062    
   2663000   297.83835      0.012897222    7.3638717      738.94515     -23.515824      715.42932    
   2664000   295.61443      0.012897222    5.0815757      733.42755     -23.737187      709.69036    
   2665000   296.81651      0.012897222    6.9925245      736.40995     -25.331807      711.07814    
   2666000   323.30933      0.012897222    8.7871238      802.13936     -25.852466      776.2869     
   2667000   309.01524      0.012897222    5.9042845      766.67532     -26.189557      740.48576    
   2668000   294.47622      0.012897222    4.7339474      730.60361     -25.25429       705.34932    
   2669000   283.63965      0.012897222    6.5686582      703.71779     -27.718041      675.99975    
   2670000   298.91837      0.012897222    8.1971368      741.6247      -22.291616      719.33309    
   2671000   312.58836      0.012897222    8.3295704      775.54033     -24.455952      751.08438    
   2672000   301.63696      0.012897222   -1.3735839      748.36961     -22.200049      726.16956    
   2673000   287.91548      0.012897222    6.849388       714.32625     -23.319822      691.00642    
   2674000   286.90679      0.012897222    11.341474      711.82366     -22.532481      689.29118    
   2675000   309.94685      0.012897222    7.1334021      768.98667     -20.929849      748.05682    
   2676000   297.89068      0.012897222    5.2307428      739.07498     -24.177341      714.89764    
   2677000   282.92305      0.012897222    9.662526       701.93988     -23.343404      678.59648    
   2678000   304.12549      0.012897222    8.8629242      754.54373     -20.34201       734.20172    
   2679000   306.28359      0.012897222    10.834808      759.89802     -18.865969      741.03205    
   2680000   299.41659      0.012897222    4.9655686      742.86082     -22.799909      720.06091    
   2681000   289.25803      0.012897222    4.8735161      717.65713     -24.932305      692.72483    
   2682000   293.82513      0.012897222    8.2978566      728.98825     -28.754194      700.23406    
   2683000   323.14157      0.012897222    8.2628675      801.72314     -28.009273      773.71386    
   2684000   295.65324      0.012897222    6.5506057      733.52384     -28.986356      704.53748    
   2685000   293.85747      0.012897222    7.1282089      729.06849     -28.182204      700.88628    
   2686000   295.90436      0.012897222    9.254399       734.14688     -32.391848      701.75504    
   2687000   315.72925      0.012897222    4.652381       783.33298     -27.922787      755.41019    
   2688000   291.73285      0.012897222    2.690727       723.79725     -31.957686      691.83956    
   2689000   280.84202      0.012897222    7.3021942      696.7768      -32.945122      663.83167    
   2690000   310.56435      0.012897222    8.0469504      770.51872     -31.939048      738.57967    
   2691000   311.10708      0.012897222    4.3513909      771.86524     -27.916043      743.9492     
   2692000   294.93442      0.012897222    5.7858076      731.74044     -28.460131      703.28031    
   2693000   294.54805      0.012897222    8.692282       730.78182     -29.505723      701.2761     
   2694000   306.28793      0.012897222    6.9161465      759.90879     -28.339729      731.56906    
   2695000   302.33404      0.012897222    7.3593341      750.09908     -32.962144      717.13693    
   2696000   296.05078      0.012897222    6.7470795      734.51015     -30.245623      704.26452    
   2697000   302.60937      0.012897222    7.2583363      750.7822      -32.372781      718.40942    
   2698000   303.32735      0.012897222    6.8596612      752.56351     -28.06651       724.497      
   2699000   301.58502      0.012897222    7.2929095      748.24075     -27.572939      720.66781    
   2700000   294.0969       0.012897222    8.0227823      729.66253     -31.524166      698.13836    
   2701000   294.1678       0.012897222    6.5338033      729.83841     -26.153955      703.68446    
   2702000   296.7384       0.012897222    8.8742327      736.21614     -27.39703       708.81911    
   2703000   298.09669      0.012897222    6.8788687      739.58609     -26.918791      712.6673     
   2704000   303.22833      0.012897222    6.7871999      752.31784     -28.487401      723.83043    
   2705000   289.95286      0.012897222    7.1768607      719.38105     -30.113806      689.26724    
   2706000   286.98913      0.012897222    11.271957      712.02793     -28.565094      683.46284    
   2707000   300.79762      0.012897222    6.9526183      746.2872      -25.017138      721.27006    
   2708000   294.15158      0.012897222    5.4864697      729.79819     -25.081141      704.71705    
   2709000   296.32801      0.012897222    4.373277       735.19796     -24.808432      710.38953    
   2710000   311.85591      0.012897222    9.6996874      773.7231      -20.942434      752.78066    
   2711000   284.8546       0.012897222    12.764574      706.73211     -22.604185      684.12792    
   2712000   290.06602      0.012897222    3.8049521      719.66178     -22.879788      696.782      
   2713000   311.50589      0.012897222    0.71790002     772.85469     -19.405895      753.4488     
   2714000   307.18237      0.012897222    17.532518      762.12792     -20.571934      741.55599    
   2715000   286.2578       0.012897222    4.0266456      710.21349     -23.493289      686.7202     
   2716000   311.27434      0.012897222    3.5625436      772.28022     -24.178298      748.10192    
   2717000   312.37084      0.012897222    13.418329      775.00066     -24.701688      750.29897    
   2718000   293.16921      0.012897222    11.073186      727.36089     -26.465344      700.89555    
   2719000   290.8137       0.012897222    4.727902       721.51681     -23.86551       697.6513     
   2720000   299.32766      0.012897222    4.7543848      742.64017     -22.950745      719.68942    
   2721000   307.46678      0.012897222    14.576974      762.83356     -22.159411      740.67415    
   2722000   300.89689      0.012897222    8.0915231      746.53348     -25.30687       721.22661    
   2723000   294.10895      0.012897222    2.0768736      729.69242     -21.307626      708.38479    
   2724000   290.28625      0.012897222   -0.3201794      720.20819     -19.071071      701.13712    
   2725000   299.23773      0.012897222    3.0503842      742.41706     -17.949982      724.46708    
   2726000   301.63299      0.012897222    8.5014328      748.35975     -20.03362       728.32613    
   2727000   304.50413      0.012897222    8.3926411      755.48314     -20.156445      735.32669    
   2728000   298.32011      0.012897222    0.50765051     740.14043     -21.543904      718.59652    
   2729000   304.31937      0.012897222    8.7137482      755.02475     -22.263391      732.76136    
   2730000   296.38625      0.012897222    7.5476296      735.34246     -19.20139       716.14107    
   2731000   297.57227      0.012897222    5.1496031      738.28502     -23.903591      714.38143    
   2732000   297.04842      0.012897222    5.5805704      736.98532     -22.712139      714.27318    
   2733000   302.40017      0.012897222    6.4237456      750.26317     -18.963682      731.29949    
   2734000   306.71094      0.012897222    8.2049265      760.9583      -17.713993      743.24431    
   2735000   297.00148      0.012897222    6.1353755      736.86887     -14.682721      722.18615    
   2736000   310.47631      0.012897222    7.4131604      770.30027     -16.775982      753.52429    
   2737000   285.42983      0.012897222    8.3550336      708.15927     -13.708805      694.45047    
   2738000   290.73842      0.012897222    6.5962288      721.33004     -15.068958      706.26108    
   2739000   303.27352      0.012897222    5.6972055      752.42996     -18.476105      733.95386    
   2740000   297.12366      0.012897222    13.774777      737.172       -19.090454      718.08155    
   2741000   290.65298      0.012897222    6.5375563      721.11805     -17.528841      703.58921    
   2742000   302.38588      0.012897222    2.9918576      750.2277      -20.377991      729.84971    
   2743000   311.10658      0.012897222    4.6616704      771.864       -19.826546      752.03746    
   2744000   294.99729      0.012897222    8.7897109      731.8964      -17.47788       714.41852    
   2745000   300.98594      0.012897222    10.191435      746.75442     -19.34719       727.40723    
   2746000   303.84049      0.012897222    2.9894875      753.83664     -20.460573      733.37607    
   2747000   300.8941       0.012897222    5.7985177      746.52656     -21.891547      724.63501    
   2748000   285.36212      0.012897222    14.135415      707.99129     -17.285029      690.70626    
   2749000   294.14258      0.012897222    4.8656208      729.77585     -18.482179      711.29367    
   2750000   318.27823      0.012897222    9.5737489      789.65707     -18.868155      770.78891    
   2751000   290.32713      0.012897222    14.225848      720.30962     -16.399346      703.91027    
   2752000   298.16662      0.012897222    2.8962601      739.75961     -16.649805      723.1098     
   2753000   301.57731      0.012897222    2.8405603      748.22163     -19.000994      729.22064    
   2754000   306.71331      0.012897222    12.437149      760.96417     -23.032162      737.932      
   2755000   298.29232      0.012897222    8.9798305      740.07148     -20.002528      720.06895    
   2756000   294.04778      0.012897222    8.9594257      729.54065     -20.437995      709.10266    
   2757000   296.15687      0.012897222    4.2265985      734.77337     -17.138005      717.63536    
   2758000   304.00451      0.012897222    7.24805        754.24356     -21.32367       732.91989    
   2759000   303.27326      0.012897222    18.009693      752.42932     -19.461878      732.96744    
   2760000   304.16382      0.012897222    5.7939303      754.63883     -16.030934      738.6079     
   2761000   299.10801      0.012897222   -0.97856171     742.09521     -17.378491      724.71672    
   2762000   294.98326      0.012897222    3.8878953      731.86159     -17.593651      714.26794    
   2763000   304.95669      0.012897222    6.2522484      756.60595     -15.297692      741.30826    
   2764000   293.03909      0.012897222    9.5166935      727.03805     -15.75091       711.28714    
   2765000   287.87077      0.012897222    9.5526352      714.21532     -17.343443      696.87188    
   2766000   312.50521      0.012897222    5.0272617      775.33403     -18.354952      756.97908    
   2767000   309.68978      0.012897222    7.7785262      768.34888     -15.998799      752.35009    
   2768000   299.36433      0.012897222    7.3759265      742.73114     -19.499668      723.23147    
   2769000   299.88447      0.012897222    8.0483955      744.02162     -16.133558      727.88807    
   2770000   310.43506      0.012897222    5.4299016      770.19794     -16.83252       753.36542    
   2771000   299.91812      0.012897222    7.855028       744.10511     -19.343859      724.76126    
   2772000   285.64886      0.012897222    7.1798754      708.70269     -20.321704      688.38099    
   2773000   301.80528      0.012897222    5.1901748      748.78723     -20.308916      728.47831    
   2774000   314.70631      0.012897222    7.0618469      780.79503     -18.287275      762.50776    
   2775000   300.09288      0.012897222    7.274695       744.53871     -18.771808      725.7669     
   2776000   301.97967      0.012897222    7.6134776      749.21989     -15.185188      734.0347     
   2777000   293.87175      0.012897222    6.884745       729.10392     -19.251991      709.85193    
   2778000   296.14432      0.012897222    7.2690309      734.74222     -17.599988      717.14223    
   2779000   301.90694      0.012897222    6.6797017      749.03944     -15.81772       733.22172    
   2780000   303.1799       0.012897222    6.9717784      752.1977      -21.045572      731.15213    
   2781000   300.06844      0.012897222    7.7981155      744.47807     -20.17898       724.29909    
   2782000   299.64702      0.012897222    8.5232941      743.43251     -18.505049      724.92746    
   2783000   296.51647      0.012897222    5.2201466      735.66553     -23.002952      712.66258    
   2784000   303.94726      0.012897222    7.4429221      754.10153     -17.718971      736.38256    
   2785000   306.09863      0.012897222    7.0976227      759.43915     -20.842829      738.59632    
   2786000   291.794        0.012897222    4.9506727      723.94897     -25.956743      697.99223    
   2787000   296.79077      0.012897222    7.8471161      736.34609     -22.196198      714.14989    
   2788000   314.43597      0.012897222    9.1160226      780.12432     -21.536066      758.58825    
   2789000   307.43929      0.012897222    6.1167692      762.76535     -24.144866      738.62049    
   2790000   303.12289      0.012897222    6.3913239      752.05625     -23.717354      728.3389     
   2791000   296.65063      0.012897222    7.1406602      735.99839     -23.642955      712.35544    
   2792000   297.90851      0.012897222    6.6149043      739.11922     -23.581836      715.53738    
   2793000   292.52768      0.012897222    6.8669487      725.76924     -20.218745      705.55049    
   2794000   307.57793      0.012897222    7.603271       763.10931     -19.43507       743.67424    
   2795000   295.20419      0.012897222    8.124992       732.40974     -18.447183      713.96256    
   2796000   295.17922      0.012897222    7.1921883      732.34779     -14.78135       717.56644    
   2797000   310.06507      0.012897222    6.2003241      769.27999     -15.162386      754.1176     
   2798000   297.62964      0.012897222    2.8744647      738.42734     -12.549558      725.87779    
   2799000   293.22522      0.012897222    6.7185378      727.49985     -12.363532      715.13632    
   2800000   290.67184      0.012897222    8.1397116      721.16484     -21.489069      699.67577    
   2801000   308.63425      0.012897222    9.9218974      765.73008     -25.578744      740.15133    
   2802000   314.58794      0.012897222    6.9566188      780.50135     -16.630171      763.87118    
   2803000   303.83994      0.012897222    5.6475802      753.83528     -16.626277      737.209      
   2804000   282.94508      0.012897222   -0.58172455     701.99455     -14.942028      687.05252    
   2805000   304.69191      0.012897222    8.9210569      755.94902     -11.875014      744.07401    
   2806000   303.28352      0.012897222    10.824918      752.45479     -18.12281       734.33198    
   2807000   298.10468      0.012897222    2.0639265      739.60592     -18.98536       720.62056    
   2808000   300.07907      0.012897222    5.7377897      744.50445     -17.536841      726.96761    
   2809000   307.65631      0.012897222    7.1561301      763.30378     -13.29013       750.01365    
   2810000   294.93189      0.012897222    14.410348      731.73416     -15.802549      715.93161    
   2811000   301.7156       0.012897222    6.0740783      748.56472     -18.042868      730.52185    
   2812000   308.13764      0.012897222    4.3175584      764.49797     -16.479105      748.01886    
   2813000   292.14738      0.012897222    8.8174712      724.82571     -20.313186      704.51252    
   2814000   293.39349      0.012897222    10.700122      727.91733     -21.613048      706.30428    
   2815000   299.25735      0.012897222   -2.2553935      742.46573     -22.608065      719.85766    
   2816000   298.88194      0.012897222    9.761499       741.53434     -22.136592      719.39775    
   2817000   311.78122      0.012897222    8.1175736      773.53779     -18.593586      754.94421    
   2818000   299.71692      0.012897222    2.5067648      743.60594     -22.489459      721.11648    
   2819000   294.84369      0.012897222    10.389766      731.51531     -17.096202      714.41911    
   2820000   315.17487      0.012897222    6.3080234      781.95754     -17.589892      764.36765    
   2821000   302.07488      0.012897222   -1.2738906      749.4561      -18.185998      731.2701     
   2822000   286.431        0.012897222    7.360241       710.64321     -17.889991      692.75322    
   2823000   295.52584      0.012897222    8.1485181      733.20775     -17.913552      715.29419    
   2824000   305.62787      0.012897222    6.4492382      758.27117     -19.372762      738.89841    
   2825000   307.91468      0.012897222    6.7016879      763.94481     -17.491615      746.4532     
   2826000   283.00265      0.012897222    7.8503289      702.13737     -21.976173      680.16119    
   2827000   299.0906       0.012897222    8.042492       742.05201     -16.117387      725.93462    
   2828000   322.65146      0.012897222    7.0912457      800.50718     -17.193795      783.31338    
   2829000   295.8958       0.012897222    5.2725794      734.12563     -16.136878      717.98875    
   2830000   288.00979      0.012897222    6.0903465      714.56023     -15.965098      698.59513    
   2831000   303.28183      0.012897222    9.750255       752.45057     -14.573053      737.87752    
   2832000   301.66442      0.012897222   -1.4639875      748.43774     -12.891866      735.54587    
   2833000   297.2585       0.012897222    5.9302932      737.50654     -14.537408      722.96913    
   2834000   282.95626      0.012897222    18.046781      702.02228     -18.880309      683.14197    
   2835000   300.42617      0.012897222    6.0352183      745.36561     -19.395495      725.97011    
   2836000   288.30211      0.012897222    4.817774       715.28549     -17.10619       698.1793     
   2837000   298.25195      0.012897222    7.7670657      739.97132     -16.2052        723.76612    
   2838000   300.12061      0.012897222    6.9545179      744.6075      -17.77892       726.82858    
   2839000   305.1958       0.012897222    3.4317338      757.19919     -15.622668      741.57652    
   2840000   308.09526      0.012897222    5.0332523      764.39283     -16.194576      748.19826    
   2841000   290.61861      0.012897222    8.0968841      721.03279     -18.754393      702.27839    
   2842000   293.59977      0.012897222    7.8980023      728.42912     -23.693545      704.73558    
   2843000   310.64141      0.012897222    8.869067       770.7099      -22.083478      748.62643    
   2844000   312.73676      0.012897222    0.49306267     775.90853     -25.138529      750.77       
   2845000   291.95384      0.012897222    2.4056333      724.34552     -22.003544      702.34198    
   2846000   288.35764      0.012897222    12.117944      715.42325     -24.315786      691.10747    
   2847000   309.25347      0.012897222    7.8603057      767.26639     -21.039845      746.22655    
   2848000   304.365        0.012897222    2.9940393      755.13795     -27.612804      727.52514    
   2849000   278.06348      0.012897222    6.6995792      689.88316     -25.178901      664.70426    
   2850000   304.41559      0.012897222    10.436241      755.26347     -23.955621      731.30785    
   2851000   311.32964      0.012897222    1.5807152      772.41741     -21.312084      751.10533    
   2852000   288.96583      0.012897222    6.9289092      716.93218     -19.286677      697.64551    
   2853000   293.53233      0.012897222    9.3116564      728.26179     -19.13468       709.12711    
   2854000   320.97636      0.012897222    6.9031732      796.3512      -14.744631      781.60657    
   2855000   310.99576      0.012897222    2.5536615      771.58905     -19.216767      752.37229    
   2856000   294.31735      0.012897222    2.3621369      730.20947     -17.504209      712.70526    
   2857000   292.93766      0.012897222    8.0680092      726.78641     -14.366444      712.41997    
   2858000   301.51241      0.012897222    14.892952      748.0606      -15.023822      733.03678    
   2859000   310.06799      0.012897222    6.4565917      769.28722     -20.206335      749.08089    
   2860000   301.50261      0.012897222    1.560914       748.0363      -19.069712      728.96659    
   2861000   290.14029      0.012897222    5.6975435      719.84606     -20.52786       699.3182     
   2862000   287.94286      0.012897222    12.228198      714.39417     -19.537087      694.85708    
   2863000   307.71542      0.012897222    6.6409003      763.45043     -17.585766      745.86466    
   2864000   301.96873      0.012897222    4.8720051      749.19273     -18.732535      730.4602     
   2865000   290.70592      0.012897222    11.290999      721.2494      -19.775586      701.47382    
   2866000   310.73489      0.012897222    9.6195623      770.94182     -22.498909      748.44291    
   2867000   299.69239      0.012897222    1.6208563      743.54509     -21.170235      722.37485    
   2868000   284.59346      0.012897222    8.4010522      706.08422     -24.414348      681.66988    
   2869000   308.51472      0.012897222    10.321044      765.43353     -18.771354      746.66218    
   2870000   318.01143      0.012897222    7.2607709      788.99511     -22.840945      766.15417    
   2871000   291.32442      0.012897222    3.9417175      722.78391     -21.521624      701.26229    
   2872000   288.03956      0.012897222    7.9820301      714.6341      -22.626876      692.00722    
   2873000   302.77087      0.012897222    11.94815       751.18287     -21.211653      729.97122    
   2874000   308.43126      0.012897222    9.3022594      765.22646     -21.249263      743.9772     
   2875000   298.8721       0.012897222    1.7577764      741.50992     -22.508926      719.001      
   2876000   280.64624      0.012897222    7.1738244      696.29105     -20.230961      676.06009    
   2877000   306.62799      0.012897222    13.855378      760.7525      -20.955309      739.79719    
   2878000   305.74074      0.012897222    8.088633       758.5512      -20.644905      737.9063     
   2879000   301.33162      0.012897222   -2.5123693      747.61207     -21.7616        725.85047    
   2880000   294.15741      0.012897222    7.9157152      729.81263     -21.198972      708.61366    
   2881000   299.59011      0.012897222    8.2354943      743.29132     -21.815636      721.47568    
   2882000   306.39286      0.012897222    7.3204977      760.16912     -21.565439      738.60368    
   2883000   322.82125      0.012897222    5.9543121      800.92842     -23.281613      777.64681    
   2884000   296.89603      0.012897222    4.7771166      736.60723     -25.198268      711.40896    
   2885000   294.29048      0.012897222    6.2562047      730.14279     -29.091478      701.05131    
   2886000   301.83037      0.012897222    13.058821      748.84947     -28.076677      720.77279    
   2887000   323.17555      0.012897222    10.407284      801.80744     -23.737777      778.06967    
   2888000   312.846        0.012897222    2.9117138      776.17955     -24.124234      752.05532    
   2889000   294.31221      0.012897222    5.4163052      730.19671     -25.838835      704.35788    
   2890000   282.41553      0.012897222    5.0946673      700.68071     -22.322299      678.35841    
   2891000   299.21524      0.012897222    8.7969367      742.36125     -24.234114      718.12714    
   2892000   310.11847      0.012897222    4.2935976      769.41247     -26.456992      742.95547    
   2893000   301.54897      0.012897222    6.1590151      748.1513      -26.723052      721.42825    
   2894000   296.28261      0.012897222    6.6585084      735.08533     -24.710423      710.37491    
   2895000   288.16156      0.012897222    6.1041014      714.93676     -21.908285      693.02848    
   2896000   292.08355      0.012897222    8.3510919      724.66733     -20.68772       703.97961    
   2897000   301.63326      0.012897222    7.1642432      748.36044     -17.418573      730.94187    
   2898000   307.7897       0.012897222    6.5283404      763.63474     -17.366522      746.26822    
   2899000   306.01376      0.012897222    6.8802474      759.22858     -20.526943      738.70164    
   2900000   293.01516      0.012897222    7.2072118      726.97869     -18.766324      708.21236    
   2901000   292.90123      0.012897222    7.4739083      726.69602     -22.788111      703.90791    
   2902000   332.75434      0.012897222    8.519432       825.57268     -24.562183      801.0105     
   2903000   310.53048      0.012897222    6.2405776      770.43468     -25.597017      744.83766    
   2904000   284.75424      0.012897222    5.4512382      706.48311     -21.295969      685.18714    
   2905000   299.92381      0.012897222    4.968252       744.11925     -21.321219      722.79803    
   2906000   314.94661      0.012897222    7.5266102      781.39122     -23.777675      757.61355    
   2907000   304.43188      0.012897222    7.3452013      755.30389     -26.894343      728.40955    
   2908000   287.61086      0.012897222    6.6820055      713.57048     -29.432037      684.13845    
   2909000   304.47193      0.012897222    7.464778       755.40326     -26.435225      728.96803    
   2910000   296.22476      0.012897222    7.3307599      734.9418      -24.635309      710.30649    
   2911000   300.43142      0.012897222    7.555061       745.37864     -27.164302      718.21433    
   2912000   305.43129      0.012897222    6.5641503      757.78345     -23.261802      734.52165    
   2913000   294.38133      0.012897222    6.4016928      730.36818     -22.783489      707.58469    
   2914000   312.30506      0.012897222    7.9120223      774.83747     -20.820161      754.01731    
   2915000   303.90822      0.012897222    7.7607148      754.00467     -16.147128      737.85754    
   2916000   302.78916      0.012897222    8.9606415      751.22825     -21.986277      729.24197    
   2917000   290.99917      0.012897222    4.8746781      721.97696     -18.787346      703.18961    
   2918000   302.08075      0.012897222    2.753767       749.47066     -20.063932      729.40673    
   2919000   304.63667      0.012897222    7.464728       755.81198     -18.264896      737.54708    
   2920000   298.5985       0.012897222    10.170047      740.8311      -15.923002      724.9081     
   2921000   297.01758      0.012897222    6.3187645      736.9088      -15.430775      721.47803    
   2922000   281.08523      0.012897222    4.4641158      697.38019     -20.361674      677.01852    
   2923000   303.58022      0.012897222    3.0374868      753.1909      -20.226271      732.96463    
   2924000   310.73603      0.012897222   -1.4506917      770.94467     -21.232614      749.71205    
   2925000   304.80744      0.012897222    15.86839       756.23565     -21.778096      734.45756    
   2926000   288.52042      0.012897222    7.9155246      715.82713     -19.333566      696.49356    
   2927000   312.2822       0.012897222   -0.66707043     774.78075     -19.081059      755.69969    
   2928000   308.72531      0.012897222    10.750856      765.95601     -17.329824      748.62619    
   2929000   304.57864      0.012897222    10.944998      755.66801     -22.119848      733.54816    
   2930000   300.4532       0.012897222    6.6929966      745.43268     -17.107163      728.32552    
   2931000   293.00172      0.012897222    5.1590598      726.94533     -19.398494      707.54684    
   2932000   310.2521       0.012897222    9.5481621      769.74402     -19.609771      750.13425    
   2933000   294.04004      0.012897222    9.7468415      729.52143     -12.631628      716.88981    
   2934000   296.73221      0.012897222    2.208836       736.20078     -15.067035      721.13375    
   2935000   293.93216      0.012897222    4.3175277      729.25378     -19.459914      709.79387    
   2936000   295.91008      0.012897222    9.2234444      734.16107     -22.436544      711.72452    
   2937000   291.62207      0.012897222    3.8604043      723.52239     -21.788952      701.73343    
   2938000   297.88915      0.012897222    4.7850942      739.07118     -19.255208      719.81597    
   2939000   308.46586      0.012897222    18.747957      765.31229     -19.735224      745.57707    
   2940000   305.00447      0.012897222    7.3926698      756.72449     -21.652762      735.07173    
   2941000   297.14056      0.012897222    3.462342       737.21392     -17.290384      719.92354    
   2942000   307.40833      0.012897222    13.633919      762.68855     -19.112665      743.57588    
   2943000   302.90694      0.012897222    7.4175453      751.52046     -16.121195      735.39927    
   2944000   305.80261      0.012897222   -1.9678019      758.70471     -18.114379      740.59033    
   2945000   294.25784      0.012897222    8.1087862      730.06182     -17.852009      712.20981    
   2946000   301.37519      0.012897222    10.388548      747.72016     -18.132075      729.58809    
   2947000   306.04647      0.012897222    7.907674       759.30972     -17.766396      741.54333    
   2948000   299.38405      0.012897222    6.045006       742.78008     -18.665187      724.11489    
   2949000   304.38727      0.012897222    4.1056289      755.1932      -17.816824      737.37638    
   2950000   301.02306      0.012897222    10.187717      746.84652     -13.088944      733.75758    
   2951000   304.42035      0.012897222    11.773181      755.27528     -20.144078      735.1312     
   2952000   298.23574      0.012897222    5.0313833      739.93108     -19.058247      720.87283    
   2953000   292.35478      0.012897222    0.71479283     725.34027     -15.450386      709.88988    
   2954000   301.46001      0.012897222    5.1305114      747.93059     -16.206021      731.72457    
   2955000   309.83427      0.012897222    9.2956525      768.70736     -16.06044       752.64692    
   2956000   303.20971      0.012897222    14.475163      752.27165     -17.293662      734.97798    
   2957000   291.8097       0.012897222    2.8418298      723.98792     -18.06468       705.92324    
   2958000   311.28279      0.012897222    6.0367672      772.30119     -19.721235      752.57995    
   2959000   303.52603      0.012897222    10.811533      753.05644     -16.491714      736.56473    
   2960000   296.60294      0.012897222    1.8579762      735.88006     -20.39224       715.48782    
   2961000   285.78136      0.012897222   -1.0008405      709.03142     -18.339189      690.69223    
   2962000   300.98519      0.012897222    7.8070397      746.75255     -21.914632      724.83792    
   2963000   310.56902      0.012897222    12.437278      770.5303      -21.611049      748.91925    
   2964000   296.16693      0.012897222    3.952521       734.79831     -23.675286      711.12302    
   2965000   297.28565      0.012897222    3.0766572      737.57389     -23.658975      713.91491    
   2966000   303.4704       0.012897222    8.8168564      752.91842     -22.126666      730.79176    
   2967000   300.84683      0.012897222    10.118834      746.40928     -21.249966      725.15931    
   2968000   293.74362      0.012897222    2.2994441      728.78602     -19.522884      709.26313    
   2969000   295.17041      0.012897222    7.2427156      732.32593     -23.317137      709.00879    
   2970000   309.27099      0.012897222    8.6611191      767.30984     -19.011029      748.29881    
   2971000   304.14515      0.012897222    10.620796      754.59251     -22.865546      731.72696    
   2972000   294.28328      0.012897222    7.9899146      730.12493     -19.212513      710.91242    
   2973000   285.37511      0.012897222    7.3476794      708.02353     -18.86988       689.15364    
   2974000   304.26441      0.012897222    4.6665799      754.88839     -13.967387      740.921      
   2975000   290.6604       0.012897222    5.4705652      721.13646     -16.025535      705.11093    
   2976000   297.90326      0.012897222    7.7617543      739.1062      -15.573487      723.53272    
   2977000   310.14259      0.012897222    8.0131633      769.47231     -18.431776      751.04053    
   2978000   286.06446      0.012897222    7.6856859      709.73381     -17.139453      692.59436    
   2979000   290.74563      0.012897222    5.6986682      721.34791     -18.524912      702.823      
   2980000   307.28519      0.012897222    7.5483657      762.38303     -22.021423      740.36161    
   2981000   300.68235      0.012897222    7.4553757      746.0012      -23.859971      722.14123    
   2982000   299.26664      0.012897222    7.0892056      742.48879     -24.204775      718.28401    
   2983000   297.44093      0.012897222    5.2650424      737.95914     -27.781768      710.17737    
   2984000   301.22252      0.012897222    7.1611219      747.34139     -18.032744      729.30864    
   2985000   307.16122      0.012897222    7.4764648      762.07546     -23.295576      738.77988    
   2986000   290.24148      0.012897222    9.3613904      720.0971      -22.001652      698.09545    
   2987000   288.72931      0.012897222    6.0986294      716.34537     -21.281239      695.06413    
   2988000   294.08003      0.012897222    4.0390422      729.62065     -21.826441      707.79421    
   2989000   302.79895      0.012897222    7.49302        751.25255     -22.406708      728.84584    
   2990000   303.62569      0.012897222    7.0216212      753.30371     -22.593849      730.70986    
   2991000   297.5264       0.012897222    5.2335745      738.17119     -19.137635      719.03355    
   2992000   301.4604       0.012897222    5.8046073      747.93155     -20.333574      727.59798    
   2993000   317.03359      0.012897222    7.4824978      786.56907     -20.618901      765.95016    
   2994000   297.60163      0.012897222    6.8864959      738.35785     -17.25569       721.10216    
   2995000   297.59808      0.012897222    8.1057871      738.34905     -22.144908      716.20414    
   2996000   308.89131      0.012897222    9.1352539      766.36786     -20.641092      745.72677    
   2997000   312.38156      0.012897222    6.5984326      775.02725     -21.914151      753.1131     
   2998000   300.10743      0.012897222    6.8120783      744.5748      -23.110639      721.46417    
   2999000   294.99916      0.012897222    6.1190318      731.90106     -18.148634      713.75242    
   3000000   305.42998      0.012897222    6.7494755      757.7802      -19.210363      738.56984    
   3001000   313.84994      0.012897222    6.9205445      778.67036     -19.53312       759.13724    
   3002000   294.45239      0.012897222    6.5796097      730.54449     -17.103545      713.44095    
   3003000   297.35058      0.012897222    6.7959091      737.73499     -18.992987      718.742      
   3004000   294.60564      0.012897222    6.1038845      730.92472     -21.70765       709.21707    
   3005000   305.00086      0.012897222    7.2973782      756.71554     -22.712285      734.00326    
   3006000   289.39241      0.012897222    9.2016058      717.99054     -22.492894      695.49764    
   3007000   290.59772      0.012897222    5.7965827      720.98096     -20.395989      700.58497    
   3008000   305.59214      0.012897222    6.640789       758.18252     -20.060325      738.12219    
   3009000   299.15476      0.012897222    8.9732823      742.21121     -19.84712       722.36409    
   3010000   291.62853      0.012897222    4.5957383      723.53842     -18.855545      704.68288    
   3011000   302.18899      0.012897222    7.7871708      749.73922     -19.373134      730.36608    
   3012000   295.54201      0.012897222    10.034042      733.24787     -18.34682       714.90105    
   3013000   293.04596      0.012897222    2.920869       727.0551      -16.572393      710.4827     
   3014000   307.93314      0.012897222    6.9643344      763.99062     -17.578505      746.41211    
   3015000   302.1428       0.012897222    10.768392      749.62462     -21.951917      727.67271    
   3016000   297.09722      0.012897222    5.2250302      737.10639     -19.175779      717.93061    
   3017000   296.29216      0.012897222    6.6214126      735.10902     -14.167554      720.94147    
   3018000   299.86125      0.012897222    10.20738       743.96402     -16.55474       727.40928    
   3019000   295.78372      0.012897222    6.708111       733.84756     -18.92117       714.92639    
   3020000   307.09492      0.012897222    6.9092071      761.91097     -19.329143      742.58183    
   3021000   305.21342      0.012897222    5.2800233      757.24292     -19.859612      737.38331    
   3022000   287.20324      0.012897222    6.400915       712.55915     -22.32031       690.23884    
   3023000   291.64773      0.012897222    7.0757025      723.58606     -20.676895      702.90916    
   3024000   307.05246      0.012897222    7.8574508      761.80561     -21.40992       740.39569    
   3025000   302.75493      0.012897222    2.3026693      751.14332     -22.595142      728.54817    
   3026000   301.60771      0.012897222    7.2973048      748.29705     -25.498967      722.79808    
   3027000   299.66424      0.012897222    7.2705682      743.47523     -24.040432      719.4348     
   3028000   302.15144      0.012897222    6.8114269      749.64604     -21.12452       728.52152    
   3029000   304.45205      0.012897222    5.2452747      755.35393     -26.259006      729.09492    
   3030000   300.29885      0.012897222    6.866078       745.04971     -22.614943      722.43477    
   3031000   289.44862      0.012897222    7.0668552      718.13001     -24.442441      693.68757    
   3032000   304.09046      0.012897222    8.6659087      754.45681     -24.280753      730.17606    
   3033000   310.19605      0.012897222    9.8168058      769.60496     -27.094119      742.51084    
   3034000   302.19648      0.012897222    7.7858788      749.7578      -26.861476      722.89632    
   3035000   295.64673      0.012897222    6.6779554      733.50768     -30.201316      703.30636    
   3036000   296.79017      0.012897222    7.1906207      736.3446      -27.223475      709.12112    
   3037000   308.97378      0.012897222    6.5208827      766.57247     -27.161166      739.41131    
   3038000   317.07815      0.012897222    6.6279135      786.67962     -26.167814      760.51181    
   3039000   292.03445      0.012897222    6.2144511      724.54552     -24.280318      700.2652     
   3040000   303.8447       0.012897222    14.933821      753.84708     -21.031798      732.81528    
   3041000   310.41186      0.012897222    11.425391      770.14039     -24.063207      746.07718    
   3042000   303.80398      0.012897222    6.0212388      753.74605     -23.281942      730.4641     
   3043000   294.02318      0.012897222    6.5679015      729.47962     -22.417661      707.06196    
   3044000   291.25799      0.012897222    9.2663577      722.6191      -22.911105      699.708      
   3045000   293.92232      0.012897222    6.9907585      729.22938     -26.063865      703.16552    
   3046000   312.94937      0.012897222    7.2601967      776.43601     -20.231442      756.20456    
   3047000   301.13333      0.012897222    6.6755663      747.1201      -23.867672      723.25243    
   3048000   304.29861      0.012897222    8.2569322      754.97324     -25.564864      729.40837    
   3049000   297.53734      0.012897222    8.3992877      738.19835     -24.40107       713.79728    
   3050000   303.75256      0.012897222    8.5896569      753.61848     -25.576542      728.04194    
   3051000   305.29301      0.012897222    5.1999747      757.44037     -22.800458      734.63991    
   3052000   294.94157      0.012897222    3.3267261      731.75818     -21.112924      710.64525    
   3053000   292.93772      0.012897222    6.1366668      726.78657     -24.423855      702.36271    
   3054000   316.53456      0.012897222    8.0200409      785.33097     -21.477617      763.85335    
   3055000   306.48684      0.012897222    6.6504556      760.40229     -27.282793      733.1195     
   3056000   291.92397      0.012897222    7.0499911      724.27143     -26.102392      698.16903    
   3057000   299.39635      0.012897222    8.1300107      742.81061     -21.566869      721.24374    
   3058000   299.25151      0.012897222    6.8939475      742.45124     -26.742018      715.70922    
   3059000   301.84902      0.012897222    6.9275558      748.89574     -28.585539      720.3102     
   3060000   298.95281      0.012897222    6.5973183      741.71017     -28.596124      713.11405    
   3061000   309.4965       0.012897222    6.8699476      767.86934     -27.624018      740.24532    
   3062000   295.36567      0.012897222    6.1254011      732.81038     -23.394819      709.41556    
   3063000   288.50464      0.012897222    6.9980632      715.78795     -22.906843      692.88111    
   3064000   301.92368      0.012897222    6.8568482      749.08098     -24.483118      724.59786    
   3065000   304.4626       0.012897222    8.3567861      755.3801      -19.987376      735.39272    
   3066000   298.14351      0.012897222    6.7790353      739.70228     -23.150068      716.55221    
   3067000   299.14606      0.012897222    6.4856851      742.18963     -23.861324      718.3283     
   3068000   280.19344      0.012897222    8.7949463      695.16764     -22.566905      672.60073    
   3069000   319.48444      0.012897222    11.527585      792.6497      -22.290292      770.3594     
   3070000   306.25278      0.012897222    2.5050953      759.82159     -23.685932      736.13566    
   3071000   293.09305      0.012897222    6.813661       727.17192     -19.835474      707.33645    
   3072000   288.25732      0.012897222    13.359383      715.17437     -25.153213      690.02115    
   3073000   303.14858      0.012897222    8.6795919      752.11997     -22.347128      729.77284    
   3074000   304.40295      0.012897222   -2.5740566      755.23212     -25.857515      729.37461    
   3075000   296.84048      0.012897222    6.3736369      736.46942     -21.722198      714.74723    
   3076000   287.60363      0.012897222    22.163274      713.55254     -20.90935       692.64319    
   3077000   316.4704       0.012897222    7.7884169      785.17179     -18.20016       766.97163    
   3078000   308.96462      0.012897222    1.2827786      766.54974     -21.005727      745.54401    
   3079000   293.58739      0.012897222    9.5417845      728.3984      -19.184011      709.21439    
   3080000   309.68361      0.012897222    4.4129453      768.33356     -21.72769       746.60587    
   3081000   295.95257      0.012897222    3.1246504      734.26649     -22.556777      711.70972    
   3082000   302.78138      0.012897222    13.10881       751.20894     -24.287851      726.92109    
   3083000   293.58706      0.012897222    5.873652       728.39759     -26.412309      701.98528    
   3084000   288.79242      0.012897222    9.606473       716.50195     -29.986003      686.51594    
   3085000   310.44029      0.012897222    16.935929      770.21091     -30.393162      739.81775    
   3086000   301.11124      0.012897222    4.7092707      747.0653      -29.875147      717.19015    
   3087000   290.49386      0.012897222    3.3844465      720.72326     -31.623397      689.09987    
   3088000   292.13206      0.012897222    9.5167371      724.78768     -33.586644      691.20104    
   3089000   305.17239      0.012897222    8.246038       757.14112     -31.437966      725.70315    
   3090000   301.57437      0.012897222    4.0491423      748.21434     -27.046628      721.16771    
   3091000   299.00805      0.012897222    12.393595      741.84722     -29.766003      712.08122    
   3092000   304.53848      0.012897222    11.29761       755.56837     -28.478261      727.09011    
   3093000   297.92038      0.012897222    5.5458732      739.14868     -31.948389      707.20029    
   3094000   292.26178      0.012897222    6.6793046      725.10954     -27.958988      697.15055    
   3095000   310.18601      0.012897222    9.2549885      769.58003     -30.812183      738.76785    
   3096000   307.84336      0.012897222    7.8250929      763.76786     -30.963307      732.80455    
   3097000   296.4238       0.012897222    6.9203191      735.43561     -26.354258      709.08136    
   3098000   275.1858       0.012897222    6.3855659      682.74355     -22.426386      660.31716    
   3099000   299.48283      0.012897222    8.0673786      743.02515     -26.905103      716.12005    
   3100000   312.5256       0.012897222    6.4657847      775.38463     -25.282919      750.10171    
   3101000   303.32709      0.012897222    8.5037288      752.56287     -24.697951      727.86491    
   3102000   273.65811      0.012897222    6.8473009      678.95332     -23.847624      655.10569    
   3103000   299.52666      0.012897222    6.9961614      743.1339      -27.819548      715.31435    
   3104000   309.1275       0.012897222    6.9282945      766.95384     -28.330181      738.62366    
   3105000   301.01355      0.012897222    7.5060577      746.82292     -28.040112      718.78281    
   3106000   297.50968      0.012897222    9.5498576      738.12973     -24.945617      713.18411    
   3107000   304.22113      0.012897222    6.7961919      754.78101     -29.538294      725.24271    
   3108000   308.27429      0.012897222    7.8895514      764.83702     -26.556536      738.28048    
   3109000   295.28479      0.012897222    7.7044833      732.60971     -29.924964      702.68474    
   3110000   298.97965      0.012897222    5.710787       741.77676     -30.145814      711.63095    
   3111000   307.94261      0.012897222    6.5766848      764.0141      -24.066086      739.94801    
   3112000   304.90494      0.012897222    8.2530684      756.47756     -22.260218      734.21734    
   3113000   304.31559      0.012897222    8.7795821      755.01538     -23.718538      731.29684    
   3114000   303.49933      0.012897222    6.3106028      752.9902      -19.955101      733.03509    
   3115000   292.90462      0.012897222    6.6575314      726.70443     -22.11279       704.59164    
   3116000   291.67393      0.012897222    6.5099431      723.65106     -23.849561      699.80149    
   3117000   323.05566      0.012897222    8.2729478      801.50999     -22.718586      778.7914     
   3118000   307.94493      0.012897222    7.265149       764.01986     -26.709257      737.31061    
   3119000   293.94072      0.012897222    6.6140003      729.27503     -23.223034      706.052      
   3120000   286.07183      0.012897222    2.7382342      709.75209     -25.230817      684.52128    
   3121000   303.87639      0.012897222    8.3784838      753.92571     -24.756487      729.16922    
   3122000   299.64664      0.012897222    7.0872676      743.43157     -24.848998      718.58257    
   3123000   300.51735      0.012897222    5.6936425      745.59184     -20.801091      724.79075    
   3124000   304.23984      0.012897222    5.9207805      754.82743     -19.876801      734.95062    
   3125000   294.59811      0.012897222    8.5765198      730.90604     -21.63872       709.26732    
   3126000   295.8393       0.012897222    7.0571557      733.98545     -19.93035       714.0551     
   3127000   312.34695      0.012897222    6.4304977      774.94139     -20.29442       754.64697    
   3128000   306.14834      0.012897222    6.800051       759.56248     -19.617467      739.94501    
   3129000   298.59012      0.012897222    6.8472546      740.81031     -20.593553      720.21676    
   3130000   290.34307      0.012897222    4.611128       720.34917     -20.168249      700.18092    
   3131000   291.13922      0.012897222    8.1961851      722.32444     -17.484292      704.84015    
   3132000   290.84447      0.012897222    10.524381      721.59315     -21.418109      700.17505    
   3133000   305.71289      0.012897222    7.2877383      758.4821      -25.557819      732.92428    
   3134000   300.57665      0.012897222    1.2264756      745.73895     -24.033852      721.7051     
   3135000   282.63374      0.012897222    2.34634        701.22211     -21.280359      679.94175    
   3136000   289.28566      0.012897222    7.3922474      717.7257      -24.599951      693.12575    
   3137000   308.02533      0.012897222    11.031633      764.21933     -25.736305      738.48303    
   3138000   319.05261      0.012897222    4.1082369      791.57831     -20.557744      771.02057    
   3139000   292.22223      0.012897222    2.083817       725.01142     -25.45509       699.55633    
   3140000   288.8956       0.012897222    18.154956      716.75796     -24.86888       691.88908    
   3141000   308.95662      0.012897222    6.2363294      766.5299      -23.031221      743.49868    
   3142000   295.50571      0.012897222    5.4299232      733.15781     -20.707779      712.45004    
   3143000   302.17237      0.012897222    9.2153796      749.69797     -21.876466      727.82151    
   3144000   303.09037      0.012897222    7.5135472      751.97556     -21.202125      730.77344    
   3145000   302.41636      0.012897222    6.364251       750.30333     -20.38945       729.91388    
   3146000   298.79554      0.012897222    3.338538       741.31998     -21.160883      720.15909    
   3147000   280.34151      0.012897222    10.011176      695.53501     -24.885659      670.64935    
   3148000   299.46255      0.012897222    15.877112      742.97483     -26.67471       716.30012    
   3149000   307.06426      0.012897222    6.3860894      761.83488     -23.232702      738.60218    
   3150000   303.90532      0.012897222    5.5198551      753.99747     -23.245097      730.75238    
   3151000   299.36145      0.012897222    5.7180296      742.724       -23.431781      719.29222    
   3152000   275.57939      0.012897222    4.6427178      683.72007     -21.834514      661.88556    
   3153000   307.96116      0.012897222    8.5138732      764.06013     -15.582197      748.47793    
   3154000   315.76476      0.012897222    5.2056309      783.42106     -18.559751      764.86131    
   3155000   295.87183      0.012897222    6.8024823      734.06618     -19.714756      714.35142    
   3156000   294.44297      0.012897222    9.0403702      730.52112     -25.195187      705.32594    
   3157000   310.23078      0.012897222    5.2450806      769.69111     -25.883449      743.80766    
   3158000   307.23602      0.012897222    4.9246381      762.26102     -26.163321      736.0977     
   3159000   289.32146      0.012897222    9.7940874      717.81451     -27.551248      690.26327    
   3160000   294.78752      0.012897222    16.31682       731.37598     -29.011758      702.36422    
   3161000   316.76867      0.012897222    13.831509      785.9118      -29.141253      756.77055    
   3162000   305.98613      0.012897222    4.2021594      759.16002     -28.056357      731.10366    
   3163000   282.25632      0.012897222    6.1905715      700.28571     -26.581246      673.70446    
   3164000   296.58907      0.012897222    10.778895      735.84567     -25.41265       710.43302    
   3165000   306.72428      0.012897222    10.300611      760.99139     -27.048444      733.94295    
   3166000   299.00099      0.012897222    7.416847       741.8297      -27.720261      714.10943    
   3167000   299.4636       0.012897222    6.7733827      742.97744     -27.886788      715.09065    
   3168000   307.01385      0.012897222    4.9307578      761.70982     -26.310135      735.39968    
   3169000   295.95799      0.012897222    2.2336726      734.27994     -26.291947      707.98799    
   3170000   286.96095      0.012897222    7.1405687      711.95803     -26.22806       685.72997    
   3171000   303.27095      0.012897222    7.4296656      752.4236      -26.668582      725.75502    
   3172000   316.82861      0.012897222    6.3408356      786.06051     -29.149015      756.91149    
   3173000   297.86905      0.012897222    1.562681       739.02133     -26.844216      712.17711    
   3174000   288.26082      0.012897222    5.5668379      715.18304     -21.753122      693.42992    
   3175000   306.84903      0.012897222    14.215412      761.30089     -23.48662       737.81427    
   3176000   309.13265      0.012897222    2.9996255      766.96662     -21.228568      745.73806    
   3177000   297.72478      0.012897222    7.0256027      738.6634      -20.009359      718.65404    
   3178000   295.21676      0.012897222    8.4815509      732.44092     -23.134823      709.30609    
   3179000   305.07168      0.012897222   -8.1642687      756.89124     -24.842042      732.0492     
   3180000   303.9653       0.012897222    10.26          754.1463      -19.444787      734.70151    
   3181000   312.6262       0.012897222    5.2222895      775.63422     -20.281995      755.35222    
   3182000   296.44175      0.012897222   -0.63938372     735.48016     -20.378562      715.1016     
   3183000   295.68858      0.012897222    8.7429902      733.61152     -20.976261      712.63525    
   3184000   311.96159      0.012897222    10.334268      773.9853      -21.183363      752.80194    
   3185000   303.04061      0.012897222    5.8629918      751.8521      -17.390659      734.46144    
   3186000   292.68806      0.012897222    1.5334097      726.16714     -18.781534      707.38561    
   3187000   298.48371      0.012897222    9.7498889      740.54632     -17.82976       722.71656    
   3188000   318.10229      0.012897222    10.201922      789.22054     -19.455612      769.76493    
   3189000   296.68477      0.012897222    4.0789365      736.0831      -22.811177      713.27192    
   3190000   294.59026      0.012897222    11.696694      730.88656     -23.967378      706.91918    
   3191000   310.56786      0.012897222    6.3345995      770.52742     -20.998115      749.5293     
   3192000   302.587        0.012897222    6.4123458      750.72669     -21.770683      728.956      
   3193000   295.4827       0.012897222    6.7885993      733.10071     -22.941897      710.15882    
   3194000   289.24689      0.012897222    13.109901      717.62951     -20.015315      697.6142     
   3195000   298.33764      0.012897222    7.7905055      740.18391     -22.103565      718.08034    
   3196000   310.25207      0.012897222    6.6076226      769.74395     -22.013264      747.73068    
   3197000   284.58574      0.012897222    7.0009742      706.06507     -18.368876      687.69619    
   3198000   296.17395      0.012897222    7.6239905      734.81574     -19.971721      714.84402    
   3199000   309.30394      0.012897222    7.3608677      767.3916      -17.225373      750.16622    
   3200000   298.76694      0.012897222    7.0845528      741.24902     -22.802094      718.44692    
   3201000   297.30938      0.012897222    6.4992954      737.63277     -22.889398      714.74337    
   3202000   298.48001      0.012897222    6.3774396      740.53714     -19.538537      720.9986     
   3203000   306.82085      0.012897222    9.7659444      761.23098     -28.019415      733.21157    
   3204000   294.80037      0.012897222    7.4649811      731.40784     -25.928933      705.47891    
   3205000   304.11596      0.012897222    6.7775551      754.52008     -26.40659       728.11349    
   3206000   286.45444      0.012897222    6.1550424      710.70135     -26.618636      684.08271    
   3207000   306.22261      0.012897222    7.7129301      759.74673     -22.988153      736.75858    
   3208000   304.03889      0.012897222    8.9716569      754.32887     -24.417333      729.91153    
   3209000   302.96396      0.012897222    6.6406676      751.66193     -20.97127       730.69066    
   3210000   311.7026       0.012897222    3.5344927      773.34273     -25.673532      747.6692     
   3211000   297.69796      0.012897222    5.5199817      738.59686     -24.662661      713.9342     
   3212000   300.24802      0.012897222    7.0283753      744.92362     -27.654003      717.26962    
   3213000   305.17106      0.012897222    7.3051939      757.13782     -21.373582      735.76424    
   3214000   287.52233      0.012897222    6.6701971      713.35083     -22.490367      690.86047    
   3215000   311.30766      0.012897222    8.3171902      772.36288     -22.901069      749.46181    
   3216000   298.44594      0.012897222    6.1756179      740.4526      -25.577512      714.87509    
   3217000   290.07607      0.012897222    5.6974651      719.68671     -25.251197      694.43552    
   3218000   301.06618      0.012897222    6.965356       746.9535      -30.336328      716.61717    
   3219000   303.27265      0.012897222    7.4036294      752.42781     -25.452068      726.97574    
   3220000   304.81353      0.012897222    7.051441       756.25078     -20.741665      735.50912    
   3221000   301.0679       0.012897222    4.9792413      746.95775     -21.529359      725.42839    
   3222000   298.32357      0.012897222    3.4931799      740.14901     -20.798999      719.35001    
   3223000   296.06949      0.012897222    7.3595532      734.55655     -24.419371      710.13718    
   3224000   305.1873       0.012897222    8.945061       757.17809     -22.46942       734.70867    
   3225000   303.12782      0.012897222    7.648752       752.06849     -21.781853      730.28663    
   3226000   293.61983      0.012897222    4.2971355      728.47888     -20.144987      708.3339     
   3227000   307.10397      0.012897222    7.8211631      761.93343     -23.148318      738.78511    
   3228000   294.12815      0.012897222    7.247844       729.74004     -24.592056      705.14798    
   3229000   298.85554      0.012897222    4.5383007      741.46883     -25.565069      715.90377    
   3230000   301.12593      0.012897222    9.2825132      747.10173     -20.876257      726.22547    
   3231000   298.71337      0.012897222    10.016578      741.11612     -27.562582      713.55354    
   3232000   298.79306      0.012897222    7.2046381      741.31381     -24.801006      716.5128     
   3233000   310.3305       0.012897222    2.1858186      769.93851     -26.178621      743.75989    
   3234000   300.39869      0.012897222    6.4251632      745.29743     -24.291189      721.00624    
   3235000   278.50764      0.012897222    6.2122194      690.98512     -21.215528      669.76959    
   3236000   306.77753      0.012897222    7.5761486      761.12352     -16.285228      744.83829    
   3237000   303.61628      0.012897222    7.5994099      753.28037     -21.306584      731.97378    
   3238000   295.09157      0.012897222    7.220535       732.13032     -21.992127      710.13819    
   3239000   292.34059      0.012897222    6.2203219      725.30507     -21.650256      703.65482    
   3240000   305.68009      0.012897222    7.2676206      758.40074     -19.557759      738.84298    
   3241000   312.89033      0.012897222    8.3075187      776.28953     -21.693548      754.59598    
   3242000   300.71072      0.012897222    7.3054953      746.07158     -17.816125      728.25546    
   3243000   286.63328      0.012897222    3.6255183      711.14507     -22.830468      688.3146     
   3244000   301.91388      0.012897222    2.3984578      749.05667     -17.806826      731.24984    
   3245000   302.53916      0.012897222    9.7253752      750.608       -18.864694      731.7433     
   3246000   311.22376      0.012897222    10.096568      772.15472     -16.527309      755.62741    
   3247000   292.30481      0.012897222    2.4994825      725.21629     -18.430792      706.7855     
   3248000   299.31057      0.012897222    4.3392205      742.59778     -15.714671      726.88311    
   3249000   308.57704      0.012897222    7.7851466      765.58813     -15.092999      750.49513    
   3250000   301.41802      0.012897222    9.6645676      747.82642     -20.138153      727.68826    
   3251000   294.91709      0.012897222    6.1058415      731.69743     -18.276244      713.42119    
   3252000   302.12045      0.012897222    4.1101088      749.56918     -18.262947      731.30623    
   3253000   305.60247      0.012897222    9.2086708      758.20814     -16.057867      742.15028    
   3254000   299.60554      0.012897222    6.7591861      743.32959     -13.545872      729.78372    
   3255000   296.92511      0.012897222    6.8060235      736.67938     -18.664683      718.01469    
   3256000   292.29415      0.012897222    7.0285762      725.18984     -19.41957       705.77027    
   3257000   281.9118       0.012897222    7.5753209      699.43095     -17.837427      681.59352    
   3258000   301.16005      0.012897222    3.9419731      747.18638     -19.282075      727.9043     
   3259000   306.95017      0.012897222    8.9418512      761.55184     -16.33772       745.21412    
   3260000   290.24628      0.012897222    8.0292548      720.10901     -18.928839      701.18018    
   3261000   299.70968      0.012897222    6.6375274      743.58798     -19.004749      724.58323    
   3262000   321.02092      0.012897222    7.4441726      796.46175     -17.401679      779.06007    
   3263000   299.35203      0.012897222    7.329614       742.70063     -18.465046      724.23559    
   3264000   299.17876      0.012897222    7.7947314      742.27075     -13.963705      728.30704    
   3265000   293.82052      0.012897222    6.9784269      728.9768      -10.978399      717.99841    
   3266000   312.40907      0.012897222    7.1684708      775.09552     -18.630619      756.4649     
   3267000   294.46978      0.012897222    4.1211074      730.58765     -18.148749      712.4389     
   3268000   290.71394      0.012897222    6.5693683      721.26929     -15.691432      705.57785    
   3269000   296.41728      0.012897222    6.9349794      735.41944     -15.024871      720.39457    
   3270000   306.13146      0.012897222    8.2196512      759.5206      -17.413128      742.10747    
   3271000   304.47538      0.012897222    6.1278558      755.4118      -14.698293      740.71351    
   3272000   293.07285      0.012897222    2.3055707      727.12181     -13.746601      713.37521    
   3273000   301.42405      0.012897222    6.9068976      747.84137     -17.323337      730.51803    
   3274000   325.13855      0.012897222    9.3925411      806.67771     -15.575686      791.10203    
   3275000   289.84733      0.012897222    5.287887       719.11922     -16.836908      702.28231    
   3276000   287.18127      0.012897222    7.1775221      712.50464     -19.13968       693.36496    
   3277000   297.50077      0.012897222    9.8359684      738.1076      -22.494972      715.61263    
   3278000   310.84741      0.012897222    7.0786575      771.22098     -22.032062      749.18892    
   3279000   292.82034      0.012897222    5.7227265      726.49533     -23.595707      702.89962    
   3280000   293.89393      0.012897222    7.3089037      729.15895     -21.150003      708.00895    
   3281000   307.98539      0.012897222    6.987819       764.12023     -25.281166      738.83907    
   3282000   304.0495       0.012897222    6.9915537      754.3552      -29.078768      725.27643    
   3283000   296.11139      0.012897222    6.4907768      734.66051     -28.975012      705.6855     
   3284000   298.8012       0.012897222    6.5594244      741.33401     -26.200926      715.13308    
   3285000   297.08492      0.012897222    6.7706555      737.07588     -25.574057      711.50182    
   3286000   305.35367      0.012897222    9.2782934      757.59087     -23.516304      734.07456    
   3287000   297.55266      0.012897222    6.9224116      738.23634     -23.485273      714.75107    
   3288000   292.59502      0.012897222    4.6237624      725.93632     -24.370066      701.56625    
   3289000   307.60108      0.012897222    6.9575922      763.16677     -23.712691      739.45408    
   3290000   311.57233      0.012897222    8.2122054      773.01954     -22.933667      750.08587    
   3291000   292.92032      0.012897222    7.5167605      726.74338     -19.428075      707.31531    
   3292000   296.38391      0.012897222    6.3531649      735.33665     -22.237295      713.09935    
   3293000   319.53763      0.012897222    6.9932386      792.78167     -26.137644      766.64403    
   3294000   298.1764       0.012897222    7.2797976      739.78388     -25.382995      714.40088    
   3295000   292.29306      0.012897222    8.5473332      725.18714     -21.156437      704.03071    
   3296000   293.8479       0.012897222    5.0538231      729.04474     -20.608872      708.43587    
   3297000   302.89434      0.012897222    6.8772114      751.48922     -18.139295      733.34992    
   3298000   318.1013       0.012897222    9.5865582      789.2181      -21.756777      767.46132    
   3299000   298.37601      0.012897222    7.0727761      740.2791      -21.980334      718.29876    
   3300000   295.45135      0.012897222    6.3260348      733.02295     -22.328735      710.69422    
   3301000   302.05053      0.012897222    6.3337286      749.3957      -19.740168      729.65554    
   3302000   309.62493      0.012897222    13.372555      768.18799     -20.699208      747.48878    
   3303000   296.31034      0.012897222    8.4305161      735.15412     -20.944513      714.20961    
   3304000   286.97743      0.012897222    3.6552937      711.99891     -19.206615      692.79229    
   3305000   312.76378      0.012897222    4.0754237      775.97555     -18.995633      756.97992    
   3306000   316.30364      0.012897222    7.9393885      784.75805     -17.502208      767.25584    
   3307000   300.88085      0.012897222    7.3875372      746.49367     -16.618289      729.87538    
   3308000   282.07901      0.012897222    4.1574611      699.84579     -20.890662      678.95513    
   3309000   303.83053      0.012897222    6.1862543      753.81192     -19.14552       734.6664     
   3310000   308.62155      0.012897222    9.7902762      765.69857     -16.095528      749.60304    
   3311000   288.91319      0.012897222    6.6557585      716.80158     -17.456699      699.34488    
   3312000   299.28373      0.012897222   -5.6383226      742.53118     -18.506149      724.02503    
   3313000   308.65907      0.012897222    9.1130749      765.79167     -18.129065      747.66261    
   3314000   311.23239      0.012897222    15.398708      772.17614     -15.555634      756.62051    
   3315000   293.31745      0.012897222    4.9288622      727.72868     -17.169415      710.55926    
   3316000   296.58416      0.012897222    4.9179323      735.83347     -19.059162      716.77431    
   3317000   302.27153      0.012897222    8.29241        749.944       -19.766759      730.17724    
   3318000   291.00057      0.012897222    6.45283        721.98045     -22.027798      699.95265    
   3319000   311.75799      0.012897222    6.9615998      773.48016     -22.796442      750.68372    
   3320000   295.28574      0.012897222    7.3026759      732.61205     -17.799209      714.81285    
   3321000   305.82798      0.012897222    7.1200125      758.76766     -18.833711      739.93394    
   3322000   308.2567       0.012897222    6.2019772      764.79338     -17.081158      747.71222    
   3323000   287.71594      0.012897222    6.7292836      713.83118     -19.978966      693.85222    
   3324000   290.15448      0.012897222    7.3018336      719.88128     -23.10296       696.77832    
   3325000   310.83244      0.012897222    7.6405851      771.18386     -19.451131      751.73273    
   3326000   301.53128      0.012897222    6.2837855      748.10743     -21.459265      726.64816    
   3327000   292.60088      0.012897222    7.3471843      725.95084     -21.276358      704.67448    
   3328000   295.46568      0.012897222    6.62638        733.05849     -20.184017      712.87447    
   3329000   305.69742      0.012897222    7.0941982      758.44372     -18.158273      740.28544    
   3330000   316.09148      0.012897222    7.5877283      784.23167     -19.099406      765.13226    
   3331000   290.67371      0.012897222    6.4330209      721.16948     -21.297734      699.87175    
   3332000   304.77428      0.012897222    7.0544657      756.15338     -20.63866       735.51472    
   3333000   306.40292      0.012897222    7.0801945      760.19409     -21.881629      738.31246    
   3334000   297.12854      0.012897222    6.6056679      737.18409     -21.964         715.22009    
   3335000   294.37869      0.012897222    7.2778401      730.36164     -21.114531      709.24711    
   3336000   296.35241      0.012897222    7.2261773      735.25851     -20.782807      714.4757     
   3337000   296.64852      0.012897222    5.9321979      735.99317     -24.375681      711.61749    
   3338000   298.95365      0.012897222    7.6835684      741.71224     -19.562124      722.15011    
   3339000   313.75358      0.012897222    7.701606       778.43128     -27.093244      751.33804    
   3340000   310.86472      0.012897222    4.6503151      771.26395     -25.92283       745.34112    
   3341000   295.85463      0.012897222    6.1471075      734.0235      -22.537782      711.48571    
   3342000   292.1366       0.012897222    5.7757077      724.79896     -24.011565      700.78739    
   3343000   310.14343      0.012897222    7.5174205      769.47439     -24.838685      744.6357     
   3344000   315.42666      0.012897222    8.9854358      782.58223     -26.705681      755.87655    
   3345000   289.8629       0.012897222    3.2392796      719.15784     -27.800809      691.35704    
   3346000   296.15646      0.012897222    7.0672779      734.77233     -20.538474      714.23386    
   3347000   295.58537      0.012897222    11.399428      733.35545     -21.690028      711.66542    
   3348000   305.63983      0.012897222    6.9125389      758.30085     -19.945895      738.35496    
   3349000   295.64982      0.012897222    6.727535       733.51535     -20.972465      712.54289    
   3350000   302.06955      0.012897222    6.9502715      749.44288     -12.81611       736.62677    
   3351000   298.07639      0.012897222    6.2675951      739.53575     -18.558925      720.97683    
   3352000   311.11396      0.012897222    9.2945449      771.88232     -18.603884      753.27843    
   3353000   296.9437       0.012897222    7.1895141      736.72551     -21.15252       715.57299    
   3354000   291.68621      0.012897222    0.21685061     723.68153     -22.025112      701.65642    
   3355000   309.25895      0.012897222    8.542987       767.27999     -25.436859      741.84313    
   3356000   303.12739      0.012897222    7.1555777      752.06741     -29.234557      722.83286    
   3357000   288.41696      0.012897222    6.6130764      715.57042     -23.915976      691.65445    
   3358000   297.34279      0.012897222    7.1973023      737.71565     -22.025991      715.68966    
   3359000   312.15726      0.012897222    10.977463      774.47077     -20.079688      754.39109    
   3360000   296.32703      0.012897222    5.8873876      735.19552     -23.559635      711.63588    
   3361000   285.48653      0.012897222   -2.5343158      708.29995     -23.034959      685.26499    
   3362000   300.94854      0.012897222    8.6553848      746.66161     -24.954503      721.70711    
   3363000   299.6161       0.012897222    14.605906      743.3558      -24.39243       718.96337    
   3364000   292.97843      0.012897222    6.9130458      726.88756     -24.104333      702.78322    
   3365000   295.67091      0.012897222    3.9320973      733.56767     -23.980434      709.58724    
   3366000   310.2373       0.012897222    6.0660165      769.7073      -24.017609      745.68969    
   3367000   312.1064       0.012897222    10.113167      774.34458     -23.255585      751.089      
   3368000   294.90336      0.012897222    7.1957549      731.66337     -22.730642      708.93273    
   3369000   299.53184      0.012897222    3.0808888      743.14675     -20.782893      722.36385    
   3370000   307.82485      0.012897222    8.1442169      763.72193     -23.982076      739.73985    
   3371000   300.06155      0.012897222    9.1276786      744.46098     -22.559073      721.90191    
   3372000   299.27392      0.012897222    6.4448439      742.50685     -24.3158        718.19105    
   3373000   289.2067       0.012897222    7.5236166      717.52978     -23.854312      693.67547    
   3374000   298.18999      0.012897222    2.8206756      739.81759     -24.35578       715.46181    
   3375000   313.48912      0.012897222    4.5867717      777.77515     -19.789038      757.98611    
   3376000   305.34323      0.012897222    7.8524117      757.56496     -21.345275      736.21969    
   3377000   290.64672      0.012897222    7.8411468      721.10251     -22.527599      698.57491    
   3378000   290.02087      0.012897222    5.1988103      719.54977     -19.120965      700.42881    
   3379000   313.84442      0.012897222    7.045709       778.65667     -24.417718      754.23895    
   3380000   282.35735      0.012897222    8.5836887      700.53637     -19.723201      680.81317    
   3381000   294.89567      0.012897222    6.8473102      731.64429     -23.732524      707.91177    
   3382000   297.73119      0.012897222    6.7089676      738.67929     -17.65815       721.02114    
   3383000   306.61579      0.012897222    6.3226658      760.72223     -20.83288       739.88935    
   3384000   293.86669      0.012897222    6.8236103      729.09136     -23.599549      705.49181    
   3385000   291.1026       0.012897222    9.3959702      722.23359     -22.324339      699.90925    
   3386000   299.47975      0.012897222    5.9313971      743.01752     -19.090073      723.92745    
   3387000   286.73379      0.012897222    3.0376879      711.39443     -22.353992      689.04044    
   3388000   306.10319      0.012897222    6.7350327      759.45045     -23.165826      736.28463    
   3389000   301.88863      0.012897222    5.8566557      748.99402     -22.744223      726.2498     
   3390000   291.34566      0.012897222    8.2895359      722.83662     -25.978141      696.85848    
   3391000   310.69357      0.012897222    8.866923       770.8393      -26.693466      744.14584    
   3392000   313.55498      0.012897222    3.4538702      777.93856     -26.702905      751.23565    
   3393000   289.38079      0.012897222    4.0594785      717.96172     -22.028466      695.93326    
   3394000   293.821        0.012897222    5.5893228      728.97801     -23.77756       705.20045    
   3395000   303.17592      0.012897222    3.7685967      752.18782     -23.659332      728.52849    
   3396000   305.59576      0.012897222    8.8973622      758.19151     -24.280582      733.91093    
   3397000   290.37571      0.012897222    8.725781       720.43013     -19.51376       700.91637    
   3398000   297.82666      0.012897222    5.6743516      738.91615     -21.609432      717.30671    
   3399000   298.75933      0.012897222    6.6334268      741.23014     -19.504004      721.72613    
   3400000   289.10005      0.012897222    6.5514576      717.26519     -21.718408      695.54678    
   3401000   304.15124      0.012897222    7.318617       754.60762     -20.245419      734.3622     
   3402000   298.33234      0.012897222    7.9013031      740.17075     -19.774635      720.39612    
   3403000   296.97377      0.012897222    7.0855408      736.80011     -20.671679      716.12843    
   3404000   295.25107      0.012897222    6.5952928      732.52605     -25.475536      707.05051    
   3405000   294.14282      0.012897222    7.2016062      729.77646     -21.735738      708.04072    
   3406000   307.89358      0.012897222    7.3214422      763.89247     -22.098392      741.79408    
   3407000   296.57986      0.012897222    5.8908065      735.82282     -22.993406      712.82941    
   3408000   285.90805      0.012897222    6.2303083      709.34575     -25.660193      683.68555    
   3409000   294.51166      0.012897222    6.9798415      730.69155     -26.052734      704.63881    
   3410000   299.81472      0.012897222    7.5929336      743.84859     -21.674219      722.17437    
   3411000   296.1698       0.012897222    5.4906708      734.80544     -19.327731      715.47771    
   3412000   294.58197      0.012897222    8.4087951      730.86598     -17.308552      713.55743    
   3413000   311.06172      0.012897222    7.7389941      771.75271     -22.038654      749.71406    
   3414000   303.97767      0.012897222    6.868289       754.17698     -22.507942      731.66903    
   3415000   296.35076      0.012897222    6.769824       735.25441     -18.765467      716.48894    
   3416000   311.72018      0.012897222    5.8790873      773.38635     -21.510361      751.87599    
   3417000   291.98474      0.012897222    6.2900311      724.4222      -21.780772      702.64143    
   3418000   293.71615      0.012897222    7.5830363      728.71785     -23.095995      705.62186    
   3419000   300.36602      0.012897222    8.4169143      745.21638     -20.536682      724.6797     
   3420000   298.22493      0.012897222    5.9295621      739.90428     -19.408264      720.49602    
   3421000   308.23011      0.012897222    7.5012982      764.72739     -22.418389      742.30901    
   3422000   303.37192      0.012897222    5.680937       752.67409     -23.112444      729.56165    
   3423000   298.90976      0.012897222    3.772509       741.60335     -24.339856      717.26349    
   3424000   301.35163      0.012897222    6.8955486      747.66171     -23.193307      724.4684     
   3425000   300.93654      0.012897222    6.6586933      746.63185     -22.348612      724.28324    
   3426000   298.58831      0.012897222    6.3871229      740.80583     -21.156163      719.64966    
   3427000   298.2955       0.012897222    7.2625194      740.07935     -19.531569      720.54778    
   3428000   301.39635      0.012897222    5.1757331      747.77264     -17.826634      729.94601    
   3429000   296.07159      0.012897222    7.0186172      734.56177     -19.211263      715.35051    
   3430000   298.87796      0.012897222    7.1983035      741.52447     -20.121726      721.40274    
   3431000   299.90643      0.012897222    6.8204937      744.07611     -18.739319      725.33679    
   3432000   302.41717      0.012897222    7.0102063      750.30534     -19.256547      731.04879    
   3433000   295.90858      0.012897222    6.7319381      734.15734     -17.225302      716.93204    
   3434000   299.48545      0.012897222    6.82315        743.03167     -18.655866      724.3758     
   3435000   300.92552      0.012897222    6.8209649      746.60451     -17.667522      728.93699    
   3436000   292.43789      0.012897222    6.4973547      725.54646     -19.792628      705.75383    
   3437000   282.29463      0.012897222    5.9864916      700.38076     -23.04463       677.33613    
   3438000   299.41796      0.012897222    6.8639987      742.86422     -23.683778      719.18044    
   3439000   315.06243      0.012897222    7.7557268      781.67857     -24.104911      757.57366    
   3440000   294.64945      0.012897222    6.8721629      731.03341     -25.241666      705.79175    
   3441000   295.49636      0.012897222    7.9171087      733.13463     -15.255406      717.87922    
   3442000   308.33429      0.012897222    6.9224899      764.98588     -16.701584      748.2843     
   3443000   311.62646      0.012897222    8.0176079      773.15384     -18.84249       754.31135    
   3444000   294.45654      0.012897222    6.7155321      730.55478     -21.527444      709.02734    
   3445000   295.05666      0.012897222    4.4275552      732.04372     -19.843903      712.19982    
   3446000   308.75663      0.012897222    7.3486126      766.0337      -22.678071      743.35563    
   3447000   303.271        0.012897222    7.4065245      752.42371     -21.777022      730.64668    
   3448000   286.75335      0.012897222    6.6267168      711.44297     -19.770871      691.6721     
   3449000   302.67421      0.012897222    6.3241009      750.94305     -20.57322       730.36983    
   3450000   294.65617      0.012897222    4.9624119      731.05008     -17.630407      713.41968    
   3451000   313.06519      0.012897222    8.2707388      776.72335     -17.424441      759.29891    
   3452000   307.29125      0.012897222    6.4024026      762.39806     -16.529844      745.86821    
   3453000   291.85397      0.012897222    6.7783489      724.09774     -19.002389      705.09535    
   3454000   297.22222      0.012897222    6.5602352      737.41653     -19.980616      717.43591    
   3455000   303.42442      0.012897222    9.4160803      752.80434     -17.945758      734.85859    
   3456000   310.32989      0.012897222    7.1419045      769.93702     -19.074848      750.86217    
   3457000   310.78872      0.012897222    6.2299871      771.07538     -19.417009      751.65837    
   3458000   289.78508      0.012897222    6.4920371      718.96476     -21.538457      697.42631    
   3459000   291.6319       0.012897222    7.4499804      723.54678     -24.274645      699.27214    
   3460000   295.69693      0.012897222    5.6044694      733.63224     -26.817004      706.81524    
   3461000   308.37092      0.012897222    6.3156162      765.07676     -24.698679      740.37808    
   3462000   304.82544      0.012897222    11.140559      756.28032     -22.875323      733.405      
   3463000   295.03203      0.012897222    6.3664856      731.98261     -23.125901      708.85671    
   3464000   296.14721      0.012897222    3.6500262      734.74939     -17.951499      716.79789    
   3465000   300.31437      0.012897222    8.4032107      745.08822     -17.617278      727.47094    
   3466000   294.14754      0.012897222    6.8413437      729.78815     -20.338352      709.44979    
   3467000   301.69124      0.012897222    4.1662914      748.50429     -19.901592      728.60269    
   3468000   305.69777      0.012897222    6.5302273      758.44459     -21.039241      737.40535    
   3469000   297.46467      0.012897222    9.4123418      738.01804     -20.105187      717.91286    
   3470000   292.12715      0.012897222    6.0349974      724.77551     -16.740272      708.03523    
   3471000   299.82387      0.012897222    5.2260739      743.87129     -17.996892      725.8744     
   3472000   312.42612      0.012897222    8.0568975      775.13781     -20.235363      754.90245    
   3473000   305.14302      0.012897222    13.678988      757.06825     -19.093256      737.975      
   3474000   300.91473      0.012897222    6.6127454      746.57774     -20.1033        726.47444    
   3475000   295.37026      0.012897222    5.5868751      732.82177     -18.920942      713.90082    
   3476000   316.04701      0.012897222    10.434897      784.12135     -20.569913      763.55144    
   3477000   299.86783      0.012897222    13.18235       743.98036     -21.109355      722.871      
   3478000   297.43564      0.012897222   -1.8633306      737.94602     -20.210862      717.73516    
   3479000   300.58418      0.012897222    6.0005215      745.75765     -19.356357      726.40129    
   3480000   291.57518      0.012897222    14.774484      723.40606     -21.126665      702.2794     
   3481000   298.57837      0.012897222    5.1371942      740.78116     -19.849452      720.93171    
   3482000   299.45904      0.012897222    4.7144183      742.96613     -24.285848      718.68028    
   3483000   294.81232      0.012897222    7.5698954      731.4375      -23.057121      708.38038    
   3484000   293.73151      0.012897222    8.918083       728.75596     -22.636548      706.11941    
   3485000   299.32841      0.012897222    6.6131401      742.64203     -24.153756      718.48828    
   3486000   301.01894      0.012897222    8.3897271      746.83629     -24.653215      722.18308    
   3487000   309.51115      0.012897222    7.6906576      767.90569     -20.687767      747.21793    
   3488000   296.03148      0.012897222    7.0147207      734.46226     -19.574641      714.88762    
   3489000   307.10821      0.012897222    5.6092361      761.94394     -26.912843      735.0311     
   3490000   306.86479      0.012897222    7.0699228      761.33999     -25.331501      736.00849    
   3491000   294.22704      0.012897222    8.6667268      729.98539     -25.898907      704.08649    
   3492000   300.18695      0.012897222    6.5102059      744.77209     -24.885187      719.8869     
   3493000   310.35955      0.012897222    4.1605648      770.0106      -25.979125      744.03147    
   3494000   303.13874      0.012897222    7.7597843      752.09558     -28.390194      723.70538    
   3495000   287.14273      0.012897222    6.4830179      712.40902     -24.088116      688.32091    
   3496000   291.8876       0.012897222    7.1500065      724.18118     -23.794491      700.38668    
   3497000   306.65234      0.012897222    5.360554       760.81291     -23.207406      737.6055     
   3498000   294.0187       0.012897222    6.8691785      729.46849     -19.838096      709.63039    
   3499000   298.58808      0.012897222    6.4529799      740.80526     -24.771541      716.03372    
   3500000   321.66308      0.012897222    9.8811173      798.05498     -25.136316      772.91866    
   3501000   302.38403      0.012897222    7.9947028      750.2231      -20.898159      729.32494    
   3502000   304.2917       0.012897222    3.7769645      754.9561      -22.542193      732.41391    
   3503000   302.35985      0.012897222    7.2370997      750.16313     -18.683882      731.47924    
   3504000   310.84275      0.012897222    7.6911307      771.20942     -20.258144      750.95128    
   3505000   300.2408       0.012897222    7.0790921      744.9057      -18.217267      726.68843    
   3506000   296.1742       0.012897222    6.8459427      734.81636     -15.174727      719.64163    
   3507000   285.57534      0.012897222    7.4884992      708.52028     -19.669534      688.85075    
   3508000   301.2164       0.012897222    9.7615597      747.3262      -20.018967      727.30724    
   3509000   313.19947      0.012897222    3.1724878      777.05652     -21.811416      755.2451     
   3510000   291.88564      0.012897222    3.2173405      724.17631     -22.632923      701.54339    
   3511000   295.65987      0.012897222    6.8052562      733.5403      -16.512384      717.02791    
   3512000   301.10765      0.012897222    3.5530549      747.05639     -21.695679      725.36071    
   3513000   290.88981      0.012897222    11.567988      721.70564     -21.702443      700.0032     
   3514000   294.1512       0.012897222    17.668917      729.79723     -20.680877      709.11635    
   3515000   302.79617      0.012897222    13.407706      751.24565     -22.279983      728.96566    
   3516000   303.82101      0.012897222    8.9231584      753.7883      -21.813469      731.97483    
   3517000   301.30008      0.012897222    0.25121017     747.5338      -21.075614      726.45819    
   3518000   291.62468      0.012897222    4.795378       723.52887     -21.847929      701.68095    
   3519000   304.21046      0.012897222    10.653581      754.75453     -17.102426      737.6521     
   3520000   295.40133      0.012897222    0.14839525     732.89884     -16.708487      716.19035    
   3521000   290.78605      0.012897222    8.8225635      721.4482      -15.774464      705.67373    
   3522000   295.57678      0.012897222    13.450591      733.33414     -15.378917      717.95522    
   3523000   313.98232      0.012897222    9.7424617      778.99879     -16.532647      762.46614    
   3524000   299.98676      0.012897222   -3.2289201      744.27542     -13.759493      730.51593    
   3525000   293.36243      0.012897222    6.7194355      727.84028     -19.609299      708.23098    
   3526000   309.67779      0.012897222    18.602791      768.31912     -18.719815      749.59931    
   3527000   312.09969      0.012897222    1.158893       774.32792     -16.617809      757.71011    
   3528000   305.6177       0.012897222    0.26591475     758.24595     -19.311981      738.93397    
   3529000   288.7918       0.012897222    14.854751      716.50043     -17.123289      699.37714    
   3530000   297.76157      0.012897222    11.669337      738.75466     -13.449681      725.30498    
   3531000   312.21574      0.012897222    16.368779      774.61587     -17.513913      757.10196    
   3532000   297.21386      0.012897222    0.3550579      737.39577     -23.09445       714.30132    
   3533000   289.87744      0.012897222    14.347903      719.19392     -23.644239      695.54968    
   3534000   307.36017      0.012897222    16.006948      762.56905     -24.455509      738.11354    
   3535000   307.78749      0.012897222    7.3766926      763.62925     -21.880309      741.74894    
   3536000   287.40597      0.012897222    0.89941199     713.06213     -17.940066      695.12206    
   3537000   297.17633      0.012897222    12.871906      737.30267     -16.285961      721.01671    
   3538000   310.8069       0.012897222    6.2160768      771.1205      -18.169215      752.95128    
   3539000   301.2481       0.012897222    4.9829957      747.40484     -15.528097      731.87674    
   3540000   292.1214       0.012897222    8.2180339      724.76125     -20.132782      704.62847    
   3541000   297.72336      0.012897222    7.2771114      738.65986     -17.737935      720.92193    
   3542000   309.18259      0.012897222    7.472885       767.09053     -17.144172      749.94636    
   3543000   304.91516      0.012897222    7.1600338      756.50292     -18.714273      737.78864    
   3544000   288.70175      0.012897222    8.9760964      716.277       -23.743383      692.53361    
   3545000   288.04898      0.012897222    6.4815379      714.65747     -26.847493      687.80997    
   3546000   309.35311      0.012897222    6.6529903      767.51359     -22.371403      745.14219    
   3547000   313.8836       0.012897222    11.452916      778.75386     -19.369359      759.3845     
   3548000   291.64932      0.012897222    8.5143437      723.59001     -17.219069      706.37094    
   3549000   289.84129      0.012897222    3.4342309      719.10424     -16.43158       702.67266    
   3550000   306.61045      0.012897222    7.105617       760.70897     -18.082972      742.62599    
   3551000   307.50749      0.012897222    7.7172698      762.93456     -18.379377      744.55519    
   3552000   291.95029      0.012897222    6.3656256      724.33672     -20.418164      703.91855    
   3553000   294.72143      0.012897222    7.0036152      731.21199     -19.748973      711.46301    
   3554000   299.10175      0.012897222    6.739967       742.07968     -18.569621      723.51006    
   3555000   302.94175      0.012897222    7.3550932      751.60683     -17.08329       734.52354    
   3556000   309.24278      0.012897222    7.4373694      767.23986     -18.803192      748.43667    
   3557000   284.43681      0.012897222    6.5641201      705.69557     -18.124021      687.57155    
   3558000   306.41427      0.012897222    7.3187518      760.22225     -18.644966      741.57729    
   3559000   309.81225      0.012897222    6.3349513      768.65272     -18.450169      750.20255    
   3560000   296.55843      0.012897222    7.0829904      735.76965     -21.311028      714.45862    
   3561000   305.05819      0.012897222    6.849372       756.85777     -22.855077      734.00269    
   3562000   296.99548      0.012897222    6.8217253      736.85398     -21.810052      715.04393    
   3563000   299.86521      0.012897222    7.6266722      743.97385     -23.88299       720.09086    
   3564000   301.87562      0.012897222    7.5510471      748.96174     -22.17583       726.78591    
   3565000   299.60685      0.012897222    7.0125587      743.33286     -18.064224      725.26863    
   3566000   293.60982      0.012897222    6.2986051      728.45407     -22.307785      706.14628    
   3567000   305.12036      0.012897222    13.380169      757.01201     -21.001703      736.01031    
   3568000   306.74873      0.012897222    6.2290642      761.05206     -17.8919        743.16016    
   3569000   298.93769      0.012897222    6.2575855      741.67264     -22.736459      718.93618    
   3570000   291.32512      0.012897222    6.5559633      722.78565     -20.207046      702.57861    
   3571000   312.12719      0.012897222    6.796973       774.39617     -16.593583      757.80259    
   3572000   306.7026       0.012897222    6.8716887      760.93761     -15.446544      745.49107    
   3573000   292.83145      0.012897222    6.7554409      726.52289     -17.002541      709.52035    
   3574000   300.67281      0.012897222    10.587333      745.97754     -17.213106      728.76443    
   3575000   307.33289      0.012897222    7.1931263      762.50138     -19.38228       743.1191     
   3576000   322.32043      0.012897222    8.5759998      799.68587     -20.686158      778.99972    
   3577000   287.30841      0.012897222    9.1429543      712.82008     -21.029547      691.79053    
   3578000   300.17818      0.012897222    5.3533806      744.75033     -19.223353      725.52698    
   3579000   310.84437      0.012897222    7.4038495      771.21344     -19.615853      751.59759    
   3580000   299.9038       0.012897222    6.446202       744.0696      -17.717023      726.35258    
   3581000   287.32425      0.012897222    8.0728055      712.85939     -19.125676      693.73372    
   3582000   303.10558      0.012897222    7.3578275      752.01329     -21.45349       730.5598     
   3583000   311.5942       0.012897222    4.0617018      773.0738      -22.245958      750.82784    
   3584000   289.71593      0.012897222    8.2325478      718.7932      -20.535626      698.25757    
   3585000   286.41561      0.012897222    10.109132      710.60503     -21.620787      688.98425    
   3586000   315.28582      0.012897222    7.6748843      782.2328      -17.727474      764.50533    
   3587000   297.16776      0.012897222    5.3434915      737.2814      -19.454317      717.82708    
   3588000   299.02911      0.012897222    4.5579861      741.89947     -20.666449      721.23302    
   3589000   299.62004      0.012897222    7.3574267      743.36558     -24.442998      718.92258    
   3590000   296.39694      0.012897222    6.8238957      735.36897     -17.527194      717.84177    
   3591000   299.62857      0.012897222    7.1201477      743.38675     -12.049788      731.33696    
   3592000   295.67161      0.012897222    6.2099376      733.56942     -13.931442      719.63797    
   3593000   283.51908      0.012897222    9.145692       703.41865     -14.7422        688.67645    
   3594000   297.99211      0.012897222    8.5625588      739.32663     -15.190908      724.13572    
   3595000   320.19128      0.012897222    7.070074       794.4034      -14.92792       779.47548    
   3596000   299.74532      0.012897222    5.5681026      743.6764      -14.670081      729.00632    
   3597000   287.04021      0.012897222    12.599187      712.15468     -15.208653      696.94603    
   3598000   335.20941      0.012897222    13.104382      831.6638      -15.466918      816.19688    
   3599000   303.99655      0.012897222    4.0186981      754.22382     -13.031413      741.19241    
   3600000   289.94624      0.012897222    7.257172       719.36462     -16.674419      702.6902     
   3601000   287.57629      0.012897222    8.9420689      713.4847      -13.837584      699.64712    
   3602000   304.12294      0.012897222    10.232918      754.5374      -13.62101       740.91639    
   3603000   298.72774      0.012897222    10.958353      741.15175     -15.0265        726.12525    
   3604000   294.03204      0.012897222   -2.149076       729.5016      -12.926381      716.57522    
   3605000   298.12319      0.012897222    7.2498668      739.65186     -21.077499      718.57436    
   3606000   295.21488      0.012897222    10.152366      732.43625     -20.797987      711.63826    
   3607000   305.13272      0.012897222    8.6976477      757.04268     -18.239464      738.80322    
   3608000   297.6758       0.012897222    1.7722102      738.54185     -20.03373       718.50812    
   3609000   293.34315      0.012897222    4.8401581      727.79244     -24.831499      702.96094    
   3610000   303.66763      0.012897222    8.1398226      753.40775     -23.106123      730.30163    
   3611000   300.7627       0.012897222    2.6605717      746.20055     -28.4168        717.78375    
   3612000   289.17054      0.012897222    3.3623913      717.44008     -26.702799      690.73728    
   3613000   300.99557      0.012897222    7.3414526      746.77831     -29.314096      717.46422    
   3614000   314.69228      0.012897222    12.448267      780.76022     -24.565646      756.19457    
   3615000   312.29998      0.012897222    7.3781694      774.82487     -22.580068      752.2448     
   3616000   294.45442      0.012897222    4.7672425      730.54954     -24.534156      706.01539    
   3617000   298.09421      0.012897222    5.7857403      739.57996     -20.897469      718.68249    
   3618000   303.84818      0.012897222    6.7586261      753.85572     -19.313684      734.54204    
   3619000   295.39921      0.012897222    8.5467033      732.89358     -18.849286      714.04429    
   3620000   315.62064      0.012897222    5.7274076      783.06351     -20.311184      762.75232    
   3621000   300.32782      0.012897222    5.0223952      745.12159     -19.374735      725.74686    
   3622000   295.23077      0.012897222    11.191713      732.47569     -19.433309      713.04238    
   3623000   307.30179      0.012897222    13.183588      762.4242      -21.252011      741.17219    
   3624000   311.6559       0.012897222    0.89105555     773.22689     -19.203736      754.02315    
   3625000   301.09468      0.012897222    7.2801369      747.02419     -19.68544       727.33876    
   3626000   305.76765      0.012897222    9.1496585      758.61797     -17.885287      740.73268    
   3627000   306.31689      0.012897222    4.5950361      759.98064     -20.566891      739.41375    
   3628000   294.98044      0.012897222    7.2979955      731.85461     -20.419562      711.43505    
   3629000   291.47055      0.012897222    6.6321769      723.14646     -20.356562      702.78989    
   3630000   310.28545      0.012897222    6.6472176      769.82674     -19.254314      750.57243    
   3631000   297.90214      0.012897222    6.6935361      739.10342     -19.550424      719.553      
   3632000   288.82149      0.012897222    7.1866788      716.57407     -19.259686      697.31438    
   3633000   298.28899      0.012897222    6.6507695      740.06321     -20.880574      719.18264    
   3634000   307.48377      0.012897222    6.7090278      762.87572     -23.380423      739.4953     
   3635000   308.9401       0.012897222    7.1892889      766.4889      -26.563175      739.92573    
   3636000   293.63125      0.012897222    9.4016906      728.50724     -29.106279      699.40096    
   3637000   293.67976      0.012897222    6.8968337      728.62757     -27.825209      700.80236    
   3638000   305.46508      0.012897222    5.417911       757.86728     -29.13166       728.73562    
   3639000   304.91413      0.012897222    5.9011624      756.50036     -25.980044      730.52031    
   3640000   293.13871      0.012897222    16.956071      727.28521     -24.09922       703.18599    
   3641000   296.78739      0.012897222    3.7009226      736.3377      -25.942034      710.39567    
   3642000   310.39693      0.012897222    5.0215032      770.10334     -21.535633      748.56771    
   3643000   301.23163      0.012897222    7.525474       747.36397     -27.931204      719.43276    
   3644000   290.27164      0.012897222    4.8232817      720.17194     -27.275038      692.8969     
   3645000   278.93296      0.012897222    1.7220851      692.04037     -25.782888      666.25749    
   3646000   306.41011      0.012897222    5.0700408      760.21194     -22.477441      737.7345     
   3647000   300.37724      0.012897222    17.620487      745.2442      -20.698562      724.54564    
   3648000   289.18883      0.012897222    5.2700932      717.48545     -19.80938       697.67607    
   3649000   297.32338      0.012897222    5.0908342      737.66751     -21.860214      715.80729    
   3650000   304.36762      0.012897222    21.724586      755.14446     -23.141108      732.00335    
   3651000   297.10431      0.012897222    3.8449285      737.12398     -22.875126      714.24886    
   3652000   301.97742      0.012897222    6.7948046      749.2143      -21.164176      728.05012    
   3653000   293.17451      0.012897222    11.394804      727.37405     -20.556492      706.81755    
   3654000   297.28693      0.012897222    7.474928       737.57708     -18.797683      718.7794     
   3655000   306.09192      0.012897222    4.8701369      759.42249     -16.934591      742.4879     
   3656000   297.15488      0.012897222    8.9494951      737.24945     -17.180099      720.06935    
   3657000   296.02605      0.012897222    6.6894189      734.4488      -19.582415      714.86638    
   3658000   307.66654      0.012897222    4.4805396      763.32918     -21.297349      742.03183    
   3659000   304.32632      0.012897222    5.4368419      755.04198     -19.561588      735.48039    
   3660000   304.14412      0.012897222    11.871382      754.58993     -23.442296      731.14764    
   3661000   292.81283      0.012897222    6.1982324      726.47669     -19.914154      706.56254    
   3662000   299.37396      0.012897222    4.1028847      742.75503     -19.65484       723.1002     
   3663000   310.42124      0.012897222    5.7843495      770.16366     -18.878102      751.28556    
   3664000   300.93309      0.012897222    14.519599      746.6233      -17.343095      729.28021    
   3665000   296.90045      0.012897222    6.9043418      736.61821     -17.073306      719.5449     
   3666000   295.80285      0.012897222    6.4933706      733.89503     -16.407556      717.48747    
   3667000   297.97642      0.012897222    5.2792449      739.28771     -16.915163      722.37254    
   3668000   311.64908      0.012897222    10.561412      773.20996     -17.5032        755.70676    
   3669000   289.30582      0.012897222    10.364324      717.77571     -14.313457      703.46225    
   3670000   295.93577      0.012897222    6.9700747      734.22481     -15.921835      718.30298    
   3671000   303.17041      0.012897222    8.2715659      752.17415     -17.688243      734.4859     
   3672000   301.60607      0.012897222    7.1684519      748.29299     -16.412572      731.88041    
   3673000   298.439        0.012897222    2.3331298      740.43539     -18.633339      721.80205    
   3674000   297.85229      0.012897222    7.0984868      738.97975     -22.757818      716.22193    
   3675000   307.21371      0.012897222    13.297637      762.20569     -22.813932      739.39176    
   3676000   299.945        0.012897222    8.3821292      744.1718      -23.818042      720.35376    
   3677000   302.55072      0.012897222    2.4023893      750.63667     -24.320605      726.31607    
   3678000   300.03659      0.012897222    7.3237972      744.39904     -20.839529      723.55951    
   3679000   304.75089      0.012897222    9.9166281      756.09536     -21.795381      734.29998    
   3680000   303.31872      0.012897222    6.2558329      752.5421      -16.633606      735.9085     
   3681000   301.66273      0.012897222    7.3328311      748.43354     -17.305654      731.12789    
   3682000   298.00234      0.012897222    6.696345       739.35201     -17.715511      721.6365     
   3683000   309.43406      0.012897222    7.7029746      767.71443     -20.567576      747.14685    
   3684000   294.586        0.012897222    6.978559       730.87598     -18.359993      712.51599    
   3685000   294.16543      0.012897222    6.1571951      729.83253     -18.804317      711.02822    
   3686000   310.01792      0.012897222    8.9774943      769.16302     -21.250202      747.91282    
   3687000   294.76031      0.012897222    6.4464241      731.30844     -18.194309      713.11413    
   3688000   288.70974      0.012897222    3.5488768      716.29683     -19.945445      696.35138    
   3689000   295.95495      0.012897222    6.400781       734.27238     -18.85937       715.41301    
   3690000   296.18824      0.012897222    17.203606      734.85118     -20.675658      714.17553    
   3691000   298.08749      0.012897222    7.8033701      739.56328     -18.172442      721.39084    
   3692000   304.30593      0.012897222    6.080344       754.99139     -19.199123      735.79227    
   3693000   297.7601       0.012897222    7.2933361      738.75102     -17.224433      721.52659    
   3694000   301.2921       0.012897222    7.2664344      747.514       -16.098221      731.41578    
   3695000   311.50516      0.012897222    7.2554219      772.85288     -15.853839      756.99904    
   3696000   284.31742      0.012897222    5.8793149      705.39935     -12.186863      693.21249    
   3697000   297.13759      0.012897222    8.2752399      737.20654     -12.690101      724.51644    
   3698000   299.18019      0.012897222    11.263661      742.27429     -17.775477      724.49881    
   3699000   308.02644      0.012897222    1.4314206      764.22209     -16.351515      747.87058    
   3700000   293.76559      0.012897222   -1.4346407      728.84052     -17.051045      711.78948    
   3701000   288.84742      0.012897222    6.8102351      716.63842     -17.695117      698.9433     
   3702000   296.41436      0.012897222    15.615031      735.4122      -15.688588      719.72361    
   3703000   312.64425      0.012897222    6.9271206      775.679       -14.114576      761.56443    
   3704000   302.95025      0.012897222   -3.2517363      751.62792     -16.654622      734.9733     
   3705000   297.09006      0.012897222    7.5178698      737.08863     -15.59445       721.49418    
   3706000   305.19764      0.012897222    21.976984      757.20375     -15.975363      741.22839    
   3707000   311.43389      0.012897222    4.0072383      772.67607     -14.933812      757.74226    
   3708000   292.82256      0.012897222    4.6999332      726.50084     -14.077467      712.42337    
   3709000   275.58727      0.012897222    6.7099991      683.73961     -17.589669      666.14994    
   3710000   299.12471      0.012897222    7.4712876      742.13664     -16.839687      725.29695    
   3711000   310.07244      0.012897222    8.3514818      769.29828     -21.399567      747.89871    
   3712000   307.46192      0.012897222    7.5977271      762.8215      -23.886216      738.93528    
   3713000   301.68848      0.012897222    6.6977638      748.49744     -22.278849      726.21859    
   3714000   294.08412      0.012897222    6.7762371      729.6308      -16.526564      713.10424    
   3715000   294.82397      0.012897222    6.0139741      731.46641     -19.548556      711.91785    
   3716000   298.4594       0.012897222    6.3167302      740.486       -19.197444      721.28856    
   3717000   298.13776      0.012897222    7.511496       739.68799     -18.958445      720.72954    
   3718000   298.63692      0.012897222    6.8355367      740.92643     -15.588743      725.33769    
   3719000   293.5264       0.012897222    6.232656       728.24709     -20.161166      708.08593    
   3720000   306.30426      0.012897222    6.7839521      759.9493      -18.163361      741.78594    
   3721000   313.62402      0.012897222    7.5657097      778.10983     -16.682971      761.42686    
   3722000   295.06963      0.012897222    8.7995684      732.0759      -16.967866      715.10803    
   3723000   302.85602      0.012897222    5.6394129      751.39412     -19.399273      731.99485    
   3724000   299.41697      0.012897222    4.8041889      742.86176     -17.389488      725.47227    
   3725000   305.0366       0.012897222    8.864071       756.80422     -15.663358      741.14086    
   3726000   316.8821       0.012897222    9.3550737      786.19323     -20.005155      766.18807    
   3727000   300.38615      0.012897222    10.025018      745.26631     -19.265518      726.00079    
   3728000   296.69243      0.012897222    7.7882043      736.1021      -17.615212      718.48689    
   3729000   306.1553       0.012897222    6.5657694      759.57974     -16.941547      742.6382     
   3730000   304.53251      0.012897222    6.065579       755.55354     -21.741863      733.81168    
   3731000   307.66259      0.012897222    6.6974401      763.31936     -19.898652      743.42071    
   3732000   302.66103      0.012897222    11.384687      750.91035     -18.593636      732.31672    
   3733000   301.45569      0.012897222    6.4814165      747.91988     -16.150581      731.76929    
   3734000   295.18479      0.012897222   -1.7478229      732.36159     -18.07735       714.28424    
   3735000   296.05973      0.012897222    1.8333191      734.53236     -16.068096      718.46426    
   3736000   304.41181      0.012897222    7.2585826      755.2541      -18.076775      737.17732    
   3737000   297.29212      0.012897222    8.1296794      737.58994     -18.513629      719.07631    
   3738000   291.94221      0.012897222    5.5719058      724.31668     -18.95636       705.36032    
   3739000   298.2458       0.012897222    6.6001919      739.95604     -19.760237      720.1958     
   3740000   325.31858      0.012897222    7.4327877      807.12437     -21.144508      785.97986    
   3741000   299.01043      0.012897222    7.864588       741.85311     -22.831421      719.02169    
   3742000   285.89949      0.012897222    7.0313412      709.32451     -23.324042      686.00047    
   3743000   303.31411      0.012897222    3.3966511      752.53066     -22.165304      730.36535    
   3744000   310.06449      0.012897222    7.3560209      769.27856     -22.186506      747.09205    
   3745000   296.97337      0.012897222    6.541071       736.79913     -22.319285      714.47984    
   3746000   302.77644      0.012897222    4.8973461      751.1967      -22.432971      728.76373    
   3747000   294.17781      0.012897222    8.3873217      729.86327     -18.446686      711.41658    
   3748000   298.20592      0.012897222    7.23688        739.8571      -19.851501      720.0056     
   3749000   306.73953      0.012897222    3.2445598      761.02924     -28.008355      733.02088    
   3750000   303.38663      0.012897222    8.0505155      752.71059     -26.404374      726.30622    
   3751000   296.00507      0.012897222    10.103607      734.39674     -33.082311      701.31443    
   3752000   284.26533      0.012897222    7.2196269      705.27013     -24.574269      680.69586    
   3753000   304.90782      0.012897222    3.8810483      756.48471     -24.17258       732.31213    
   3754000   308.27921      0.012897222    7.2084121      764.84923     -18.596195      746.25303    
   3755000   299.17295      0.012897222    7.7216152      742.25633     -18.280106      723.97622    
   3756000   290.49805      0.012897222    6.918843       720.73368     -22.446889      698.28679    
   3757000   304.49448      0.012897222    7.3305138      755.45919     -22.646214      732.81298    
   3758000   299.72625      0.012897222    7.1986272      743.62909     -19.386993      724.2421     
   3759000   292.43863      0.012897222    6.800523       725.5483      -22.19394       703.35435    
   3760000   294.96136      0.012897222    6.5867941      731.80726     -24.499991      707.30727    
   3761000   290.26405      0.012897222    7.3836996      720.1531      -18.801431      701.35167    
   3762000   300.44714      0.012897222    7.0428398      745.41763     -21.045707      724.37192    
   3763000   300.65845      0.012897222    6.6751397      745.94191     -24.456709      721.4852     
   3764000   297.34807      0.012897222    6.5895898      737.72876     -22.867419      714.86134    
   3765000   305.95042      0.012897222    8.3755323      759.07142     -26.305035      732.76638    
   3766000   313.18344      0.012897222    6.9623745      777.01674     -26.578374      750.43837    
   3767000   302.40198      0.012897222    8.5593223      750.26765     -26.687117      723.58053    
   3768000   294.51439      0.012897222    7.0181862      730.69831     -28.816541      701.88177    
   3769000   302.69862      0.012897222    6.945041       751.00362     -26.543059      724.46056    
   3770000   317.17615      0.012897222    6.6566555      786.92278     -22.796912      764.12586    
   3771000   320.25384      0.012897222    7.4948029      794.5586      -22.298934      772.25967    
   3772000   300.51441      0.012897222    6.5821829      745.58455     -26.217235      719.36731    
   3773000   298.45162      0.012897222    6.0766724      740.46669     -22.492991      717.9737     
   3774000   287.94032      0.012897222    10.193285      714.38788     -22.83832       691.54956    
   3775000   301.51895      0.012897222    12.141042      748.07683     -20.882501      727.19433    
   3776000   308.81005      0.012897222    6.9787774      766.16625     -19.515154      746.6511     
   3777000   293.0482       0.012897222    1.9257713      727.06065     -19.541662      707.51899    
   3778000   292.84249      0.012897222    7.9594998      726.5503      -16.237499      710.3128     
   3779000   307.72003      0.012897222    13.48428       763.46187     -20.739434      742.72243    
   3780000   298.92568      0.012897222    8.1484889      741.64286     -18.838831      722.80403    
   3781000   294.75127      0.012897222    4.7566818      731.28603     -21.358991      709.92704    
   3782000   293.17649      0.012897222    6.9420925      727.37895     -23.536485      703.84247    
   3783000   305.50484      0.012897222    10.303574      757.96594     -20.956361      737.00958    
   3784000   298.43801      0.012897222    7.3110648      740.43292     -19.616344      720.81658    
   3785000   301.1573       0.012897222    5.4760876      747.17955     -17.461791      729.71776    
   3786000   302.5496       0.012897222    6.412205       750.6339      -14.871218      735.76268    
   3787000   300.09937      0.012897222    10.835817      744.55482     -17.861694      726.69312    
   3788000   307.77548      0.012897222    6.5396631      763.59944     -15.747859      747.85159    
   3789000   302.95575      0.012897222    5.7630825      751.64157     -15.91108       735.73049    
   3790000   296.9842       0.012897222    8.6722883      736.826       -17.313228      719.51277    
   3791000   296.97028      0.012897222    9.4129454      736.79146     -16.964448      719.82701    
   3792000   298.18899      0.012897222    8.2029779      739.81511     -17.174742      722.64037    
   3793000   301.57141      0.012897222    6.171243       748.20699     -19.427465      728.77952    
   3794000   299.21141      0.012897222    6.6646958      742.35177     -17.070903      725.28086    
   3795000   292.73382      0.012897222    6.7146092      726.28067     -16.757143      709.52352    
   3796000   303.26033      0.012897222    12.827097      752.39725     -17.720603      734.67664    
   3797000   298.33996      0.012897222    10.855148      740.18966     -16.467224      723.72243    
   3798000   308.85812      0.012897222    4.5626681      766.28551     -19.068104      747.21741    
   3799000   295.75724      0.012897222    6.8571882      733.78187     -18.256699      715.52517    
   3800000   301.5963       0.012897222    8.1750066      748.26873     -17.702685      730.56605    
   3801000   291.55122      0.012897222    6.6572171      723.34662     -17.256865      706.08975    
   3802000   285.05291      0.012897222    7.292989       707.22412     -14.830586      692.39353    
   3803000   290.42809      0.012897222    8.5663936      720.56009     -15.804286      704.7558     
   3804000   307.34362      0.012897222    7.0899012      762.528       -16.610711      745.91729    
   3805000   297.65329      0.012897222    2.8314996      738.48601     -19.124569      719.36144    
   3806000   288.12546      0.012897222    7.5105373      714.84721     -20.39617       694.45104    
   3807000   311.06724      0.012897222    7.0719113      771.7664      -21.213269      750.55314    
   3808000   309.75078      0.012897222    6.9925238      768.50022     -22.184629      746.31559    
   3809000   296.79692      0.012897222    6.4303602      736.36134     -25.126666      711.23467    
   3810000   302.75429      0.012897222    8.5078366      751.14175     -23.85937       727.28238    
   3811000   303.05474      0.012897222    8.9293545      751.88717     -19.704663      732.18251    
   3812000   302.03444      0.012897222    7.4890611      749.35577     -20.564698      728.79107    
   3813000   302.93961      0.012897222    6.5150545      751.60152     -20.525847      731.07567    
   3814000   309.11515      0.012897222    6.6227457      766.9232      -21.532668      745.39053    
   3815000   290.36862      0.012897222    5.4559957      720.41256     -23.475432      696.93713    
   3816000   299.85465      0.012897222    13.768987      743.94765     -20.027566      723.92008    
   3817000   310.06937      0.012897222    7.0090198      769.29066     -21.020662      748.27       
   3818000   298.19353      0.012897222    4.5243345      739.82638     -21.723109      718.10327    
   3819000   295.8171       0.012897222    13.0979        733.93039     -20.90869       713.0217     
   3820000   298.34656      0.012897222    6.6347983      740.20603     -18.649179      721.55685    
   3821000   292.7654       0.012897222    6.9444321      726.35904     -19.276639      707.0824     
   3822000   296.21183      0.012897222    8.6532938      734.90972     -19.552277      715.35744    
   3823000   301.8379       0.012897222    11.032107      748.86815     -20.963109      727.90504    
   3824000   313.98962      0.012897222    10.744376      779.01691     -20.898351      758.11856    
   3825000   299.04783      0.012897222    7.7582733      741.94592     -19.404035      722.54188    
   3826000   288.76858      0.012897222    3.7628771      716.44281     -22.88403       693.55878    
   3827000   286.51886      0.012897222    8.1659633      710.86119     -22.921706      687.93948    
   3828000   293.01468      0.012897222    6.5065604      726.9775      -21.671011      705.30649    
   3829000   315.93489      0.012897222    10.529458      783.84316     -24.428628      759.41454    
   3830000   300.60129      0.012897222    8.672453       745.80009     -21.806347      723.99375    
   3831000   287.36713      0.012897222    1.8590455      712.96578     -19.54639       693.41939    
   3832000   306.01969      0.012897222    5.2397517      759.24329     -21.492321      737.75097    
   3833000   303.72087      0.012897222    11.141324      753.53986     -20.59928       732.94058    
   3834000   294.13314      0.012897222    8.1542394      729.75244     -17.681771      712.07067    
   3835000   296.05056      0.012897222   -1.0879735      734.50959     -21.015495      713.4941     
   3836000   308.17877      0.012897222    5.0083367      764.60001     -19.831496      744.76852    
   3837000   306.95812      0.012897222    13.134281      761.57155     -19.111538      742.46001    
   3838000   294.56402      0.012897222    8.1062337      730.82145     -19.819544      711.00191    
   3839000   296.80054      0.012897222    4.7147333      736.37032     -21.292507      715.07781    
   3840000   304.40678      0.012897222    7.9102752      755.24162     -21.734768      733.50686    
   3841000   304.23695      0.012897222    7.2156598      754.82025     -19.311046      735.50921    
   3842000   303.94556      0.012897222    3.7591313      754.09731     -23.212434      730.88488    
   3843000   307.99735      0.012897222    10.27812       764.14993     -21.578181      742.57175    
   3844000   295.81476      0.012897222    8.147636       733.92456     -21.578638      712.34593    
   3845000   294.41596      0.012897222    7.1469627      730.4541      -20.906822      709.54728    
   3846000   304.49534      0.012897222    6.7140543      755.46134     -20.342338      735.119      
   3847000   302.47985      0.012897222    6.7920109      750.46083     -23.562395      726.89844    
   3848000   303.71458      0.012897222    6.6948921      753.52424     -20.03719       733.48705    
   3849000   294.2494       0.012897222    5.9609092      730.04088     -18.680442      711.36044    
   3850000   300.80443      0.012897222    6.6794984      746.30407     -15.968697      730.33537    
   3851000   302.49209      0.012897222    5.7854778      750.49121     -19.111334      731.37988    
   3852000   310.22093      0.012897222    6.5790342      769.66667     -17.072315      752.59436    
   3853000   297.79752      0.012897222    7.4746682      738.84387     -13.20402       725.63985    
   3854000   295.17353      0.012897222    6.3037912      732.33366     -14.032095      718.30156    
   3855000   316.3773       0.012897222    7.598137       784.9408      -14.058387      770.88241    
   3856000   302.98742      0.012897222    5.6947445      751.72015     -18.692393      733.02776    
   3857000   290.26441      0.012897222    6.5434396      720.15401     -18.480841      701.67317    
   3858000   289.77054      0.012897222    7.1167235      718.9287      -17.814535      701.11416    
   3859000   309.0729       0.012897222    6.8755009      766.81839     -19.491629      747.32676    
   3860000   306.29709      0.012897222    7.1550305      759.93153     -16.750954      743.18057    
   3861000   286.70063      0.012897222    5.1324207      711.31217     -18.799695      692.51247    
   3862000   300.14503      0.012897222    6.985797       744.66809     -18.770767      725.89733    
   3863000   312.99327      0.012897222    7.2028555      776.54494     -21.740771      754.80417    
   3864000   303.80962      0.012897222    7.8538276      753.76004     -24.966763      728.79327    
   3865000   290.10226      0.012897222    6.8266362      719.7517      -26.404045      693.34765    
   3866000   313.55813      0.012897222    6.4342538      777.94636     -24.29397       753.65239    
   3867000   305.29976      0.012897222    4.8461978      757.45712     -22.908906      734.54822    
   3868000   293.93355      0.012897222    8.1096297      729.25725     -23.610537      705.64671    
   3869000   295.22071      0.012897222    6.362521       732.45071     -19.803807      712.64691    
   3870000   299.12252      0.012897222    8.475131       742.13122     -21.055179      721.07604    
   3871000   305.69589      0.012897222    7.6977381      758.43994     -23.340453      735.09948    
   3872000   306.02087      0.012897222    6.4891736      759.24621     -23.083733      736.16247    
   3873000   314.31318      0.012897222    7.3063086      779.81967     -24.132101      755.68757    
   3874000   309.02827      0.012897222    7.353638       766.70765     -19.261873      747.44578    
   3875000   290.38166      0.012897222    7.0934987      720.44489     -15.40386       705.04103    
   3876000   301.89768      0.012897222    11.554511      749.01646     -22.206238      726.81022    
   3877000   297.21985      0.012897222    13.181147      737.41064     -20.867884      716.54276    
   3878000   301.99981      0.012897222    6.6618921      749.26986     -22.32271       726.94715    
   3879000   285.95767      0.012897222    6.5497385      709.46885     -20.098131      689.37072    
   3880000   300.84986      0.012897222    5.8387874      746.4168      -17.333445      729.08336    
   3881000   320.98247      0.012897222    8.8430629      796.36635     -15.736852      780.6295     
   3882000   302.56965      0.012897222    10.162719      750.68365     -17.911103      732.77254    
   3883000   284.40141      0.012897222    2.9525062      705.60774     -17.574373      688.03337    
   3884000   303.95124      0.012897222    7.2308625      754.11141     -21.110996      733.00041    
   3885000   298.44856      0.012897222    8.0166435      740.4591      -21.461274      718.99783    
   3886000   300.71272      0.012897222    5.4368166      746.07654     -18.009636      728.0669     
   3887000   296.5918       0.012897222    8.8871208      735.85242     -20.126788      715.72564    
   3888000   290.09886      0.012897222    11.570952      719.74326     -22.874277      696.86899    
   3889000   298.50201      0.012897222    5.3225453      740.59173     -25.18186       715.40987    
   3890000   291.38756      0.012897222    5.5450862      722.94058     -22.428703      700.51188    
   3891000   293.55971      0.012897222    6.2294228      728.32973     -22.277403      706.05233    
   3892000   312.53673      0.012897222    4.2731539      775.41225     -22.574874      752.83738    
   3893000   318.88185      0.012897222    5.9671616      791.15465     -22.217487      768.93716    
   3894000   297.27725      0.012897222    7.9610976      737.55304     -24.390959      713.16208    
   3895000   294.67669      0.012897222    6.382085       731.10098     -20.405905      710.69508    
   3896000   299.61688      0.012897222    4.1973176      743.35775     -21.959884      721.39786    
   3897000   305.40405      0.012897222    3.8980774      757.71587     -21.94527       735.7706     
   3898000   313.58671      0.012897222    7.7875429      778.01726     -23.790497      754.22676    
   3899000   298.18054      0.012897222    7.2068077      739.79415     -25.292168      714.50198    
   3900000   295.29034      0.012897222    7.871148       732.62348     -27.216658      705.40682    
   3901000   300.31493      0.012897222    7.8467506      745.08962     -23.775473      721.31414    
   3902000   313.79464      0.012897222    5.7606819      778.53316     -25.561977      752.97118    
   3903000   306.08636      0.012897222    6.4983875      759.40869     -30.980016      728.42867    
   3904000   295.13433      0.012897222    8.3378017      732.2364      -29.573208      702.66319    
   3905000   297.17333      0.012897222    10.576605      737.29523     -27.76411       709.53113    
   3906000   310.22687      0.012897222    4.6089049      769.68141     -24.062677      745.61873    
   3907000   301.41869      0.012897222    3.9055065      747.82808     -23.375387      724.45269    
   3908000   292.88046      0.012897222    7.3718877      726.6445      -19.456511      707.18799    
   3909000   301.03625      0.012897222    7.4363062      746.87923     -19.877083      727.00215    
   3910000   310.89409      0.012897222    6.6580315      771.3368      -25.160439      746.17636    
   3911000   307.22957      0.012897222    6.8016242      762.24504     -26.874335      735.3707     
   3912000   303.75015      0.012897222    11.932206      753.61251     -26.367472      727.24503    
   3913000   315.41568      0.012897222    8.9366728      782.555       -23.380625      759.17438    
   3914000   300.70947      0.012897222    6.4063517      746.06848     -23.006418      723.06206    
   3915000   300.59564      0.012897222    7.1005625      745.78608     -19.573687      726.21239    
   3916000   294.80561      0.012897222    12.033392      731.42086     -22.515075      708.90578    
   3917000   315.98783      0.012897222    5.9944471      783.97452     -23.895959      760.07856    
   3918000   311.55125      0.012897222    2.7120322      772.96724     -25.734258      747.23298    
   3919000   290.06283      0.012897222    6.4015863      719.65387     -27.815505      691.83837    
   3920000   290.56906      0.012897222    12.530648      720.90986     -28.982127      691.92773    
   3921000   320.28698      0.012897222    8.8917745      794.64082     -29.109469      765.53135    
   3922000   305.41713      0.012897222    5.8149947      757.74831     -23.873906      733.8744     
   3923000   296.07286      0.012897222    7.104301       734.56492     -26.448859      708.11606    
   3924000   311.51909      0.012897222    7.2395097      772.88745     -23.855458      749.03199    
   3925000   288.69747      0.012897222    6.4706204      716.26638     -20.210075      696.05631    
   3926000   299.77416      0.012897222    4.9035241      743.74796     -17.648701      726.09926    
   3927000   297.86891      0.012897222    9.0128761      739.02098     -23.22544       715.79554    
   3928000   307.38771      0.012897222    2.6192617      762.63737     -23.109962      739.52741    
   3929000   308.70908      0.012897222    5.232253       765.91573     -21.906621      744.00911    
   3930000   289.0373       0.012897222    3.4857277      717.10952     -24.681618      692.4279     
   3931000   298.12803      0.012897222    9.5540904      739.66387     -23.130753      716.53311    
   3932000   299.46655      0.012897222    1.1437824      742.98477     -22.09876       720.88601    
   3933000   300.16853      0.012897222    5.22267        744.7264      -23.726815      720.99958    
   3934000   294.81891      0.012897222    0.20874152     731.45383     -28.375728      703.0781     
   3935000   300.25048      0.012897222    10.912508      744.92971     -26.447472      718.48223    
   3936000   307.46902      0.012897222    8.974955       762.83912     -28.007014      734.8321     
   3937000   300.92076      0.012897222    0.44259374     746.5927      -25.938912      720.65379    
   3938000   299.36321      0.012897222    9.0286257      742.72837     -27.268901      715.45947    
   3939000   301.14433      0.012897222    9.0549751      747.14739     -26.187903      720.95949    
   3940000   296.65651      0.012897222    6.9565764      736.01298     -27.571731      708.44124    
   3941000   298.32697      0.012897222    7.1130579      740.15745     -27.491279      712.66617    
   3942000   280.87437      0.012897222    9.3211736      696.85706     -27.362775      669.49429    
   3943000   297.77431      0.012897222    5.8733851      738.78627     -30.472214      708.31405    
   3944000   304.57875      0.012897222    6.891592       755.66828     -32.343222      723.32506    
   3945000   305.23516      0.012897222    9.8568255      757.29685     -32.626648      724.6702     
   3946000   290.49393      0.012897222    7.2060461      720.72344     -28.608977      692.11447    
   3947000   290.63741      0.012897222    4.5534122      721.07943     -28.829608      692.24982    
   3948000   297.87595      0.012897222    4.7877039      739.03845     -28.665602      710.37285    
   3949000   305.93944      0.012897222    5.5950617      759.04418     -33.788861      725.25532    
   3950000   305.22555      0.012897222    7.4708346      757.27301     -31.701923      725.57109    
   3951000   301.50538      0.012897222    6.6934308      748.04316     -29.600686      718.44247    
   3952000   292.72412      0.012897222    6.1519872      726.25662     -33.27022       692.9864     
   3953000   298.03367      0.012897222    6.5767566      739.42975     -29.639944      709.7898     
   3954000   306.07291      0.012897222    7.4370554      759.37533     -27.667265      731.70807    
   3955000   300.90822      0.012897222    7.8049527      746.56159     -25.501366      721.06022    
   3956000   294.98674      0.012897222    5.27587        731.87022     -26.931986      704.93824    
   3957000   303.78992      0.012897222    8.8808016      753.71117     -24.264688      729.44648    
   3958000   319.58565      0.012897222    7.2410031      792.90081     -30.383907      762.5169     
   3959000   301.23134      0.012897222    6.9200532      747.36325     -21.852631      725.51062    
   3960000   292.10148      0.012897222    7.9304769      724.71183     -24.945377      699.76645    
   3961000   308.02242      0.012897222    7.2251171      764.21212     -26.749931      737.46219    
   3962000   298.78981      0.012897222    3.4628198      741.30575     -25.991945      715.31381    
   3963000   300.56036      0.012897222    7.783737       745.69855     -24.132219      721.56633    
   3964000   297.84939      0.012897222    11.182587      738.97255     -25.285678      713.68687    
   3965000   314.25766      0.012897222    6.415591       779.68191     -28.983274      750.69864    
   3966000   305.80542      0.012897222    3.2208919      758.71168     -30.759366      727.95232    
   3967000   290.64535      0.012897222    3.4193475      721.09912     -24.589271      696.50985    
   3968000   305.80708      0.012897222    7.6962223      758.7158      -26.227506      732.48829    
   3969000   302.2584       0.012897222    4.7761462      749.91143     -24.119979      725.79145    
   3970000   284.59696      0.012897222    6.4596824      706.0929      -26.264487      679.82841    
   3971000   302.11036      0.012897222    6.8019557      749.54414     -23.235191      726.30895    
   3972000   310.35986      0.012897222    7.5432607      770.01136     -22.165637      747.84572    
   3973000   293.19031      0.012897222    7.3925202      727.41324     -25.124305      702.28894    
   3974000   294.52737      0.012897222    6.5860454      730.73052     -23.025019      707.7055     
   3975000   314.96491      0.012897222    6.5681799      781.43662     -26.274087      755.16253    
   3976000   317.43575      0.012897222    13.893156      787.56685     -26.418292      761.14855    
   3977000   291.06982      0.012897222    7.7078438      722.15224     -26.715777      695.43646    
   3978000   291.37609      0.012897222    5.9594323      722.91212     -30.941151      691.97097    
   3979000   300.96487      0.012897222    4.1370044      746.70214     -30.585262      716.11688    
   3980000   306.29481      0.012897222    9.9674954      759.92586     -27.713135      732.21273    
   3981000   314.22676      0.012897222    13.477728      779.60525     -28.475752      751.1295     
   3982000   301.0532       0.012897222    7.6343175      746.92128     -24.693252      722.22803    
   3983000   289.11505      0.012897222    6.4798706      717.3024      -23.023156      694.27924    
   3984000   299.42489      0.012897222    6.5079977      742.8814      -22.979584      719.90182    
   3985000   313.2875       0.012897222    7.8882377      777.27491     -26.264929      751.00998    
   3986000   299.32142      0.012897222    6.8287523      742.6247      -29.97601       712.64869    
   3987000   280.13947      0.012897222    6.1223647      695.03375     -28.765147      666.2686     
   3988000   295.28867      0.012897222    7.1103457      732.61932     -26.073074      706.54625    
   3989000   309.86738      0.012897222    7.1239679      768.7895      -23.688596      745.10091    
   3990000   317.21501      0.012897222    4.9730186      787.01919     -22.017825      765.00137    
   3991000   290.26564      0.012897222    5.3662669      720.15706     -22.571034      697.58602    
   3992000   292.73046      0.012897222    9.1764874      726.27235     -25.251793      701.02056    
   3993000   305.50132      0.012897222    7.1546505      757.9572      -21.100664      736.85654    
   3994000   312.71833      0.012897222    7.5957954      775.86281     -19.575113      756.28769    
   3995000   292.16677      0.012897222    6.1869359      724.87382     -21.693645      703.18017    
   3996000   293.91969      0.012897222    5.9663577      729.22285     -19.746689      709.47616    
   3997000   302.42742      0.012897222    6.7231586      750.33078     -20.071747      730.25903    
   3998000   305.72355      0.012897222    6.7650846      758.50857     -18.217702      740.29086    
   3999000   276.67124      0.012897222    7.4881617      686.42898     -20.634503      665.79448    
   4000000   293.44328      0.012897222    7.6110841      728.04086     -19.38062       708.66024    
Loop time of 7751.05 on 1 procs for 4000000 steps with 1500 atoms

Performance: 11.147 ns/day, 2.153 hours/ns, 516.059 timesteps/s, 774.089 katom-step/s
100.0% CPU use with 1 MPI tasks x 1 OpenMP threads

MPI task timing breakdown:
Section |  min time  |  avg time  |  max time  |%varavg| %total
---------------------------------------------------------------
Pair    | 793.21     | 793.21     | 793.21     |   0.0 | 10.23
Bond    | 89.602     | 89.602     | 89.602     |   0.0 |  1.16
Kspace  | 6354.7     | 6354.7     | 6354.7     |   0.0 | 81.98
Neigh   | 0.028736   | 0.028736   | 0.028736   |   0.0 |  0.00
Comm    | 19.085     | 19.085     | 19.085     |   0.0 |  0.25
Output  | 0.086911   | 0.086911   | 0.086911   |   0.0 |  0.00
Modify  | 481.55     | 481.55     | 481.55     |   0.0 |  6.21
Other   |            | 12.8       |            |       |  0.17

Nlocal:           1500 ave        1500 max        1500 min
Histogram: 1 0 0 0 0 0 0 0 0 0
Nghost:           1015 ave        1015 max        1015 min
Histogram: 1 0 0 0 0 0 0 0 0 0
Neighs:              0 ave           0 max           0 min
Histogram: 1 0 0 0 0 0 0 0 0 0

Total # of neighbors = 0
Ave neighs/atom = 0
Ave special neighs/atom = 2
Neighbor list builds = 16861
Dangerous builds = 0
write_data	last_conf.data pair ij
System init for write_data ...
PPPM initialization ...
  using 12-bit tables for long-range coulomb (src/kspace.cpp:342)
  G vector (1/distance) = 0.16562227
  grid = 30 30 30
  stencil order = 5
  estimated absolute RMS force accuracy = 0.029429479
  estimated relative force accuracy = 8.8626001e-05
  using double precision FFTW3
  3d grid and FFT values/proc = 42875 27000
Generated 1 of 1 mixed pair_coeff terms from arithmetic mixing rule
Total wall time: 2:09:11
