LAMMPS (29 Aug 2024 - Update 1)
  using 1 OpenMP thread(s) per MPI task
package gpu 1 gpuID 0
# GCMC for CO2 molecular fluid, rigid/small/nvt dynamics
# Rigid CO2 TraPPE model
# [Potoff and J.I. Siepmann, Vapor-liquid equilibria of
# mixtures containing alkanes, carbon dioxide and
# nitrogen AIChE J., 47,1676-1682 (2001)].

# global model settings

units           real
atom_style      full
boundary        p p p
pair_style      lj/cut/coul/long  12
pair_modify     mix arithmetic shift yes
kspace_style    pppm 1.0e-4
bond_style      harmonic
angle_style     harmonic
neigh_modify    one 4000

# box, start molecules on simple cubic lattice
region          mbox block 0 ${lbox} 0 ${lbox} 0 ${lbox} units box
region          mbox block 0 141 0 ${lbox} 0 ${lbox} units box
region          mbox block 0 141 0 141 0 ${lbox} units box
region          mbox block 0 141 0 141 0 141 units box
create_box      2 mbox                                       bond/types 1                                angle/types 1                               extra/bond/per/atom 2                       extra/angle/per/atom 1                      extra/special/per/atom 2
Created orthogonal box = (0 0 0) to (141 141 141)
  1 by 1 by 1 MPI processor grid
molecule        co2mol ../CO2.txt
Read molecule template co2mol:
# CO2 molecule file. TraPPE model.
  1 molecules
  0 fragments
  3 atoms with max type 2
  2 bonds with max type 1
  1 angles with max type 1
  0 dihedrals with max type 0
  0 impropers with max type 0
create_atoms   	0 random ${nmols} 34578 mbox mol co2mol 464563 overlap 1.2
create_atoms   	0 random 500 34578 mbox mol co2mol 464563 overlap 1.2
Created 1500 atoms
  using lattice units in orthogonal box = (0 0 0) to (141 141 141)
  create_atoms CPU = 0.008 seconds

# rigid CO2 TraPPE model

pair_coeff      1   1  0.053649   2.800
pair_coeff      2   2  0.156973   3.050
bond_coeff      1       0       1.16
angle_coeff     1       0       180

# masses

mass 1 12.0107
mass 2 15.9994

write_data init_conf.data  pair ij
System init for write_data ...
PPPM initialization ...
  using 12-bit tables for long-range coulomb (src/kspace.cpp:342)
  G vector (1/distance) = 0.16590657
  grid = 30 30 30
  stencil order = 5
  estimated absolute RMS force accuracy = 0.029187338
  estimated relative force accuracy = 8.7896802e-05
  using double precision FFTW3
  3d grid and FFT values/proc = 42875 27000
Generated 1 of 1 mixed pair_coeff terms from arithmetic mixing rule

# MD settings

group           co2 type 1 2
1500 atoms in group co2
velocity       	all create 300 54654
timestep        0.25

# rigid constraints with thermostat
fix             myrigidnvt co2 rigid/nvt molecule temp 300 300 $(100*dt)
fix             myrigidnvt co2 rigid/nvt molecule temp 300 300 25
  500 rigid bodies with 1500 atoms

thermo 1000
thermo_style custom step temp density press ke pe etotal


variable    mvol equal vol
variable    mden equal density
variable	mtmp equal temp
variable    mpre equal press

fix mydat all ave/time 1 4000 4000 v_mtmp v_mden v_mpre file statistics.dat ## every 1ps

run 4000000 ## 1ns

CITE-CITE-CITE-CITE-CITE-CITE-CITE-CITE-CITE-CITE-CITE-CITE-CITE

Your simulation uses code contributions which should be cited:

- GPU package (short-range, long-range and three-body potentials): doi:10.1016/j.cpc.2010.12.021, doi:10.1016/j.cpc.2011.10.012, doi:10.1016/j.cpc.2013.08.002, doi:10.1016/j.commatsci.2014.10.068, doi:10.1016/j.cpc.2016.10.020, doi:10.3233/APC200086

@Article{Brown11,
 author = {W. M. Brown and P. Wang and S. J. Plimpton and A. N. Tharrington},
 title = {Implementing Molecular Dynamics on Hybrid High Performance Computers---Short Range Forces},
 journal = {Comput.\ Phys.\ Commun.},
 year =    2011,
 volume =  182,
 pages =   {898--911},
 doi =     {10.1016/j.cpc.2010.12.021}
}

@Article{Brown12,
 author = {W. M. Brown and A. Kohlmeyer and S. J. Plimpton and A. N. Tharrington},
 title = {Implementing Molecular Dynamics on Hybrid High Performance Computers - Particle-Particle Particle-Mesh},
 journal = {Comput.\ Phys.\ Commun.},
 year =    2012,
 volume =  183,
 doi =     {10.1016/j.cpc.2011.10.012},
 pages =   {449--459}
}

@Article{Brown13,
 author = {W. M. Brown and Y. Masako},
 title = {Implementing Molecular Dynamics on Hybrid High Performance Computers---Three-Body Potentials},
 journal = {Comput.\ Phys.\ Commun.},
 year =    2013,
 volume =  184,
 pages =   {2785--2793},
 doi =     {10.1016/j.cpc.2013.08.002},
}

@Article{Trung15,
 author = {T. D. Nguyen and S. J. Plimpton},
 title = {Accelerating Dissipative Particle Dynamics Simulations for Soft Matter Systems},
 journal = {Comput.\ Mater.\ Sci.},
 year =    2015,
 doi =     {10.1016/j.commatsci.2014.10.068},
 volume =  100,
 pages =   {173--180}
}

@Article{Trung17,
 author = {T. D. Nguyen},
 title = {{GPU}-Accelerated {T}ersoff Potentials for Massively Parallel
    Molecular Dynamics Simulations},
 journal = {Comput.\ Phys.\ Commun.},
 year =    2017,
 doi =     {10.1016/j.cpc.2016.10.020},
 volume =  212,
 pages =   {113--122}
}

@inproceedings{Nikolskiy19,
 author = {V. Nikolskiy and V. Stegailov},
 title = {{GPU} Acceleration of Four-Site Water Models in {LAMMPS}},
 booktitle = {Proceedings of the International Conference on Parallel
    Computing (ParCo 2019), Prague, Czech Republic},
 doi =     {10.3233/APC200086},
 year =    2019
}

CITE-CITE-CITE-CITE-CITE-CITE-CITE-CITE-CITE-CITE-CITE-CITE-CITE

PPPM initialization ...
  using 12-bit tables for long-range coulomb (src/kspace.cpp:342)
  G vector (1/distance) = 0.16590657
  grid = 30 30 30
  stencil order = 5
  estimated absolute RMS force accuracy = 0.029187338
  estimated relative force accuracy = 8.7896802e-05
  using double precision FFTW3
  3d grid and FFT values/proc = 42875 27000
Generated 1 of 1 mixed pair_coeff terms from arithmetic mixing rule
Per MPI rank memory allocation (min/avg/max) = 11.38 | 11.38 | 11.38 Mbytes
   Step          Temp         Density         Press          KinEng         PotEng         TotEng    
         0   307.41471      0.013034914   -152.01332      762.70438      6250.708       7013.4124    
      1000   333.85187      0.013034914    14.194269      828.2957      -15.071031      813.22467    
      2000   302.73503      0.013034914    5.9566336      751.09394     -19.76506       731.32888    
      3000   301.62623      0.013034914    5.1140959      748.343       -23.879271      724.46373    
      4000   285.66087      0.013034914    5.0830982      708.73249     -28.437928      680.29456    
      5000   295.43701      0.013034914    12.650384      732.98738     -30.607954      702.37942    
      6000   305.08858      0.013034914    3.3290247      756.93319     -34.910932      722.02226    
      7000   297.83807      0.013034914    6.189071       738.94445     -35.812673      703.13178    
      8000   299.28069      0.013034914    5.9658138      742.52363     -37.639305      704.88433    
      9000   298.93403      0.013034914    7.9666689      741.66357     -34.111115      707.55246    
     10000   306.16922      0.013034914    7.3305791      759.61428     -40.763174      718.85111    
     11000   297.94919      0.013034914    5.8614546      739.22016     -39.789769      699.43039    
     12000   290.20759      0.013034914    11.347263      720.01303     -18.468741      701.54429    
     13000   306.70391      0.013034914    10.594537      760.94085     -41.412632      719.52822    
     14000   292.02284      0.013034914    6.5138929      724.51671     -41.228919      683.28779    
     15000   303.81119      0.013034914    2.3785319      753.76394     -45.589155      708.17478    
     16000   286.0224       0.013034914    5.9991271      709.62945     -49.380605      660.24885    
     17000   301.32237      0.013034914    9.2086908      747.5891      -47.1484        700.4407     
     18000   319.2686       0.013034914    7.5538788      792.1142      -52.676013      739.43819    
     19000   299.56527      0.013034914    7.9064357      743.2297      -53.572116      689.65759    
     20000   295.30124      0.013034914    7.5457881      732.65053     -54.030166      678.62036    
     21000   301.77554      0.013034914    6.9627378      748.71342     -54.964739      693.74869    
     22000   303.37259      0.013034914    10.171308      752.67575     -61.520177      691.15557    
     23000   292.45799      0.013034914    7.2681525      725.59632     -64.010436      661.58589    
     24000   297.00374      0.013034914    6.4538588      736.87445     -63.256422      673.61803    
     25000   304.40928      0.013034914    6.2214245      755.24782     -65.160793      690.08703    
     26000   285.36463      0.013034914    6.928371       707.99752     -62.304037      645.69349    
     27000   293.82121      0.013034914    2.6999339      728.97851     -61.032952      667.94556    
     28000   298.64536      0.013034914    13.085319      740.94737     -57.548806      683.39856    
     29000   298.46716      0.013034914    5.2915308      740.50524     -65.291355      675.21388    
     30000   299.89091      0.013034914    6.3152674      744.03762     -70.898813      673.13881    
     31000   290.13312      0.013034914    6.5439111      719.82826     -72.283946      647.54432    
     32000   298.73398      0.013034914    5.7647226      741.16725     -73.355411      667.81184    
     33000   302.67587      0.013034914    5.7973606      750.94718     -74.920555      676.02662    
     34000   302.26796      0.013034914    8.339755       749.93515     -72.115526      677.81962    
     35000   303.15699      0.013034914    6.3134292      752.14085     -75.126352      677.0145     
     36000   290.45935      0.013034914    1.8056177      720.63765     -76.27655       644.3611     
     37000   304.10982      0.013034914    8.5310185      754.50485     -74.391547      680.1133     
     38000   299.98052      0.013034914    11.429273      744.25993     -73.737977      670.52196    
     39000   300.0593       0.013034914    5.1011906      744.4554      -75.52006       668.93534    
     40000   292.41441      0.013034914   -4.7704898      725.48822     -77.214688      648.27353    
     41000   296.96126      0.013034914    9.1164445      736.76908     -73.996811      662.77227    
     42000   296.00346      0.013034914    17.540586      734.39274     -75.941666      658.45108    
     43000   306.36198      0.013034914   -0.69765109     760.09251     -80.884626      679.20788    
     44000   316.32409      0.013034914   -5.7388125      784.80878     -75.952699      708.85608    
     45000   296.74666      0.013034914    6.4514624      736.23665     -78.914148      657.32251    
     46000   294.53831      0.013034914    10.002241      730.75767     -78.040486      652.71719    
     47000   290.08219      0.013034914    15.617825      719.70191     -82.157272      637.54464    
     48000   311.56003      0.013034914    1.1792833      772.98903     -85.260841      687.72819    
     49000   313.2989       0.013034914    1.8119496      777.30321     -81.152157      696.15105    
     50000   294.75869      0.013034914    6.2885793      731.30443     -77.590006      653.71443    
     51000   291.19197      0.013034914    5.1011969      722.45531     -77.678933      644.77638    
     52000   309.8263       0.013034914    7.1681796      768.68758     -84.926422      683.76116    
     53000   302.03486      0.013034914    4.1155715      749.35682     -85.701358      663.65547    
     54000   285.17884      0.013034914    8.5755928      707.53657     -83.796486      623.74008    
     55000   294.79187      0.013034914    7.7497444      731.38677     -85.959375      645.42739    
     56000   311.2816       0.013034914    10.102812      772.29822     -88.591226      683.70699    
     57000   314.54927      0.013034914    5.4515042      780.4054      -87.767114      692.63828    
     58000   296.81964      0.013034914    5.6622698      736.41771     -87.149716      649.26799    
     59000   297.34791      0.013034914    12.747609      737.72837     -82.281183      655.44718    
     60000   313.25508      0.013034914    7.1014576      777.19449     -83.916977      693.27751    
     61000   289.84654      0.013034914    4.3668832      719.11725     -89.124062      629.99319    
     62000   290.46278      0.013034914    6.6922982      720.64617     -90.51219       630.13398    
     63000   309.32616      0.013034914    6.6011751      767.44674     -92.403723      675.04302    
     64000   308.9757       0.013034914    7.3761906      766.57723     -92.851966      673.72526    
     65000   296.0195       0.013034914    7.5285116      734.43254     -101.04339      633.38916    
     66000   285.92693      0.013034914    6.4842652      709.3926      -95.646717      613.74588    
     67000   300.18714      0.013034914    6.5411883      744.77257     -94.941315      649.83126    
     68000   311.08829      0.013034914    7.4614967      771.81862     -97.743329      674.07529    
     69000   298.60337      0.013034914    5.5405729      740.84318     -101.9921       638.85108    
     70000   293.05677      0.013034914    6.4085602      727.08193     -96.818704      630.26323    
     71000   302.67353      0.013034914    8.8968517      750.94136     -93.912443      657.02892    
     72000   313.45593      0.013034914    6.5526787      777.69281     -91.189035      686.50377    
     73000   296.56207      0.013034914    5.5402179      735.77868     -100.21269      635.56599    
     74000   296.6923       0.013034914    8.3515678      736.10177     -94.580913      641.52086    
     75000   317.0649       0.013034914    11.039168      786.64676     -96.063653      690.5831     
     76000   305.723        0.013034914    4.1517018      758.50719     -97.15927       661.34792    
     77000   293.89016      0.013034914    6.3604391      729.14958     -94.765492      634.38409    
     78000   313.33056      0.013034914    7.0419078      777.38175     -91.326762      686.05499    
     79000   301.64935      0.013034914    8.5374759      748.40036     -95.500395      652.89997    
     80000   302.88809      0.013034914    7.6349114      751.4737      -94.729439      656.74426    
     81000   294.36815      0.013034914    9.7085855      730.33548     -98.8354        631.50008    
     82000   300.47781      0.013034914    6.064479       745.49374     -99.686672      645.80706    
     83000   296.23879      0.013034914    6.2262838      734.97662     -98.663743      636.31287    
     84000   307.35884      0.013034914    10.340638      762.56575     -92.872866      669.69289    
     85000   297.99242      0.013034914    5.8712069      739.3274      -95.048523      644.27888    
     86000   294.75032      0.013034914    4.8639009      731.28367     -93.887042      637.39663    
     87000   314.75265      0.013034914    6.9563708      780.91001     -102.56959      678.34041    
     88000   297.32721      0.013034914    8.77522        737.67702     -101.9711       635.70592    
     89000   296.92037      0.013034914    9.9643092      736.66761     -104.00487      632.66274    
     90000   296.37312      0.013034914    3.9070162      735.30988     -101.20984      634.10004    
     91000   306.88529      0.013034914    11.173612      761.39085     -101.06868      660.32218    
     92000   297.61446      0.013034914    12.495252      738.38967     -109.41183      628.97784    
     93000   296.38251      0.013034914    4.8097442      735.33317     -107.11932      628.21385    
     94000   297.36036      0.013034914    1.3071499      737.75924     -108.14479      629.61445    
     95000   299.35836      0.013034914    3.7300829      742.71634     -113.81691      628.89942    
     96000   304.38285      0.013034914    4.4002667      755.18224     -109.84299      645.33925    
     97000   312.6051       0.013034914    8.2425731      775.58188     -105.98636      669.59551    
     98000   292.30832      0.013034914    5.4418288      725.225       -108.12369      617.1013     
     99000   296.05543      0.013034914    7.7925049      734.52169     -97.191983      637.32971    
    100000   292.45895      0.013034914    7.1642618      725.59872     -101.14888      624.44984    
    101000   315.94009      0.013034914    6.9164475      783.85606     -106.25751      677.59855    
    102000   307.8153       0.013034914    6.0730971      763.69825     -103.41559      660.28266    
    103000   290.07737      0.013034914    5.3015341      719.68996     -107.86261      611.82735    
    104000   294.01752      0.013034914    6.628996       729.46557     -100.47018      628.99539    
    105000   297.48172      0.013034914    7.1079141      738.06035     -106.95633      631.10402    
    106000   310.79223      0.013034914    8.1963886      771.0841      -100.04191      671.04219    
    107000   304.01052      0.013034914    7.4597881      754.25848     -96.137627      658.12086    
    108000   284.83725      0.013034914    6.6915195      706.68906     -90.782081      615.90698    
    109000   298.7134       0.013034914    6.7588483      741.11617     -94.582981      646.53319    
    110000   306.05846      0.013034914    7.2418935      759.33947     -90.732371      668.6071     
    111000   305.75156      0.013034914    5.4455222      758.57804     -91.975774      666.60226    
    112000   292.856        0.013034914    5.8499717      726.58381     -89.588992      636.99482    
    113000   300.11493      0.013034914    5.314661       744.59342     -95.16728       649.42614    
    114000   311.40038      0.013034914    10.765225      772.59293     -96.817643      675.77528    
    115000   293.76297      0.013034914    7.1212346      728.83402     -100.56849      628.26553    
    116000   286.73576      0.013034914    5.9959366      711.39932     -102.85687      608.54245    
    117000   293.06711      0.013034914    6.4369396      727.10758     -106.36153      620.74605    
    118000   300.56069      0.013034914    16.06864       745.69935     -101.82951      643.86984    
    119000   291.64745      0.013034914    3.3142145      723.58536     -98.917119      624.66824    
    120000   310.36482      0.013034914    11.011838      770.02366     -102.73117      667.29249    
    121000   308.19575      0.013034914    19.021111      764.64215     -103.86443      660.77772    
    122000   293.84388      0.013034914    4.6783028      729.03477     -100.83517      628.19961    
    123000   302.73986      0.013034914    6.8222467      751.10595     -96.813703      654.29224    
    124000   300.53749      0.013034914    8.1356424      745.6418      -102.23536      643.40644    
    125000   295.37944      0.013034914    6.6693326      732.84454     -105.34671      627.49783    
    126000   299.04257      0.013034914    6.9055892      741.93286     -99.980338      641.95253    
    127000   299.00021      0.013034914    7.460773       741.82777     -99.983746      641.84402    
    128000   303.196        0.013034914    8.2218554      752.23764     -97.528783      654.70886    
    129000   299.52977      0.013034914    8.036147       743.14162     -100.69061      642.45101    
    130000   297.9742       0.013034914    5.6811492      739.28222     -100.21916      639.06306    
    131000   301.17151      0.013034914    5.0905449      747.21481     -97.325357      649.88945    
    132000   303.732        0.013034914    7.943659       753.56745     -92.395432      661.17202    
    133000   309.99946      0.013034914    7.2621363      769.11721     -97.420827      671.69638    
    134000   291.56284      0.013034914    6.5287935      723.37545     -94.839654      628.5358     
    135000   293.44875      0.013034914    3.4596408      728.05444     -94.123281      633.93115    
    136000   310.27263      0.013034914    2.8046594      769.79495     -97.228567      672.56638    
    137000   297.55286      0.013034914    7.4875993      738.23685     -95.61841       642.61844    
    138000   285.34331      0.013034914    10.45001       707.94463     -100.37985      607.56478    
    139000   305.2281       0.013034914    5.7326699      757.27932     -101.52346      655.75586    
    140000   297.08721      0.013034914    6.6205338      737.08156     -97.403198      639.67836    
    141000   305.67464      0.013034914    6.8416649      758.38721     -105.88033      652.50687    
    142000   299.48784      0.013034914    7.6539444      743.0376      -100.05237      642.98523    
    143000   288.76235      0.013034914    10.901442      716.42734     -95.615337      620.81201    
    144000   302.08859      0.013034914    5.3754299      749.49011     -93.741281      655.74883    
    145000   307.36233      0.013034914    5.7531917      762.57441     -91.204047      671.37037    
    146000   300.25205      0.013034914    4.9906235      744.93361     -93.086642      651.84697    
    147000   299.67757      0.013034914    12.027567      743.50832     -95.569029      647.93929    
    148000   295.05017      0.013034914    8.5614652      732.0276      -90.740232      641.28737    
    149000   303.58165      0.013034914    1.5683677      753.19444     -95.932806      657.26163    
    150000   308.81169      0.013034914    10.300402      766.17031     -99.689605      666.48071    
    151000   295.55884      0.013034914    4.3881551      733.28962     -95.273449      638.01618    
    152000   300.13889      0.013034914    4.1707279      744.65285     -99.445292      645.20756    
    153000   310.11427      0.013034914    13.153623      769.40205     -95.93332       673.46873    
    154000   306.02212      0.013034914    5.0533579      759.24931     -95.242728      664.00658    
    155000   292.7808       0.013034914    0.40997834     726.39724     -91.828666      634.56858    
    156000   316.89193      0.013034914    5.8009152      786.21761     -96.529644      689.68797    
    157000   310.66511      0.013034914    16.288837      770.76871     -93.86057       676.90814    
    158000   285.80104      0.013034914    7.3349902      709.08026     -98.838954      610.24131    
    159000   297.92029      0.013034914    3.9927591      739.14845     -95.691669      643.45678    
    160000   311.66213      0.013034914    7.2408325      773.24232     -94.58285       678.65947    
    161000   300.85842      0.013034914    12.056814      746.43804     -86.734221      659.70382    
    162000   289.38278      0.013034914    2.8035375      717.96665     -85.948516      632.01813    
    163000   317.08778      0.013034914    5.0793554      786.70351     -89.681065      697.02245    
    164000   311.11962      0.013034914    11.608816      771.89634     -92.157834      679.73851    
    165000   286.4109       0.013034914    5.3143497      710.59334     -94.51833       616.07501    
    166000   291.42637      0.013034914   -0.35264407     723.03685     -92.824086      630.21276    
    167000   323.11014      0.013034914    8.1321658      801.64516     -94.963701      706.68146    
    168000   290.39766      0.013034914    11.153731      720.48461     -92.773885      627.71072    
    169000   290.61924      0.013034914    0.06997913     721.03434     -87.482055      633.55229    
    170000   303.03369      0.013034914    1.8271458      751.83495     -88.384367      663.45058    
    171000   310.76908      0.013034914    5.2788013      771.02666     -85.776027      685.25064    
    172000   305.99522      0.013034914    17.399625      759.18258     -85.406124      673.77645    
    173000   287.08569      0.013034914    8.7765748      712.26751     -86.09952       626.16799    
    174000   293.90375      0.013034914    5.5330318      729.18331     -90.68916       638.49415    
    175000   307.38725      0.013034914    5.8291405      762.63624     -88.552447      674.08379    
    176000   304.17447      0.013034914    14.45186       754.66524     -89.429885      665.23536    
    177000   296.22006      0.013034914    9.3396156      734.93014     -95.447967      639.48217    
    178000   302.32245      0.013034914    2.6688872      750.07032     -91.487091      658.58323    
    179000   312.54814      0.013034914    5.9328557      775.44055     -92.355465      683.08508    
    180000   297.26688      0.013034914    9.7016371      737.52733     -95.742169      641.78516    
    181000   294.8327       0.013034914    4.9117345      731.48806     -90.395408      641.09265    
    182000   316.95513      0.013034914    4.0989357      786.37441     -85.674837      700.69958    
    183000   301.45703      0.013034914    8.0764877      747.92321     -88.565881      659.35733    
    184000   293.29252      0.013034914    7.618065       727.66681     -84.658718      643.0081     
    185000   302.13718      0.013034914    9.7428179      749.61068     -81.513363      668.09732    
    186000   300.4847       0.013034914    4.5043083      745.51083     -85.861948      659.64888    
    187000   316.34833      0.013034914    5.7686065      784.86892     -87.551241      697.31768    
    188000   309.54503      0.013034914    8.2070503      767.98975     -85.8506        682.13915    
    189000   306.55656      0.013034914    7.0105443      760.57527     -83.126608      677.44866    
    190000   298.60867      0.013034914    5.9474887      740.85634     -91.754296      649.10204    
    191000   301.0855       0.013034914    7.2130833      747.00142     -87.120262      659.88115    
    192000   301.03586      0.013034914    6.8805229      746.87826     -80.625513      666.25275    
    193000   297.01889      0.013034914    4.5595248      736.91205     -84.399056      652.51299    
    194000   300.89909      0.013034914    6.3409614      746.53894     -84.636361      661.90257    
    195000   300.19194      0.013034914    8.0081177      744.78449     -83.658991      661.1255     
    196000   291.12937      0.013034914    6.1099227      722.29998     -79.93619       642.36379    
    197000   300.01898      0.013034914    5.9902497      744.35535     -78.685819      665.66953    
    198000   297.81816      0.013034914    7.4301944      738.89507     -78.533568      660.3615     
    199000   303.66166      0.013034914    6.268376       753.39295     -75.208177      678.18477    
    200000   303.31394      0.013034914    6.0456689      752.53026     -79.190068      673.34019    
    201000   295.71042      0.013034914    6.5229891      733.6657      -79.4959        654.1698     
    202000   303.13769      0.013034914    7.8819439      752.09297     -80.960746      671.13223    
    203000   303.61783      0.013034914    6.118548       753.2842      -84.950277      668.33392    
    204000   292.17897      0.013034914    5.2880152      724.90409     -87.948013      636.95608    
    205000   297.71484      0.013034914    5.9336893      738.63872     -83.120955      655.51777    
    206000   302.69583      0.013034914    11.449599      750.9967      -81.517416      669.47928    
    207000   296.02772      0.013034914    6.3369354      734.45293     -73.373796      661.07913    
    208000   297.03264      0.013034914    2.1254203      736.94617     -75.557778      661.38839    
    209000   305.4332       0.013034914    7.6597753      757.78819     -75.709822      682.07837    
    210000   305.99174      0.013034914    7.2673302      759.17394     -77.596374      681.57757    
    211000   282.2052       0.013034914    6.6514545      700.15889     -74.666688      625.4922     
    212000   287.24247      0.013034914    6.195539       712.65648     -74.455542      638.20093    
    213000   304.66149      0.013034914    7.2774369      755.87354     -72.704637      683.16891    
    214000   306.5863       0.013034914    4.5496103      760.64907     -69.722829      690.92624    
    215000   285.30474      0.013034914    5.5963925      707.84892     -69.097334      638.75158    
    216000   282.13479      0.013034914    5.7502499      699.98419     -69.203841      630.78035    
    217000   306.13198      0.013034914    6.9551336      759.52189     -73.096705      686.42518    
    218000   304.89909      0.013034914    6.2574138      756.46306     -67.176965      689.28609    
    219000   282.8174       0.013034914    7.1193186      701.67776     -65.472452      636.20531    
    220000   309.01242      0.013034914    7.1152014      766.66832     -68.027601      698.64072    
    221000   312.71686      0.013034914    6.6950484      775.85915     -70.062792      705.79636    
    222000   297.74349      0.013034914    6.0473765      738.70979     -71.252027      667.45777    
    223000   290.47611      0.013034914    7.0219154      720.67923     -71.238979      649.44025    
    224000   310.20348      0.013034914    6.8211451      769.62339     -72.40981       697.21358    
    225000   302.27126      0.013034914    7.255455       749.94332     -69.859016      680.0843     
    226000   290.18718      0.013034914    6.0677831      719.9624      -65.039114      654.92328    
    227000   293.11747      0.013034914    6.7626374      727.23252     -63.644611      663.58791    
    228000   316.9149       0.013034914    7.3588739      786.27461     -65.726619      720.54799    
    229000   306.12346      0.013034914    6.9686644      759.50074     -70.348833      689.15191    
    230000   289.10746      0.013034914    6.4409761      717.28358     -72.550342      644.73323    
    231000   296.39022      0.013034914    7.1649326      735.35231     -71.654302      663.69801    
    232000   316.81401      0.013034914    7.2695738      786.0243      -72.180628      713.84367    
    233000   300.93426      0.013034914    6.4236039      746.6262      -74.314601      672.31159    
    234000   291.44905      0.013034914    7.3305749      723.09312     -69.601529      653.4916     
    235000   293.90535      0.013034914    10.619846      729.18727     -64.355887      664.83138    
    236000   302.6589       0.013034914    5.9783272      750.90507     -68.424764      682.48031    
    237000   304.62214      0.013034914    5.3328973      755.77593     -72.863628      682.9123     
    238000   291.91337      0.013034914    6.0058859      724.24511     -73.767798      650.47731    
    239000   299.51216      0.013034914    6.5165785      743.09792     -74.151522      668.9464     
    240000   299.44722      0.013034914    7.0779333      742.93682     -75.203166      667.73365    
    241000   297.36991      0.013034914    7.7862688      737.78295     -80.14157       657.64138    
    242000   291.1913       0.013034914    7.1305859      722.45364     -75.819311      646.63433    
    243000   302.43972      0.013034914    4.6987368      750.36128     -75.537784      674.82349    
    244000   306.33892      0.013034914    6.7499096      760.0353      -75.58485       684.45045    
    245000   315.66439      0.013034914    8.6922818      783.17205     -73.132689      710.03936    
    246000   294.78552      0.013034914    6.3440735      731.37101     -69.276989      662.09402    
    247000   294.44774      0.013034914    7.5486575      730.53296     -70.166727      660.36623    
    248000   306.08553      0.013034914    7.6283248      759.40664     -70.612038      688.79461    
    249000   291.13856      0.013034914    6.9717801      722.32279     -69.812913      652.50988    
    250000   282.88157      0.013034914    6.5986503      701.83696     -68.016615      633.82035    
    251000   304.94009      0.013034914    7.0249172      756.56478     -62.882358      693.68242    
    252000   315.19125      0.013034914    7.0799328      781.99817     -65.278692      716.71948    
    253000   294.14629      0.013034914    4.1460527      729.78505     -64.040474      665.74458    
    254000   290.45845      0.013034914    5.263909       720.63541     -69.195827      651.43958    
    255000   301.1539       0.013034914    6.1876023      747.17112     -72.355285      674.81584    
    256000   307.64699      0.013034914    6.8933727      763.28067     -71.927564      691.35311    
    257000   290.55904      0.013034914    7.8401352      720.88498     -68.116563      652.76841    
    258000   286.0531       0.013034914    4.7683987      709.70561     -68.368916      641.3367     
    259000   289.56923      0.013034914    6.2586563      718.42925     -66.430931      651.99832    
    260000   309.65841      0.013034914    8.5687856      768.27104     -66.643545      701.62749    
    261000   300.71761      0.013034914    14.720986      746.08867     -66.172159      679.91651    
    262000   289.52207      0.013034914    8.1870984      718.31225     -68.433782      649.87847    
    263000   302.12145      0.013034914    4.7343688      749.57165     -62.85699       686.71466    
    264000   314.03968      0.013034914    6.3952188      779.14111     -61.727858      717.41325    
    265000   290.05263      0.013034914    7.9830984      719.62858     -64.247885      655.38069    
    266000   295.36015      0.013034914    6.8989105      732.79666     -64.181441      668.61522    
    267000   304.93281      0.013034914    4.2263849      756.54671     -68.601704      687.94501    
    268000   319.00848      0.013034914    7.3107629      791.46884     -65.890696      725.57815    
    269000   295.39604      0.013034914    7.481432       732.88573     -67.605604      665.28013    
    270000   299.83644      0.013034914   -2.8431092      743.90246     -66.239457      677.66301    
    271000   311.78565      0.013034914    7.503026       773.5488      -65.314967      708.23383    
    272000   300.52685      0.013034914    28.295357      745.61539     -60.702143      684.91325    
    273000   289.73349      0.013034914    9.3049948      718.83678     -62.497141      656.33963    
    274000   299.80416      0.013034914   -2.5937129      743.82239     -64.910498      678.91189    
    275000   308.36026      0.013034914    4.1386564      765.0503      -62.67577       702.37453    
    276000   306.38206      0.013034914    10.113828      760.14234     -62.724869      697.41747    
    277000   291.2674       0.013034914    10.766019      722.64244     -61.98375       660.65869    
    278000   300.45439      0.013034914    7.3485337      745.43562     -64.662241      680.77338    
    279000   300.73339      0.013034914    2.0814312      746.12784     -66.51756       679.61028    
    280000   302.36845      0.013034914    6.4606515      750.18445     -65.579641      684.60481    
    281000   299.54997      0.013034914    17.058707      743.19174     -65.065451      678.12628    
    282000   297.18903      0.013034914    3.8390308      737.33418     -70.612503      666.72167    
    283000   281.30611      0.013034914   -4.0845167      697.92822     -69.683665      628.24455    
    284000   306.60901      0.013034914    8.8653561      760.70541     -67.667953      693.03745    
    285000   301.45628      0.013034914    7.1893317      747.92134     -66.966109      680.95523    
    286000   307.9023       0.013034914    7.0883906      763.9141      -69.902167      694.01193    
    287000   295.20704      0.013034914    6.7057201      732.4168      -63.335481      669.08132    
    288000   315.00302      0.013034914    10.186795      781.53118     -64.172233      717.35895    
    289000   301.75011      0.013034914    9.8734289      748.65033     -66.661869      681.98846    
    290000   297.10627      0.013034914    11.411221      737.12885     -64.621561      672.50729    
    291000   299.921        0.013034914    3.5290323      744.11228     -66.980398      677.13188    
    292000   305.53475      0.013034914   -3.8984112      758.04014     -63.262268      694.77787    
    293000   302.00775      0.013034914    9.1184764      749.28955     -64.827613      684.46194    
    294000   277.50062      0.013034914    18.327159      688.48668     -62.549662      625.93702    
    295000   307.20421      0.013034914    3.115479       762.18211     -68.966819      693.21529    
    296000   305.09335      0.013034914    6.836763       756.94502     -69.760993      687.18403    
    297000   292.88912      0.013034914    7.3752487      726.66598     -62.629754      664.03623    
    298000   301.39469      0.013034914    8.9230106      747.76854     -66.212541      681.556      
    299000   294.26547      0.013034914    5.82613        730.08074     -70.505006      659.57574    
    300000   299.14932      0.013034914    5.1902726      742.19772     -71.326807      670.87091    
    301000   302.0277       0.013034914    14.307731      749.33906     -66.242703      683.09635    
    302000   301.5392       0.013034914    7.7046983      748.12708     -63.652376      684.4747     
    303000   299.46506      0.013034914    4.8711316      742.98107     -63.338571      679.6425     
    304000   311.91365      0.013034914    2.4068554      773.86636     -57.870061      715.9963     
    305000   304.00583      0.013034914    10.925354      754.24685     -57.378713      696.86813    
    306000   306.65235      0.013034914    9.425312       760.81292     -62.475544      698.33738    
    307000   287.31721      0.013034914    5.1266919      712.84191     -57.827151      655.01476    
    308000   302.81805      0.013034914    6.0414828      751.29994     -60.228966      691.07097    
    309000   308.91383      0.013034914    7.1259256      766.42372     -65.832744      700.59098    
    310000   310.02703      0.013034914    7.1734235      769.18561     -60.532779      708.65283    
    311000   290.65942      0.013034914    6.1806353      721.13404     -64.472812      656.66123    
    312000   294.61574      0.013034914    6.1230921      730.94977     -60.595778      670.35399    
    313000   325.08164      0.013034914    7.2127844      806.53652     -64.7193        741.81722    
    314000   289.24438      0.013034914    7.5576626      717.62328     -56.998384      660.6249     
    315000   298.36465      0.013034914    6.5839323      740.25092     -63.011127      677.23979    
    316000   296.39619      0.013034914    6.6082215      735.36713     -64.906612      670.46051    
    317000   305.61153      0.013034914    7.1790505      758.23062     -62.334521      695.8961     
    318000   296.60984      0.013034914    6.6406228      735.89719     -61.09647       674.80072    
    319000   285.37847      0.013034914    6.3045288      708.03184     -63.493665      644.53818    
    320000   290.96321      0.013034914    7.3447481      721.88773     -61.763682      660.12405    
    321000   306.82182      0.013034914    6.9644713      761.2334      -60.210721      701.02268    
    322000   307.251        0.013034914    5.6126785      762.29819     -58.942799      703.35539    
    323000   287.89932      0.013034914    6.125366       714.28616     -63.931897      650.35426    
    324000   291.29914      0.013034914    8.0511418      722.72119     -56.35238       666.36881    
    325000   319.97035      0.013034914    10.290363      793.85527     -54.521508      739.33376    
    326000   299.43765      0.013034914    7.5374995      742.91306     -57.801725      685.11133    
    327000   288.46162      0.013034914    9.6047899      715.68124     -56.587773      659.09346    
    328000   298.37443      0.013034914    6.479814       740.27517     -57.852602      682.42257    
    329000   308.87683      0.013034914    6.8098105      766.33194     -60.804227      705.52771    
    330000   297.2039       0.013034914    7.5245673      737.37107     -54.12151       683.24956    
    331000   290.47619      0.013034914    4.3150574      720.67944     -55.160457      665.51898    
    332000   312.94018      0.013034914    6.2905636      776.41322     -47.43221       728.98101    
    333000   311.73005      0.013034914    8.2331781      773.41085     -49.745401      723.66545    
    334000   292.6063       0.013034914    7.4213214      725.96429     -49.430516      676.53378    
    335000   286.26501      0.013034914    7.346938       710.23137     -45.18791       665.04346    
    336000   306.78664      0.013034914    8.251446       761.14611     -47.254171      713.89194    
    337000   302.74663      0.013034914    9.2742927      751.12274     -49.555541      701.5672     
    338000   302.91638      0.013034914    4.6209924      751.54388     -46.73514       704.80874    
    339000   301.87455      0.013034914    5.3106107      748.95907     -50.967046      697.99203    
    340000   294.5055       0.013034914    8.7527812      730.67627     -53.005641      677.67063    
    341000   298.64813      0.013034914    7.504102       740.95425     -51.860578      689.09367    
    342000   305.21496      0.013034914    3.4028139      757.24674     -54.559002      702.68774    
    343000   301.56757      0.013034914    5.7799709      748.19744     -55.436845      692.7606     
    344000   299.84884      0.013034914    10.050669      743.93324     -50.271531      693.66171    
    345000   301.78044      0.013034914    6.415293       748.7256      -53.482639      695.24296    
    346000   297.40399      0.013034914    6.3600623      737.86749     -51.242878      686.62461    
    347000   307.15228      0.013034914    9.9141981      762.05327     -52.342538      709.71073    
    348000   306.32368      0.013034914    5.6329595      759.99748     -50.548869      709.44862    
    349000   293.90438      0.013034914    6.8099844      729.18488     -48.68685       680.49803    
    350000   300.61582      0.013034914    8.2450414      745.83614     -52.410304      693.42584    
    351000   302.39922      0.013034914    5.9831949      750.26081     -54.797186      695.46363    
    352000   298.1413       0.013034914    5.9736808      739.69677     -57.654091      682.04268    
    353000   304.46469      0.013034914    7.7375334      755.38529     -53.712102      701.67319    
    354000   299.22684      0.013034914    6.516466       742.39005     -52.305953      690.08409    
    355000   293.25425      0.013034914    5.0002851      727.57188     -51.495225      676.07665    
    356000   304.69466      0.013034914    6.989533       755.95586     -47.940682      708.01517    
    357000   311.7214       0.013034914    7.6669285      773.38938     -47.298939      726.09044    
    358000   297.28235      0.013034914    6.1019055      737.5657      -46.450296      691.11541    
    359000   288.52608      0.013034914    6.9078929      715.84116     -44.632607      671.20855    
    360000   303.24927      0.013034914    5.3004158      752.3698      -44.657411      707.71239    
    361000   327.78611      0.013034914    11.471359      813.24636     -43.949737      769.29662    
    362000   297.4493       0.013034914    7.5967976      737.97991     -42.727212      695.2527     
    363000   292.22041      0.013034914    6.6326082      725.00688     -47.23937       677.76751    
    364000   301.25368      0.013034914    5.0679144      747.41869     -50.632059      696.78663    
    365000   308.85222      0.013034914    8.8985862      766.27088     -54.935691      711.33519    
    366000   291.44639      0.013034914    7.4382659      723.08654     -47.647093      675.43944    
    367000   287.57576      0.013034914    7.5332949      713.48338     -44.418225      669.06515    
    368000   312.12014      0.013034914    5.6176615      774.37867     -45.748556      728.63012    
    369000   296.37805      0.013034914    5.925212       735.32212     -47.764917      687.5572     
    370000   294.86551      0.013034914    6.244798       731.56946     -47.515072      684.05439    
    371000   295.5624       0.013034914    7.2179057      733.29847     -44.768387      688.53008    
    372000   293.05051      0.013034914    6.8687109      727.0664      -39.685802      687.38059    
    373000   302.91416      0.013034914    5.5864556      751.53837     -38.084215      713.45416    
    374000   300.09612      0.013034914    6.5017417      744.54675     -37.79287       706.75388    
    375000   308.65005      0.013034914    9.0495524      765.76927     -37.996063      727.77321    
    376000   294.6478       0.013034914    5.5358895      731.02932     -35.704341      695.32498    
    377000   290.92505      0.013034914    4.6899098      721.79307     -39.622577      682.17049    
    378000   305.5695       0.013034914    7.6191799      758.12634     -43.932165      714.19418    
    379000   310.33063      0.013034914    5.331983       769.93885     -39.584036      730.35482    
    380000   283.42797      0.013034914    6.2927044      703.19261     -35.924368      667.26824    
    381000   301.0621       0.013034914    8.2555978      746.94336     -37.87469       709.06867    
    382000   308.68631      0.013034914    6.4836646      765.85925     -37.850649      728.0086     
    383000   288.01133      0.013034914    5.0117307      714.56404     -40.161956      674.40208    
    384000   305.04712      0.013034914    6.7353126      756.83032     -37.698437      719.13188    
    385000   297.10977      0.013034914    7.4315735      737.13754     -38.90538       698.23216    
    386000   302.82202      0.013034914    8.1880643      751.30978     -34.664876      716.6449     
    387000   295.14889      0.013034914    4.9179349      732.27254     -37.527857      694.74468    
    388000   296.68559      0.013034914    6.0100756      736.08512     -35.525158      700.55997    
    389000   298.90879      0.013034914    8.408931       741.60094     -33.418214      708.18272    
    390000   297.06679      0.013034914    8.8059175      737.03088     -38.376297      698.65459    
    391000   315.18148      0.013034914    7.2874561      781.97394     -35.590725      746.38321    
    392000   302.19704      0.013034914    6.6727595      749.75919     -33.604253      716.15494    
    393000   297.79344      0.013034914    6.9260426      738.83373     -32.196089      706.63765    
    394000   288.115        0.013034914    8.7314752      714.82126     -31.280644      683.54062    
    395000   300.51779      0.013034914    6.4703149      745.59292     -31.05116       714.54176    
    396000   298.45703      0.013034914    5.4946862      740.48011     -30.961345      709.51877    
    397000   303.75014      0.013034914    7.4588516      753.61246     -34.58318       719.02928    
    398000   305.76187      0.013034914    10.616434      758.60362     -34.70293       723.90069    
    399000   296.68183      0.013034914    2.6882476      736.0758      -35.770973      700.30483    
    400000   298.71682      0.013034914    10.838471      741.12467     -34.469812      706.65485    
    401000   300.7675       0.013034914    10.020715      746.21245     -32.781665      713.43078    
    402000   298.42883      0.013034914    7.9026818      740.41015     -30.426968      709.98319    
    403000   294.15684      0.013034914    5.1352754      729.81123     -31.991943      697.81929    
    404000   296.19359      0.013034914    9.8454719      734.86447     -33.516822      701.34765    
    405000   309.60343      0.013034914    8.2851953      768.13464     -34.172118      733.96252    
    406000   296.28784      0.013034914    1.2420081      735.0983      -32.41325       702.68505    
    407000   290.05418      0.013034914    7.9947425      719.63241     -35.909194      683.72322    
    408000   295.81955      0.013034914    9.9556658      733.93646     -38.033092      695.90337    
    409000   313.25166      0.013034914    7.2794309      777.186       -35.125431      742.06057    
    410000   296.27207      0.013034914    5.7066348      735.05918     -34.475726      700.58346    
    411000   292.01383      0.013034914    7.4290547      724.49437     -35.454506      689.03987    
    412000   301.74438      0.013034914    12.712024      748.63612     -30.4622        718.17392    
    413000   319.22296      0.013034914    5.3506564      792.00097     -27.322443      764.67852    
    414000   322.02015      0.013034914    5.9856713      798.94088     -26.950623      771.99025    
    415000   289.64978      0.013034914    6.5176069      718.62909     -31.859227      686.76986    
    416000   297.19161      0.013034914    8.1061925      737.34058     -32.640953      704.69963    
    417000   296.05669      0.013034914    6.7763697      734.52481     -31.088449      703.43637    
    418000   302.80669      0.013034914    3.7130498      751.27175     -33.073404      718.19834    
    419000   298.43357      0.013034914    6.6129434      740.42192     -35.402757      705.01916    
    420000   310.46035      0.013034914    6.6025803      770.2607      -34.438476      735.82222    
    421000   298.46963      0.013034914    6.6835068      740.51139     -35.691787      704.8196     
    422000   290.96782      0.013034914    8.763401       721.89918     -35.665925      686.23326    
    423000   306.69219      0.013034914    7.6572165      760.91178     -34.316476      726.5953     
    424000   299.67172      0.013034914    4.2554817      743.49379     -30.340317      713.15347    
    425000   292.12166      0.013034914    3.3916089      724.76189     -33.599541      691.16235    
    426000   298.42338      0.013034914    4.186708       740.39662     -31.149108      709.24751    
    427000   296.41861      0.013034914    9.3723951      735.42274     -28.265535      707.1572     
    428000   307.59177      0.013034914    6.1177689      763.14366     -29.136184      734.00748    
    429000   297.45703      0.013034914    6.6486773      737.99908     -30.977302      707.02178    
    430000   294.92896      0.013034914    9.2581941      731.72689     -30.941312      700.78557    
    431000   300.14088      0.013034914    8.746875       744.65781     -35.253691      709.40412    
    432000   314.29656      0.013034914    1.0379214      779.77842     -34.208219      745.5702     
    433000   294.19099      0.013034914    8.1400255      729.89597     -32.629008      697.26696    
    434000   311.87763      0.013034914    7.5939627      773.77699     -34.836451      738.94054    
    435000   303.55235      0.013034914    5.1195458      753.12175     -31.632679      721.48907    
    436000   290.33866      0.013034914    7.2208574      720.33823     -28.524944      691.81329    
    437000   295.69034      0.013034914    8.2383389      733.61589     -30.072121      703.54377    
    438000   307.84476      0.013034914    7.7286083      763.77134     -32.495796      731.27554    
    439000   292.61016      0.013034914    5.7635119      725.97388     -29.918623      696.05526    
    440000   306.56803      0.013034914    7.1868736      760.60374     -33.278357      727.32538    
    441000   308.53185      0.013034914    7.5413639      765.47604     -30.055769      735.42027    
    442000   297.77094      0.013034914    5.8009914      738.77791     -29.684917      709.09299    
    443000   307.6331       0.013034914    7.8749288      763.24619     -30.005722      733.24047    
    444000   309.22348      0.013034914    8.2757409      767.19198     -32.249363      734.94262    
    445000   301.8871       0.013034914    3.6569472      748.99021     -29.453685      719.53653    
    446000   298.39977      0.013034914    6.1940399      740.33806     -28.374147      711.96391    
    447000   302.35772      0.013034914    8.1203702      750.15785     -27.353304      722.80454    
    448000   302.8535       0.013034914    15.368155      751.38788     -25.735834      725.65205    
    449000   300.79904      0.013034914    5.8096967      746.2907      -28.758461      717.53224    
    450000   307.68564      0.013034914    5.6405067      763.37655     -26.524239      736.85231    
    451000   293.4466       0.013034914    13.405974      728.04911     -22.917386      705.13173    
    452000   283.61092      0.013034914    20.60557       703.64651     -23.355126      680.29139    
    453000   297.00691      0.013034914    5.9415112      736.88233     -26.619661      710.26267    
    454000   282.77534      0.013034914   -0.0098426246   701.57342     -24.848482      676.72494    
    455000   302.95177      0.013034914    11.735147      751.63168     -26.716024      724.91566    
    456000   316.40525      0.013034914    7.4675791      785.01014     -26.756166      758.25397    
    457000   297.35369      0.013034914    4.544429       737.7427      -25.815167      711.92753    
    458000   293.80229      0.013034914    4.4992642      728.93159     -24.264184      704.6674     
    459000   293.31978      0.013034914    12.945249      727.73447     -26.657074      701.0774     
    460000   312.47314      0.013034914    9.2899187      775.25448     -28.866993      746.38749    
    461000   302.73748      0.013034914   -2.7048849      751.10003     -24.33776       726.76227    
    462000   278.48734      0.013034914   -3.1879563      690.93477     -28.965162      661.96961    
    463000   293.8759       0.013034914    8.8557248      729.1142      -28.758454      700.35575    
    464000   303.86556      0.013034914    7.1758687      753.89884     -25.812336      728.0865     
    465000   299.06383      0.013034914    7.9873846      741.9856      -30.957217      711.02838    
    466000   305.07119      0.013034914    5.3172881      756.89004     -30.436424      726.45362    
    467000   297.97859      0.013034914   -2.5762758      739.2931      -30.091692      709.20141    
    468000   297.97809      0.013034914    8.7750215      739.29186     -24.478791      714.81307    
    469000   302.04357      0.013034914    8.5451491      749.37842     -27.178914      722.1995     
    470000   303.68798      0.013034914    3.3093744      753.45825     -25.088887      728.36936    
    471000   291.1047       0.013034914    5.9090367      722.23879     -28.814274      693.42451    
    472000   284.41419      0.013034914    5.0893195      705.63944     -29.643404      675.99603    
    473000   303.74895      0.013034914    10.658106      753.60951     -25.247269      728.36224    
    474000   313.75238      0.013034914    7.9303449      778.42831     -25.153442      753.27487    
    475000   299.61105      0.013034914    5.5081655      743.34326     -27.090695      716.25257    
    476000   296.68501      0.013034914    5.2333226      736.08368     -21.939946      714.14373    
    477000   294.80477      0.013034914    7.4689896      731.41876     -26.401963      705.0168     
    478000   292.4665       0.013034914    8.9432295      725.61744     -30.504264      695.11317    
    479000   295.92263      0.013034914    6.966716       734.19221     -30.422889      703.76932    
    480000   301.30944      0.013034914    6.3543917      747.55704     -26.44478       721.11226    
    481000   297.99651      0.013034914    8.0477839      739.33755     -31.447293      707.89025    
    482000   297.42708      0.013034914    6.7634384      737.92478     -23.562407      714.36238    
    483000   290.8671       0.013034914    5.4013714      721.64929     -23.617089      698.0322     
    484000   294.18798      0.013034914    6.478732       729.88849     -20.347831      709.54066    
    485000   293.73326      0.013034914    5.7583404      728.76032     -22.607886      706.15244    
    486000   298.7499       0.013034914    6.7497127      741.20674     -26.561841      714.6449     
    487000   300.56158      0.013034914    7.904143       745.70156     -25.944337      719.75722    
    488000   306.11748      0.013034914    12.27497       759.48591     -26.004331      733.48158    
    489000   297.82768      0.013034914    5.9560882      738.91869     -28.432236      710.48646    
    490000   297.3748       0.013034914    3.8759369      737.79509     -24.083281      713.71181    
    491000   311.18662      0.013034914    10.62142       772.06259     -28.355323      743.70727    
    492000   292.26591      0.013034914    11.764101      725.11978     -29.391319      695.72846    
    493000   286.48594      0.013034914    3.0219493      710.7795      -24.933352      685.84615    
    494000   289.40277      0.013034914    1.756469       718.01625     -25.013196      693.00306    
    495000   314.04283      0.013034914    10.860748      779.14891     -26.713869      752.43504    
    496000   295.91017      0.013034914    8.4665093      734.1613      -24.510408      709.65089    
    497000   297.24111      0.013034914   -4.1510479      737.46339     -25.027562      712.43582    
    498000   304.86496      0.013034914    3.9140779      756.37837     -21.13643       735.24194    
    499000   306.9707       0.013034914    8.0316133      761.60276     -22.655635      738.94713    
    500000   294.55756      0.013034914    10.367161      730.80542     -24.130378      706.67505    
    501000   287.68011      0.013034914    5.4847448      713.74227     -26.61365       687.12862    
    502000   298.77998      0.013034914    7.3274448      741.28137     -29.088877      712.19249    
    503000   303.70302      0.013034914    5.4499204      753.49555     -24.751776      728.74378    
    504000   310.3849       0.013034914    1.565047       770.07349     -24.861745      745.21174    
    505000   303.70792      0.013034914    8.0184145      753.50772     -26.017617      727.4901     
    506000   286.66826      0.013034914    9.117035       711.23187     -26.438773      684.79309    
    507000   305.88449      0.013034914    4.1616738      758.90786     -27.135521      731.77234    
    508000   321.98123      0.013034914    4.1867565      798.84431     -23.784727      775.05958    
    509000   295.61983      0.013034914    11.270756      733.44095     -27.077449      706.3635     
    510000   288.39914      0.013034914    6.6161633      715.5262      -22.892898      692.63331    
    511000   301.66358      0.013034914    4.9036544      748.43567     -24.797982      723.63769    
    512000   297.24316      0.013034914    15.129974      737.46848     -21.400966      716.06751    
    513000   305.68225      0.013034914    6.0711682      758.40609     -22.649162      735.75693    
    514000   293.2429       0.013034914    5.6789842      727.54371     -23.225185      704.31853    
    515000   304.24358      0.013034914    6.1879345      754.83671     -22.16235       732.67436    
    516000   316.61724      0.013034914    8.4361977      785.53611     -19.552305      765.98381    
    517000   297.93668      0.013034914    6.9068399      739.18912     -21.912744      717.27637    
    518000   297.4339       0.013034914    5.9346227      737.94172     -28.5513        709.39042    
    519000   309.92019      0.013034914    8.9401255      768.92054     -27.015779      741.90476    
    520000   295.69116      0.013034914    6.6685557      733.61791     -24.150345      709.46756    
    521000   288.11327      0.013034914    1.3303276      714.81697     -24.857548      689.95942    
    522000   305.18085      0.013034914    7.1705473      757.16209     -22.596086      734.56601    
    523000   307.5891       0.013034914    9.7842887      763.13702     -19.173046      743.96398    
    524000   289.55305      0.013034914    8.164773       718.38911     -22.208613      696.18049    
    525000   291.88459      0.013034914    5.6530886      724.1737      -24.944998      699.2287     
    526000   299.28129      0.013034914    5.2587099      742.52513     -22.160192      720.36494    
    527000   310.85735      0.013034914    6.4392218      771.24565     -20.932433      750.31321    
    528000   300.9064       0.013034914    8.5643572      746.55708     -19.225203      727.33188    
    529000   279.36269      0.013034914    4.3313562      693.10654     -19.127096      673.97944    
    530000   303.27736      0.013034914    6.9766991      752.43948     -25.914782      726.5247     
    531000   304.78093      0.013034914    7.0215503      756.16988     -24.082915      732.08696    
    532000   300.26749      0.013034914    7.4337521      744.97192     -24.945399      720.02652    
    533000   287.87332      0.013034914    4.2998479      714.22165     -24.047237      690.17442    
    534000   304.67246      0.013034914    6.2267016      755.90077     -25.746335      730.15443    
    535000   308.62591      0.013034914    7.6243851      765.7094      -29.2505        736.4589     
    536000   291.74142      0.013034914    6.6633998      723.81851     -25.582106      698.2364     
    537000   287.14928      0.013034914    6.4131762      712.42527     -30.979876      681.4454     
    538000   309.73197      0.013034914    7.8149646      768.45356     -31.677257      736.77631    
    539000   306.95609      0.013034914    5.1402612      761.56653     -26.691888      734.87464    
    540000   291.63785      0.013034914    8.9000982      723.56155     -24.4251        699.13645    
    541000   311.30463      0.013034914    7.3636623      772.35536     -28.685431      743.66993    
    542000   304.68706      0.013034914    6.9614276      755.937       -26.800434      729.13657    
    543000   297.02642      0.013034914    6.7221156      736.93073     -27.512257      709.41847    
    544000   293.45995      0.013034914    8.522283       728.08223     -26.532542      701.54969    
    545000   307.88843      0.013034914    8.77243        763.87967     -26.42972       737.44995    
    546000   304.58894      0.013034914    5.8708741      755.69356     -28.268959      727.4246     
    547000   302.37621      0.013034914    6.6868487      750.20372     -26.341255      723.86247    
    548000   292.1772       0.013034914    9.2951115      724.8997      -19.260508      705.63919    
    549000   294.98393      0.013034914    4.6620129      731.86326     -20.13997       711.72329    
    550000   303.88498      0.013034914    4.0745018      753.94701     -21.294664      732.65234    
    551000   305.24236      0.013034914    7.1263937      757.31471     -21.330953      735.98376    
    552000   315.11568      0.013034914    10.529986      781.81069     -22.072158      759.73853    
    553000   298.77959      0.013034914    3.6082416      741.28039     -21.158486      720.1219     
    554000   295.53732      0.013034914    5.5731666      733.23625     -22.290773      710.94548    
    555000   302.5618       0.013034914    11.52203       750.66416     -19.064362      731.5998     
    556000   307.01522      0.013034914    8.6662771      761.71323     -21.436417      740.27682    
    557000   284.34295      0.013034914    0.69972784     705.4627      -18.43209       687.03061    
    558000   295.89418      0.013034914    7.086501       734.12161     -23.584828      710.53678    
    559000   298.89875      0.013034914    15.860838      741.57604     -26.11615       715.45989    
    560000   295.55514      0.013034914    10.570613      733.28045     -27.974662      705.30579    
    561000   308.32695      0.013034914    1.6581067      764.96767     -31.834699      733.13297    
    562000   305.17848      0.013034914   -2.2102518      757.15623     -23.855274      733.30095    
    563000   296.64442      0.013034914    6.8687335      735.98299     -25.349139      710.63385    
    564000   302.29504      0.013034914    15.302437      750.00233     -24.52472       725.47761    
    565000   301.92515      0.013034914    8.0720197      749.08463     -21.606116      727.47852    
    566000   311.55005      0.013034914    8.1212651      772.96427     -22.78539       750.17888    
    567000   310.41975      0.013034914    2.8125251      770.15995     -24.047373      746.11258    
    568000   297.23417      0.013034914   -8.5471436      737.44618     -24.113822      713.33236    
    569000   297.70013      0.013034914    6.2700497      738.60222     -25.140887      713.46133    
    570000   311.34252      0.013034914    26.945721      772.44937     -23.71997       748.7294     
    571000   302.18011      0.013034914    3.185342       749.71719     -24.724339      724.99285    
    572000   290.43885      0.013034914   -6.2731678      720.5868      -23.698865      696.88793    
    573000   294.20724      0.013034914    11.98311       729.93628     -25.214029      704.72225    
    574000   324.89267      0.013034914    2.3902841      806.06766     -27.37794       778.68972    
    575000   300.54445      0.013034914    3.6093829      745.65906     -24.209948      721.44911    
    576000   296.42493      0.013034914    19.233266      735.43843     -24.88117       710.55726    
    577000   306.46612      0.013034914    4.380287       760.35089     -24.359449      735.99144    
    578000   314.6816       0.013034914    0.0044697432   780.73373     -24.061349      756.67238    
    579000   291.5771       0.013034914    4.8478645      723.41082     -24.676913      698.7339     
    580000   294.21267      0.013034914    6.220425       729.94974     -23.6901        706.25964    
    581000   313.30698      0.013034914    14.834806      777.32324     -23.718229      753.60501    
    582000   293.35822      0.013034914    6.8562908      727.82983     -24.059097      703.77073    
    583000   300.77642      0.013034914    9.1707473      746.23458     -26.699328      719.53525    
    584000   282.53834      0.013034914    6.2308913      700.9854      -25.050793      675.9346     
    585000   303.66509      0.013034914    5.4353922      753.40147     -25.596597      727.80487    
    586000   300.00032      0.013034914    7.8048496      744.30905     -24.613775      719.69528    
    587000   284.31855      0.013034914    9.6734435      705.40215     -21.501955      683.90019    
    588000   288.39747      0.013034914    5.2893152      715.52208     -19.493246      696.02883    
    589000   312.88303      0.013034914    5.9274956      776.27142     -19.470203      756.80122    
    590000   305.36733      0.013034914    9.6357494      757.62478     -23.61641       734.00837    
    591000   285.0179       0.013034914    6.4754754      707.13728     -25.662197      681.47508    
    592000   308.28863      0.013034914    7.1917799      764.87259     -22.714627      742.15796    
    593000   308.33728      0.013034914    7.2981546      764.99329     -18.849836      746.14345    
    594000   287.03983      0.013034914    8.2306582      712.15372     -17.907947      694.24578    
    595000   294.78886      0.013034914    6.3643005      731.37929     -20.546251      710.83304    
    596000   311.16625      0.013034914    7.4293741      772.01205     -19.55406       752.45799    
    597000   293.03711      0.013034914    6.8789535      727.03315     -18.5028        708.53035    
    598000   291.44915      0.013034914    7.6535991      723.09337     -19.58862       703.50475    
    599000   316.79546      0.013034914    9.3200828      785.97828     -19.820008      766.15827    
    600000   307.94965      0.013034914    5.1954822      764.03157     -19.056438      744.97513    
    601000   283.99158      0.013034914    6.2205751      704.59093     -13.92208       690.66885    
    602000   287.95822      0.013034914    9.7839036      714.43229     -16.495164      697.93713    
    603000   292.85712      0.013034914    8.7001015      726.58659     -21.236973      705.34962    
    604000   319.33719      0.013034914    8.2045035      792.28437     -21.432119      770.85225    
    605000   299.42233      0.013034914    5.843342       742.87506     -20.967942      721.90712    
    606000   288.93216      0.013034914    3.7490656      716.84865     -20.379344      696.46931    
    607000   289.33519      0.013034914    7.2798229      717.84859     -23.373529      694.47506    
    608000   323.0363       0.013034914    8.3571082      801.46195     -23.710238      777.75171    
    609000   305.37542      0.013034914    6.7131051      757.64483     -24.822374      732.82245    
    610000   285.21227      0.013034914    7.0133351      707.61951     -26.938488      680.68102    
    611000   299.87674      0.013034914    8.5002795      744.00247     -27.888732      716.11373    
    612000   313.78016      0.013034914    7.3643254      778.49722     -25.496233      753.00099    
    613000   307.1279       0.013034914    7.7091765      761.99278     -21.368982      740.6238     
    614000   293.71868      0.013034914    8.1918797      728.72413     -23.012764      705.71137    
    615000   295.18648      0.013034914    7.007276       732.3658      -23.84368       708.52212    
    616000   294.17903      0.013034914    3.1233854      729.86628     -22.669189      707.19709    
    617000   308.05246      0.013034914    6.3105143      764.28664     -23.203529      741.08311    
    618000   295.1693       0.013034914    7.4441102      732.32317     -25.431205      706.89196    
    619000   297.99609      0.013034914    7.9663403      739.33652     -22.945727      716.39079    
    620000   309.19206      0.013034914    5.0973394      767.11402     -21.801675      745.31235    
    621000   303.29813      0.013034914    5.8683741      752.49101     -21.85187       730.63914    
    622000   302.84237      0.013034914    8.1751491      751.36028     -22.10733       729.25295    
    623000   300.92459      0.013034914    7.3011422      746.60219     -26.181382      720.42081    
    624000   296.55862      0.013034914    4.4056316      735.77011     -27.496431      708.27368    
    625000   302.43479      0.013034914    3.2447647      750.34905     -27.545794      722.80326    
    626000   310.05384      0.013034914    11.746429      769.25211     -26.596339      742.65578    
    627000   297.51097      0.013034914    10.292943      738.13291     -29.308335      708.82457    
    628000   273.44401      0.013034914    4.9597543      678.42211     -29.07363       649.34848    
    629000   301.14475      0.013034914    3.1989802      747.14841     -26.639794      720.50862    
    630000   316.89794      0.013034914    6.4515301      786.23253     -25.961156      760.27138    
    631000   301.13739      0.013034914    9.4444916      747.13016     -22.300312      724.82985    
    632000   282.3888       0.013034914    5.5427447      700.6144      -20.616964      679.99744    
    633000   304.81867      0.013034914    5.2177748      756.26353     -19.682773      736.58075    
    634000   308.19701      0.013034914    10.008743      764.64528     -21.439774      743.2055     
    635000   300.34313      0.013034914    7.7955078      745.15958     -22.721874      722.43771    
    636000   289.93554      0.013034914    6.1622372      719.33807     -26.918075      692.42       
    637000   305.76869      0.013034914    6.8048214      758.62056     -30.312867      728.30769    
    638000   298.17144      0.013034914    9.1557295      739.77157     -28.936608      710.83496    
    639000   294.11906      0.013034914    5.4288933      729.71749     -31.277392      698.4401     
    640000   307.56944      0.013034914    3.49914        763.08827     -24.900816      738.18745    
    641000   308.29235      0.013034914    10.484254      764.88183     -23.206073      741.67576    
    642000   309.54029      0.013034914    10.667926      767.97799     -24.601525      743.37647    
    643000   292.36772      0.013034914    2.0845049      725.37238     -23.282083      702.0903     
    644000   302.48454      0.013034914    6.4645369      750.47247     -26.993433      723.47904    
    645000   295.56221      0.013034914    7.0351045      733.29798     -23.786003      709.51198    
    646000   316.58734      0.013034914    12.156874      785.46191     -26.771533      758.69038    
    647000   300.56439      0.013034914    10.390822      745.70853     -28.370535      717.338      
    648000   291.11584      0.013034914    6.7009292      722.26643     -27.115208      695.15122    
    649000   294.97553      0.013034914    5.2426021      731.84242     -26.541286      705.30114    
    650000   307.88489      0.013034914    11.507515      763.8709      -24.63703       739.23387    
    651000   301.55377      0.013034914    11.174764      748.16321     -26.305494      721.85772    
    652000   281.28554      0.013034914    4.8959702      697.87719     -23.077275      674.79991    
    653000   310.62077      0.013034914    6.6650568      770.6587      -22.97705       747.68165    
    654000   308.88204      0.013034914    9.6300391      766.34485     -22.746082      743.59877    
    655000   292.82574      0.013034914    7.0761641      726.50873     -25.956049      700.55268    
    656000   282.9343       0.013034914    5.2305787      701.9678      -25.944384      676.02341    
    657000   304.99256      0.013034914    6.740258       756.69495     -24.451083      732.24387    
    658000   308.94306      0.013034914    6.417177       766.49625     -19.791544      746.7047     
    659000   301.05473      0.013034914    6.6055337      746.92508     -19.618311      727.30677    
    660000   306.33955      0.013034914    6.6069044      760.03687     -21.320972      738.7159     
    661000   289.17375      0.013034914    8.6124987      717.44804     -22.411311      695.03673    
    662000   295.1516       0.013034914    7.1645302      732.27924     -21.005004      711.27424    
    663000   302.26493      0.013034914    5.3314499      749.92763     -26.456385      723.47125    
    664000   299.84745      0.013034914    4.3042473      743.92979     -25.942837      717.98695    
    665000   297.08182      0.013034914    10.07193       737.06819     -25.079952      711.98823    
    666000   301.08935      0.013034914    8.4477157      747.01099     -25.304343      721.70665    
    667000   283.09093      0.013034914    5.5175587      702.35639     -25.098472      677.25792    
    668000   306.05028      0.013034914    8.6248667      759.31917     -26.522244      732.79693    
    669000   304.70256      0.013034914    7.9542052      755.97546     -31.74464       724.23082    
    670000   288.54163      0.013034914    5.1687277      715.87975     -30.340491      685.53926    
    671000   308.27736      0.013034914    3.0883287      764.84464     -30.154376      734.69026    
    672000   296.64681      0.013034914    9.1482928      735.9889      -29.278549      706.71036    
    673000   302.92269      0.013034914    7.3605841      751.55954     -27.854775      723.70476    
    674000   316.11391      0.013034914    6.9049403      784.28734     -30.598511      753.68882    
    675000   304.96293      0.013034914    9.189632       756.62145     -32.816273      723.80518    
    676000   292.35558      0.013034914    7.8075957      725.34225     -29.598646      695.7436     
    677000   301.69892      0.013034914    5.8932615      748.52333     -31.348583      717.17475    
    678000   324.18872      0.013034914    7.1124002      804.32114     -32.225571      772.09557    
    679000   305.70504      0.013034914    7.2543807      758.46263     -28.704366      729.75826    
    680000   291.17076      0.013034914    8.8239209      722.40267     -28.011449      694.39123    
    681000   304.78248      0.013034914    6.114607       756.17373     -22.425557      733.74817    
    682000   309.62108      0.013034914    5.5705809      768.17844     -30.101721      738.07672    
    683000   303.25369      0.013034914    7.331118       752.38076     -30.115763      722.26499    
    684000   292.85442      0.013034914    8.482763       726.57989     -29.809013      696.77088    
    685000   300.6103       0.013034914    7.002532       745.82243     -28.06599       717.75644    
    686000   303.53005      0.013034914    9.2913196      753.06641     -30.569474      722.49694    
    687000   302.16667      0.013034914    5.6144888      749.68384     -35.41762       714.26622    
    688000   286.9701       0.013034914    6.4956348      711.98072     -33.289931      678.69079    
    689000   301.98486      0.013034914    7.0276569      749.23277     -32.850612      716.38215    
    690000   309.62455      0.013034914    7.9352135      768.18704     -32.543225      735.64382    
    691000   295.36412      0.013034914    6.955422       732.80651     -35.07443       697.73208    
    692000   294.88526      0.013034914    6.8471392      731.61846     -32.056132      699.56232    
    693000   293.64808      0.013034914    6.3331773      728.54897     -28.626109      699.92286    
    694000   306.43749      0.013034914    5.6662841      760.27985     -29.00359       731.27626    
    695000   295.91423      0.013034914    8.7418939      734.17137     -24.910748      709.26062    
    696000   302.17789      0.013034914    7.6224168      749.71166     -25.957659      723.75401    
    697000   297.9633       0.013034914    6.9617263      739.25517     -26.380789      712.87438    
    698000   303.45844      0.013034914    7.4713181      752.88876     -24.371614      728.51715    
    699000   300.11243      0.013034914    7.034726       744.58722     -23.17344       721.41378    
    700000   294.1319       0.013034914    6.6836153      729.74936     -25.208889      704.54047    
    701000   297.54747      0.013034914    6.9776838      738.22347     -26.425474      711.798      
    702000   297.22993      0.013034914    7.0309909      737.43566     -26.342889      711.09277    
    703000   314.78837      0.013034914    7.7486699      780.99863     -24.384401      756.61422    
    704000   302.95243      0.013034914    8.8872554      751.63332     -20.145334      731.48799    
    705000   291.76418      0.013034914    7.0272577      723.87497     -19.441203      704.43376    
    706000   297.40772      0.013034914    6.0264071      737.87675     -18.060929      719.81583    
    707000   314.77739      0.013034914    5.389179       780.97138     -20.549351      760.42203    
    708000   303.38553      0.013034914    6.8156676      752.70786     -21.470505      731.23736    
    709000   293.47406      0.013034914    7.8853235      728.11724     -22.657647      705.4596     
    710000   302.87617      0.013034914    8.3932356      751.44413     -22.313677      729.13045    
    711000   301.19327      0.013034914    3.8491838      747.26881     -19.222889      728.04592    
    712000   307.43098      0.013034914    4.046329       762.74474     -18.684153      744.06059    
    713000   301.86156      0.013034914    10.723899      748.92685     -17.439683      731.48716    
    714000   295.02998      0.013034914    8.4459822      731.9775      -22.604185      709.37332    
    715000   303.11558      0.013034914    0.51173552     752.03812     -25.800867      726.23725    
    716000   315.33378      0.013034914    5.7159686      782.35179     -24.133766      758.21803    
    717000   298.44955      0.013034914    9.0842012      740.46156     -23.19045       717.27111    
    718000   299.07693      0.013034914    7.4438674      742.01812     -26.441909      715.57621    
    719000   303.64921      0.013034914    3.667998       753.36205     -25.520046      727.84201    
    720000   305.49787      0.013034914    8.9034732      757.94863     -23.094623      734.854      
    721000   309.97893      0.013034914    15.041459      769.06626     -19.550014      749.51625    
    722000   296.77286      0.013034914    6.7218312      736.30165     -23.991153      712.3105     
    723000   287.02742      0.013034914    2.0271609      712.12294     -24.69285       687.43009    
    724000   305.58607      0.013034914    7.1192986      758.16745     -22.819498      735.34795    
    725000   304.26341      0.013034914    10.009592      754.88591     -23.516455      731.36946    
    726000   295.62525      0.013034914    7.0171578      733.45438     -24.226541      709.22784    
    727000   296.26346      0.013034914    6.5673484      735.0378      -20.970442      714.06736    
    728000   303.56479      0.013034914    5.461472       753.15262     -21.453671      731.69895    
    729000   296.21832      0.013034914    5.382286       734.92582     -17.88033       717.04549    
    730000   295.76201      0.013034914    8.1980267      733.7937      -19.005716      714.78798    
    731000   297.66869      0.013034914    7.4437869      738.52424     -18.0598        720.46444    
    732000   303.89033      0.013034914    6.0678367      753.9603      -16.458757      737.50154    
    733000   302.79237      0.013034914    5.1618167      751.23622     -18.776157      732.46006    
    734000   298.20321      0.013034914    12.91216       739.85039     -19.533904      720.31649    
    735000   296.2809       0.013034914    7.1826356      735.08109     -21.460176      713.62091    
    736000   309.08901      0.013034914    2.3943854      766.85835     -21.473358      745.38499    
    737000   300.36286      0.013034914    8.1180959      745.20854     -19.830772      725.37777    
    738000   296.30266      0.013034914    9.885975       735.13506     -19.593256      715.54181    
    739000   299.02718      0.013034914    0.3090147      741.89469     -23.986727      717.90796    
    740000   288.46644      0.013034914    8.8775159      715.69319     -22.463778      693.22941    
    741000   313.91506      0.013034914    8.7510526      778.83191     -21.114969      757.71694    
    742000   306.46158      0.013034914    4.3542691      760.33964     -22.705649      737.63399    
    743000   291.66031      0.013034914    6.7562673      723.61728     -24.751507      698.86577    
    744000   299.74064      0.013034914    8.3340724      743.66478     -24.20161       719.46317    
    745000   302.02455      0.013034914    7.7046459      749.33124     -21.312685      728.01856    
    746000   310.2683       0.013034914    5.1195502      769.78421     -20.775022      749.00918    
    747000   304.73493      0.013034914    6.3540838      756.05576     -22.698068      733.35769    
    748000   280.65259      0.013034914    7.6085364      696.30682     -18.406701      677.90012    
    749000   306.06915      0.013034914    9.009027       759.366       -21.791544      737.57446    
    750000   301.13134      0.013034914    6.0704009      747.11516     -24.533961      722.5812     
    751000   280.99206      0.013034914    5.2596025      697.14904     -19.259718      677.88932    
    752000   287.68427      0.013034914   -1.2365556      713.7526      -21.138885      692.61371    
    753000   306.63934      0.013034914    11.2757        760.78066     -24.154776      736.62588    
    754000   308.7661       0.013034914    6.0413045      766.05722     -20.912362      745.14485    
    755000   296.75578      0.013034914    0.26034614     736.25926     -20.817695      715.44157    
    756000   281.15721      0.013034914    8.3652756      697.5588      -18.921463      678.63733    
    757000   310.54435      0.013034914    9.1202169      770.4691      -17.852194      752.61691    
    758000   303.98551      0.013034914    6.0042515      754.19642     -20.584279      733.61214    
    759000   299.56555      0.013034914    5.3020119      743.2304      -20.926793      722.3036     
    760000   298.5387       0.013034914    6.6208914      740.68275     -21.825021      718.85773    
    761000   322.14169      0.013034914    10.612456      799.24242     -23.777514      775.46491    
    762000   310.70735      0.013034914    7.4977605      770.87351     -22.530529      748.34298    
    763000   292.98879      0.013034914    5.5591829      726.91327     -22.807599      704.10567    
    764000   297.02744      0.013034914    9.0483752      736.93326     -22.298481      714.63478    
    765000   305.35284      0.013034914    8.9478315      757.58881     -20.02322       737.56559    
    766000   304.2945       0.013034914    1.8517456      754.96305     -20.356667      734.60638    
    767000   295.97612      0.013034914   -4.7101541      734.32492     -22.293912      712.03101    
    768000   293.93779      0.013034914    6.9887966      729.26776     -18.582455      710.68531    
    769000   307.24893      0.013034914    13.043193      762.29306     -20.985246      741.30781    
    770000   312.26697      0.013034914    5.1253544      774.74296     -18.507263      756.23569    
    771000   280.39482      0.013034914    3.0913641      695.66727     -22.034685      673.63259    
    772000   296.27006      0.013034914    9.2636166      735.05419     -19.373459      715.68073    
    773000   300.86491      0.013034914    4.4624742      746.45413     -22.491845      723.96228    
    774000   292.13488      0.013034914    2.0618558      724.79469     -20.544407      704.25028    
    775000   297.13102      0.013034914    3.9788003      737.19025     -28.50308       708.68717    
    776000   294.01085      0.013034914    7.1612025      729.44902     -24.396062      705.05295    
    777000   313.64442      0.013034914    5.8624991      778.16045     -21.452929      756.70752    
    778000   303.82132      0.013034914    6.3885223      753.78908     -22.051755      731.73732    
    779000   300.02715      0.013034914    7.1473386      744.37563     -21.178652      723.19698    
    780000   292.78381      0.013034914    6.9129712      726.40471     -17.962017      708.4427     
    781000   298.77927      0.013034914    5.3555678      741.27961     -18.691588      722.58802    
    782000   312.79604      0.013034914    5.5036879      776.05559     -16.442849      759.61275    
    783000   296.94375      0.013034914    8.4540308      736.72563     -23.142434      713.58319    
    784000   293.50581      0.013034914    7.1806149      728.19601     -21.587974      706.60803    
    785000   301.08138      0.013034914    4.4596399      746.99119     -20.9906        726.00059    
    786000   325.2425       0.013034914    10.559467      806.9356      -23.250958      783.68465    
    787000   296.38381      0.013034914    7.5147058      735.3364      -21.591861      713.74454    
    788000   292.54537      0.013034914    6.5427276      725.81313     -20.344299      705.46883    
    789000   303.51476      0.013034914    7.3190771      753.02848     -19.492704      733.53578    
    790000   306.32374      0.013034914    7.2276934      759.99764     -19.195897      740.80174    
    791000   301.20198      0.013034914    7.0702956      747.29042     -19.830495      727.45993    
    792000   308.61744      0.013034914    7.1913955      765.68838     -21.6312        744.05718    
    793000   294.22186      0.013034914    5.0076114      729.97254     -19.593014      710.37952    
    794000   300.70519      0.013034914    7.6522592      746.05786     -22.007165      724.05069    
    795000   294.98254      0.013034914    8.1865156      731.85981     -22.134805      709.725      
    796000   295.84125      0.013034914    6.9286674      733.99029     -27.523486      706.46681    
    797000   288.25368      0.013034914    7.1701743      715.16533     -18.876387      696.28894    
    798000   282.94265      0.013034914    5.8142087      701.98852     -24.210528      677.77799    
    799000   300.03583      0.013034914    8.7971746      744.39716     -19.808997      724.58816    
    800000   320.0161       0.013034914    6.8671456      793.96877     -19.279883      774.68889    
    801000   289.53379      0.013034914    5.3691427      718.34131     -19.640576      698.70073    
    802000   302.05473      0.013034914    14.709615      749.40612     -20.490248      728.91587    
    803000   315.39276      0.013034914    11.232669      782.49812     -24.176965      758.32116    
    804000   302.85667      0.013034914    5.4115411      751.39575     -24.314773      727.08098    
    805000   283.0019       0.013034914    6.6745666      702.13551     -24.711395      677.42411    
    806000   300.23425      0.013034914    6.6842014      744.88946     -24.332308      720.55715    
    807000   315.74555      0.013034914    7.6154884      783.37342     -22.769743      760.60368    
    808000   290.74187      0.013034914    5.7508846      721.3386      -19.853152      701.48545    
    809000   291.01749      0.013034914    8.8804135      722.02242     -22.726492      699.29593    
    810000   312.47286      0.013034914    7.4975824      775.25378     -21.821701      753.43208    
    811000   290.96824      0.013034914    2.0497752      721.90021     -19.891563      702.00865    
    812000   290.54847      0.013034914    6.7841868      720.85876     -21.721483      699.13728    
    813000   320.76179      0.013034914    7.4282289      795.81883     -20.371539      775.44729    
    814000   308.18741      0.013034914    5.9531191      764.62146     -20.776989      743.84447    
    815000   293.46043      0.013034914    7.4195608      728.08343     -24.581936      703.50149    
    816000   305.91338      0.013034914    7.470012       758.97952     -25.353988      733.62553    
    817000   304.30186      0.013034914    5.0603055      754.9813      -24.612378      730.36892    
    818000   304.84006      0.013034914    7.8975746      756.31658     -23.644747      732.67183    
    819000   301.87872      0.013034914    6.7464917      748.96942     -25.824982      723.14444    
    820000   299.43914      0.013034914    6.0232258      742.91676     -23.001055      719.9157     
    821000   304.51468      0.013034914    7.0732664      755.50932     -20.626537      734.88278    
    822000   306.51635      0.013034914    6.8059161      760.47551     -20.271426      740.20408    
    823000   291.47806      0.013034914    7.1523954      723.1651      -20.331392      702.83371    
    824000   288.07729      0.013034914    6.6995396      714.72769     -25.448455      689.27923    
    825000   300.8367       0.013034914    8.4786992      746.38415     -27.005489      719.37866    
    826000   304.61116      0.013034914    7.6641318      755.74869     -23.633076      732.11561    
    827000   302.47797      0.013034914    7.2336803      750.45618     -26.041         724.41518    
    828000   295.22287      0.013034914    6.8530218      732.45609     -24.748487      707.7076     
    829000   309.50946      0.013034914    3.6467135      767.9015      -27.25106       740.65044    
    830000   295.60398      0.013034914    9.8280482      733.40163     -27.279294      706.12233    
    831000   293.44355      0.013034914    8.578582       728.04154     -21.067701      706.97384    
    832000   297.54823      0.013034914    8.4568016      738.22537     -22.540216      715.68516    
    833000   291.62991      0.013034914    4.3259543      723.54185     -20.837515      702.70433    
    834000   315.97953      0.013034914    7.0833498      783.95392     -17.393904      766.56002    
    835000   301.56587      0.013034914    10.139593      748.19323     -18.449354      729.74388    
    836000   285.53462      0.013034914    6.6344519      708.41925     -19.326621      689.09263    
    837000   308.01009      0.013034914    5.9281109      764.18153     -16.691445      747.49009    
    838000   305.26597      0.013034914    6.550346       757.37328     -21.284617      736.08866    
    839000   284.84806      0.013034914    16.380408      706.71588     -19.042316      687.67357    
    840000   298.95324      0.013034914    6.1756979      741.71122     -20.98668       720.72454    
    841000   302.75755      0.013034914    6.7534244      751.14982     -21.817507      729.33231    
    842000   306.44441      0.013034914    9.0479399      760.29702     -20.294951      740.00207    
    843000   292.80253      0.013034914    8.5531821      726.45115     -18.086571      708.36458    
    844000   298.78576      0.013034914    5.3720358      741.29572     -18.848017      722.4477     
    845000   298.92037      0.013034914    6.9243814      741.62968     -13.819202      727.81048    
    846000   298.52095      0.013034914    8.8745585      740.6387      -15.569965      725.06873    
    847000   304.04793      0.013034914    6.8762599      754.35129     -14.593762      739.75753    
    848000   307.16223      0.013034914    7.9658334      762.07796     -17.093402      744.98456    
    849000   296.34882      0.013034914    8.0345971      735.24959     -16.159401      719.09018    
    850000   297.15003      0.013034914    6.3802371      737.23741     -19.317255      717.92016    
    851000   304.64874      0.013034914    7.4785695      755.84191     -19.353011      736.4889     
    852000   304.87239      0.013034914    7.431695       756.39679     -18.721514      737.67528    
    853000   315.34641      0.013034914    8.0156407      782.38313     -21.038801      761.34433    
    854000   296.58906      0.013034914    6.8300478      735.84564     -23.72548       712.12016    
    855000   286.82158      0.013034914    5.8090541      711.61225     -23.008405      688.60385    
    856000   298.12499      0.013034914    6.2653886      739.65631     -20.322787      719.33352    
    857000   303.89855      0.013034914    9.0039353      753.98068     -19.543667      734.43701    
    858000   309.68144      0.013034914    7.0270276      768.32819     -16.951551      751.37664    
    859000   295.7601       0.013034914    7.9754132      733.78896     -16.760491      717.02847    
    860000   297.26552      0.013034914    6.9607905      737.52394     -18.413839      719.1101     
    861000   309.77943      0.013034914    6.8749852      768.5713      -20.195968      748.37533    
    862000   304.91461      0.013034914    7.9106713      756.50155     -16.99646       739.50509    
    863000   305.90349      0.013034914    7.629764       758.95499     -15.529867      743.42513    
    864000   294.40488      0.013034914    6.3112731      730.42662     -20.254121      710.1725     
    865000   286.02407      0.013034914    7.1197162      709.63359     -22.439066      687.19452    
    866000   295.96196      0.013034914    6.2494925      734.28979     -22.813411      711.47638    
    867000   293.14484      0.013034914    8.187685       727.30042     -21.195474      706.10495    
    868000   293.80109      0.013034914    7.2466331      728.9286      -22.158218      706.77038    
    869000   298.63421      0.013034914    6.1349294      740.91971     -19.932983      720.98673    
    870000   310.53878      0.013034914    7.1895382      770.45528     -26.714606      743.74068    
    871000   300.11139      0.013034914    7.8714486      744.58462     -23.414363      721.17026    
    872000   286.07694      0.013034914    6.7723035      709.76477     -26.073918      683.69085    
    873000   296.23293      0.013034914    4.5802663      734.96206     -27.657088      707.30497    
    874000   311.22013      0.013034914    6.2166369      772.14573     -22.826859      749.31887    
    875000   306.8568       0.013034914    7.9249507      761.32019     -19.857475      741.46272    
    876000   293.60591      0.013034914    7.5406647      728.44435     -22.754469      705.68988    
    877000   309.63241      0.013034914    4.5204976      768.20654     -25.388936      742.8176     
    878000   315.06794      0.013034914    6.9963071      781.69224     -18.881005      762.81124    
    879000   290.23421      0.013034914    7.9312785      720.07907     -21.223714      698.85535    
    880000   290.78739      0.013034914    5.8677446      721.45152     -20.992357      700.45916    
    881000   304.49114      0.013034914    7.250096       755.45092     -21.786749      733.66417    
    882000   310.8738       0.013034914    7.5927136      771.28646     -23.815027      747.47143    
    883000   297.01157      0.013034914    6.772652       736.89388     -22.120054      714.77383    
    884000   289.82632      0.013034914    6.5831247      719.06709     -24.557381      694.50971    
    885000   295.90788      0.013034914    8.1203808      734.1556      -26.175174      707.98043    
    886000   308.75471      0.013034914    7.382204       766.02895     -22.85033       743.17862    
    887000   301.44248      0.013034914    5.5224243      747.88711     -19.148513      728.7386     
    888000   287.61554      0.013034914    5.8721643      713.58208     -20.147698      693.43438    
    889000   300.42078      0.013034914    7.7724604      745.35223     -19.284496      726.06773    
    890000   307.28893      0.013034914    7.7099059      762.3923      -18.950866      743.44144    
    891000   295.84321      0.013034914    7.2438364      733.99517     -21.579916      712.41525    
    892000   301.32732      0.013034914    5.7365628      747.60139     -24.485242      723.11615    
    893000   294.8897       0.013034914    6.3967242      731.62946     -23.887355      707.74211    
    894000   306.08417      0.013034914    8.7599544      759.40327     -24.076955      735.32632    
    895000   301.96         0.013034914    7.5771513      749.17108     -24.176787      724.9943     
    896000   285.577        0.013034914    4.8608469      708.52441     -25.675391      682.84902    
    897000   304.9799       0.013034914    2.2583248      756.66354     -30.725055      725.93849    
    898000   304.8127       0.013034914    7.9912537      756.24871     -27.314624      728.93409    
    899000   291.76318      0.013034914    7.6814396      723.87248     -23.558015      700.31447    
    900000   300.44683      0.013034914    4.6559055      745.41688     -23.643115      721.77376    
    901000   308.56234      0.013034914    5.6457073      765.55167     -20.612432      744.93924    
    902000   303.561        0.013034914    7.7798667      753.1432      -19.999614      733.14358    
    903000   286.86365      0.013034914    7.5993213      711.71661     -15.968985      695.74763    
    904000   287.29441      0.013034914    6.1077318      712.78535     -16.370109      696.41524    
    905000   296.80576      0.013034914    4.4177104      736.38328     -16.161435      720.22184    
    906000   303.9598       0.013034914    7.4191731      754.13265     -18.104137      736.02852    
    907000   307.80786      0.013034914    7.2502097      763.67979     -20.854832      742.82496    
    908000   290.73989      0.013034914    7.3660512      721.33367     -20.0878        701.24587    
    909000   293.77714      0.013034914    6.3102237      728.86919     -17.802191      711.06699    
    910000   315.8168       0.013034914    7.2196382      783.55018     -16.802653      766.74752    
    911000   301.78933      0.013034914    7.2369834      748.74764     -16.089824      732.65782    
    912000   292.8064       0.013034914    8.2085484      726.46076     -14.636816      711.82395    
    913000   297.77228      0.013034914    7.2616553      738.78125     -16.270351      722.5109     
    914000   304.58719      0.013034914    5.1504669      755.68922     -19.301087      736.38813    
    915000   308.92162      0.013034914    7.5391929      766.44305     -21.055133      745.38792    
    916000   294.45673      0.013034914    6.8333569      730.55527     -19.172781      711.38249    
    917000   291.91694      0.013034914    5.0566134      724.25397     -18.879853      705.37411    
    918000   305.58468      0.013034914    6.3432462      758.16401     -16.87031       741.2937     
    919000   311.79799      0.013034914    7.9123516      773.57941     -19.006144      754.57326    
    920000   282.58929      0.013034914    8.00141        701.11181     -21.958977      679.15283    
    921000   289.16826      0.013034914    7.3713565      717.43442     -18.100848      699.33357    
    922000   302.16247      0.013034914    6.8063435      749.67341     -22.302551      727.37086    
    923000   316.52001      0.013034914    7.7833078      785.29487     -21.797237      763.49763    
    924000   283.58338      0.013034914    7.4251827      703.57818     -22.380855      681.19732    
    925000   296.12185      0.013034914    7.4212964      734.68647     -21.114023      713.57245    
    926000   307.62716      0.013034914    4.3121593      763.23147     -23.923022      739.30845    
    927000   307.99125      0.013034914    7.6082662      764.13478     -19.710444      744.42433    
    928000   294.49414      0.013034914    10.624493      730.64808     -21.712574      708.93551    
    929000   295.65391      0.013034914    6.5899046      733.52551     -20.079289      713.44622    
    930000   304.65149      0.013034914    1.6559207      755.84875     -20.913099      734.93565    
    931000   316.43468      0.013034914    14.373184      785.08317     -18.115081      766.96809    
    932000   290.31023      0.013034914    8.3992002      720.26767     -18.852138      701.41553    
    933000   301.09823      0.013034914    3.2794574      747.03302     -17.793084      729.23993    
    934000   313.52434      0.013034914    7.4934562      777.86254     -17.070506      760.79203    
    935000   295.65632      0.013034914    11.055259      733.53148     -20.938954      712.59253    
    936000   306.41269      0.013034914    2.8333307      760.21833     -25.194759      735.02357    
    937000   293.69048      0.013034914    7.7569118      728.65417     -26.048653      702.60551    
    938000   292.30013      0.013034914    7.7500063      725.20468     -26.611574      698.5931     
    939000   289.35775      0.013034914    5.2909853      717.90456     -23.616219      694.28834    
    940000   316.99853      0.013034914    7.023948       786.48208     -19.552214      766.92986    
    941000   286.67059      0.013034914    8.0812559      711.23763     -16.596474      694.64115    
    942000   288.15704      0.013034914    6.2325866      714.92556     -19.847556      695.078      
    943000   308.30993      0.013034914    7.8369345      764.92544     -19.901372      745.02406    
    944000   294.59609      0.013034914    7.5471514      730.90103     -21.985737      708.91529    
    945000   299.60474      0.013034914    7.7120021      743.32761     -22.240742      721.08687    
    946000   300.22698      0.013034914    7.2323326      744.87142     -23.72622       721.1452     
    947000   292.83305      0.013034914    6.8128169      726.52687     -24.287436      702.23943    
    948000   301.51704      0.013034914    6.5331978      748.0721      -20.841719      727.23038    
    949000   303.80948      0.013034914    7.078729       753.7597      -29.755761      724.00394    
    950000   286.17161      0.013034914    7.4552939      709.99964     -30.341597      679.65805    
    951000   303.62412      0.013034914    8.684279       753.29981     -31.878116      721.4217     
    952000   306.97353      0.013034914    7.5361939      761.60979     -28.879526      732.73026    
    953000   286.06395      0.013034914    8.7645948      709.73255     -31.79106       677.94149    
    954000   289.51574      0.013034914    7.6637163      718.29654     -27.817467      690.47907    
    955000   307.93202      0.013034914    5.2210245      763.98782     -28.06345       735.92437    
    956000   306.84628      0.013034914    8.1059475      761.29407     -31.444091      729.84998    
    957000   282.47366      0.013034914    5.44806        700.82494     -26.655248      674.16969    
    958000   283.80889      0.013034914    10.34564       704.13768     -24.810607      679.32708    
    959000   312.21471      0.013034914    3.6054925      774.61331     -24.826416      749.78689    
    960000   304.27934      0.013034914    9.4327248      754.92542     -21.314026      733.6114     
    961000   295.78591      0.013034914    7.9380477      733.853       -20.424793      713.42821    
    962000   302.36746      0.013034914    4.3911325      750.18199     -23.84502       726.33697    
    963000   306.71797      0.013034914    6.416735       760.97574     -26.083306      734.89244    
    964000   300.00473      0.013034914    10.15416       744.32        -26.888237      717.43176    
    965000   304.25069      0.013034914    7.3562773      754.85434     -24.904914      729.94943    
    966000   303.1451       0.013034914    9.840338       752.11134     -26.278978      725.83236    
    967000   301.65268      0.013034914    5.546584       748.40861     -21.394171      727.01444    
    968000   303.76886      0.013034914    7.8866963      753.65891     -23.041878      730.61703    
    969000   296.12536      0.013034914    6.5447119      734.69518     -24.770923      709.92426    
    970000   292.45514      0.013034914    7.0566894      725.58925     -23.380012      702.20924    
    971000   305.02156      0.013034914    6.9242257      756.7669      -24.57349       732.19341    
    972000   316.06122      0.013034914    7.7774589      784.15659     -18.157056      765.99953    
    973000   303.36137      0.013034914    1.8057404      752.64791     -22.834719      729.81319    
    974000   295.82395      0.013034914    5.0334349      733.94738     -21.108228      712.83915    
    975000   292.79871      0.013034914    5.0310149      726.44166     -24.832238      701.60942    
    976000   301.81341      0.013034914    7.6528392      748.80739     -24.187372      724.62002    
    977000   301.79237      0.013034914    9.9828922      748.75518     -23.141787      725.61339    
    978000   314.19033      0.013034914    5.0825035      779.51486     -25.485749      754.02911    
    979000   296.77099      0.013034914    5.500767       736.29701     -23.446392      712.85062    
    980000   291.70989      0.013034914    7.1638002      723.74028     -21.104292      702.63599    
    981000   301.66506      0.013034914    7.4591035      748.43932     -19.254609      729.18471    
    982000   314.1827       0.013034914    7.3663762      779.49594     -24.544082      754.95186    
    983000   296.54279      0.013034914    6.4154808      735.73084     -17.040587      718.69026    
    984000   297.66121      0.013034914    8.7926098      738.50566     -14.852742      723.65292    
    985000   317.08377      0.013034914    7.2916471      786.69356     -21.129506      765.56406    
    986000   296.99248      0.013034914    7.2584163      736.84653     -20.128701      716.71783    
    987000   290.0514       0.013034914    7.633188       719.62552     -21.47553       698.14999    
    988000   307.02606      0.013034914    7.7798176      761.74011     -19.506447      742.23366    
    989000   315.43506      0.013034914    7.530972       782.60309     -16.666083      765.93701    
    990000   300.4416       0.013034914    3.982054       745.40388     -17.218169      728.18571    
    991000   289.25442      0.013034914    7.6395407      717.64818     -15.00489       702.64329    
    992000   296.46676      0.013034914    7.8716305      735.54221     -17.479888      718.06232    
    993000   300.87213      0.013034914    7.4361106      746.47204     -18.549362      727.92268    
    994000   303.5501       0.013034914    5.0706393      753.11616     -17.463952      735.65221    
    995000   301.55818      0.013034914    4.9067532      748.17417     -18.453729      729.72044    
    996000   290.04917      0.013034914    10.337903      719.61999     -19.537519      700.08247    
    997000   306.26947      0.013034914    17.789737      759.863       -14.491926      745.37108    
    998000   319.01195      0.013034914    7.1933241      791.47745     -16.584879      774.89257    
    999000   319.55081      0.013034914    9.7908279      792.81437     -15.700618      777.11375    
   1000000   285.89744      0.013034914    4.1242816      709.31943     -17.809638      691.50979    
   1001000   287.81218      0.013034914    8.0431764      714.06995     -14.665386      699.40456    
   1002000   316.56744      0.013034914    8.0174333      785.41255     -22.529616      762.88293    
   1003000   294.91117      0.013034914    3.7198034      731.68273     -24.165597      707.51714    
   1004000   290.09766      0.013034914    9.3244537      719.74028     -23.715589      696.0247     
   1005000   311.70586      0.013034914    7.2817916      773.35083     -21.910633      751.4402     
   1006000   304.32845      0.013034914    1.4780391      755.04727     -26.427923      728.61934    
   1007000   291.18329      0.013034914    7.0206119      722.43378     -22.079755      700.35402    
   1008000   300.02082      0.013034914    17.008655      744.35993     -23.253171      721.10676    
   1009000   308.85105      0.013034914    5.6044985      766.26797     -20.332697      745.93528    
   1010000   296.50583      0.013034914   -3.9165308      735.63914     -16.849015      718.79012    
   1011000   280.00778      0.013034914    6.4766182      694.70702     -14.743128      679.96389    
   1012000   302.05271      0.013034914    13.111695      749.40111     -14.098537      735.30257    
   1013000   304.75968      0.013034914    6.4034876      756.11718     -14.043001      742.07418    
   1014000   306.75009      0.013034914    4.0061211      761.05542     -15.682217      745.3732     
   1015000   278.23435      0.013034914    1.5798085      690.30709     -16.95183       673.35526    
   1016000   295.19189      0.013034914    13.005219      732.37922     -16.255466      716.12375    
   1017000   305.733        0.013034914    6.1197684      758.532       -17.980792      740.55121    
   1018000   312.15277      0.013034914    4.1047699      774.45962     -17.656048      756.80357    
   1019000   289.33961      0.013034914    0.82545591     717.85954     -21.322282      696.53725    
   1020000   294.07738      0.013034914    9.7208353      729.61408     -19.253965      710.36011    
   1021000   299.3759       0.013034914    15.869475      742.75986     -20.704106      722.05576    
   1022000   314.31406      0.013034914    5.108106       779.82185     -23.141975      756.67988    
   1023000   312.50758      0.013034914   -2.3157153      775.33992     -21.243672      754.09625    
   1024000   273.99031      0.013034914    8.154507       679.77752     -15.840393      663.93712    
   1025000   299.75246      0.013034914    13.99902       743.69411     -21.528228      722.16588    
   1026000   313.6006       0.013034914   -1.2224732      778.05173     -19.763993      758.28774    
   1027000   294.36443      0.013034914   -0.9570794      730.32626     -18.761567      711.56469    
   1028000   293.79971      0.013034914    7.2612952      728.92518     -21.311178      707.614      
   1029000   299.54055      0.013034914    18.340569      743.16836     -20.131866      723.03649    
   1030000   299.76244      0.013034914    5.157695       743.71888     -20.334683      723.3842     
   1031000   291.50996      0.013034914    3.1242587      723.24425     -20.36076       702.88349    
   1032000   296.6088       0.013034914    14.554604      735.89461     -22.564473      713.33013    
   1033000   306.52591      0.013034914    15.084061      760.49922     -21.411958      739.08726    
   1034000   309.45623      0.013034914   -6.9044286      767.76944     -20.7478        747.02164    
   1035000   289.36097      0.013034914    8.5829067      717.91254     -20.675435      697.23711    
   1036000   302.43642      0.013034914    8.0691099      750.35308     -20.473048      729.88004    
   1037000   311.98634      0.013034914    0.67579594     774.04671     -20.117325      753.92939    
   1038000   297.02705      0.013034914    2.5425473      736.9323      -22.411804      714.5205     
   1039000   292.34006      0.013034914    10.790145      725.30374     -24.697721      700.60601    
   1040000   294.53551      0.013034914    14.107712      730.75071     -25.835409      704.91531    
   1041000   307.62026      0.013034914    9.2396906      763.21435     -26.566918      736.64744    
   1042000   316.39622      0.013034914    2.2019356      784.98773     -24.497826      760.48991    
   1043000   294.91165      0.013034914    2.5473527      731.68393     -24.92365       706.76028    
   1044000   288.82159      0.013034914    7.180721       716.57433     -25.398319      691.17601    
   1045000   299.25803      0.013034914    9.3365324      742.46741     -25.752492      716.71492    
   1046000   309.03685      0.013034914    8.3148629      766.72894     -23.380714      743.34823    
   1047000   302.3136       0.013034914    7.2392281      750.04838     -26.388285      723.6601     
   1048000   287.60797      0.013034914    7.2514992      713.56331     -29.413295      684.15001    
   1049000   302.54842      0.013034914    7.1881495      750.63096     -27.777196      722.85377    
   1050000   299.9844       0.013034914    7.1881429      744.26955     -24.749001      719.52055    
   1051000   296.39107      0.013034914    6.0724124      735.35443     -28.57114       706.78329    
   1052000   308.58267      0.013034914    7.1260319      765.60211     -26.974048      738.62806    
   1053000   311.03455      0.013034914    7.7762788      771.6853      -27.537225      744.14807    
   1054000   295.83071      0.013034914    6.9605477      733.96414     -26.239295      707.72484    
   1055000   294.00604      0.013034914    6.0274069      729.43708     -28.615238      700.82184    
   1056000   292.46729      0.013034914    6.1656575      725.61942     -28.382589      697.23683    
   1057000   303.85314      0.013034914    5.7684419      753.86801     -29.067015      724.801      
   1058000   299.74927      0.013034914    3.322356       743.68621     -28.717354      714.96886    
   1059000   308.24545      0.013034914    8.4892272      764.76546     -29.164601      735.60086    
   1060000   281.76038      0.013034914    6.8523525      699.05527     -22.728228      676.32704    
   1061000   291.19477      0.013034914    6.0000967      722.46225     -25.07198       697.39027    
   1062000   304.72497      0.013034914   -0.046149757    756.03105     -26.601135      729.42991    
   1063000   296.49908      0.013034914    9.9691894      735.6224      -23.136234      712.48617    
   1064000   294.77766      0.013034914    4.5304959      731.3515      -27.083645      704.26786    
   1065000   304.04782      0.013034914    5.3642687      754.35102     -25.436218      728.9148     
   1066000   308.83375      0.013034914    5.4709592      766.22504     -22.923139      743.3019     
   1067000   288.81224      0.013034914    8.9743365      716.55113     -24.428844      692.12228    
   1068000   304.52868      0.013034914    7.1461168      755.54406     -22.234921      733.30914    
   1069000   308.93427      0.013034914    7.0654877      766.47444     -24.981975      741.49246    
   1070000   310.11812      0.013034914    6.6541718      769.4116      -22.527359      746.88424    
   1071000   301.87764      0.013034914    6.9962854      748.96674     -26.241773      722.72497    
   1072000   293.71655      0.013034914    6.4519292      728.71886     -22.799701      705.91915    
   1073000   303.19883      0.013034914    7.398934       752.24465     -19.219177      733.02548    
   1074000   310.0819       0.013034914    7.981201       769.32175     -18.246738      751.07501    
   1075000   286.89506      0.013034914    6.5143573      711.79456     -18.447772      693.34679    
   1076000   295.9348       0.013034914    8.3979589      734.2224      -17.307297      716.9151     
   1077000   314.14193      0.013034914    4.5128829      779.3948      -21.097192      758.2976     
   1078000   294.02343      0.013034914    5.7704412      729.48024     -22.17213       707.30811    
   1079000   288.5566       0.013034914    6.8618627      715.91689     -23.098918      692.81797    
   1080000   295.83362      0.013034914    7.7614658      733.97136     -22.049603      711.92176    
   1081000   302.96524      0.013034914    6.3537189      751.66512     -25.255859      726.40926    
   1082000   298.43442      0.013034914    6.3910282      740.42402     -23.09266       717.33136    
   1083000   301.83944      0.013034914    4.3003686      748.87198     -21.240984      727.63099    
   1084000   300.9907       0.013034914    8.6114763      746.76622     -20.827715      725.9385     
   1085000   306.75745      0.013034914    7.4358986      761.0737      -22.208354      738.86534    
   1086000   296.77308      0.013034914    7.0412632      736.3022      -23.407263      712.89494    
   1087000   295.18832      0.013034914    7.0749744      732.37037     -17.666528      714.70384    
   1088000   311.8131       0.013034914    6.3169296      773.6169      -19.93982       753.67708    
   1089000   311.02433      0.013034914    7.3227049      771.65994     -21.144454      750.51548    
   1090000   308.52773      0.013034914    7.6092812      765.4658      -26.935048      738.53075    
   1091000   281.79826      0.013034914    6.1248596      699.14925     -24.746802      674.40245    
   1092000   304.91243      0.013034914    7.445713       756.49614     -25.551068      730.94507    
   1093000   310.10342      0.013034914    6.5793776      769.37514     -24.874563      744.50058    
   1094000   299.94614      0.013034914    6.3701615      744.17464     -22.981663      721.19297    
   1095000   279.243        0.013034914    7.3231813      692.80958     -18.731642      674.07794    
   1096000   307.73544      0.013034914    10.475471      763.50011     -17.713843      745.78627    
   1097000   310.65191      0.013034914    7.511427       770.73596     -19.631403      751.10456    
   1098000   300.40665      0.013034914    6.5518776      745.31717     -19.082348      726.23482    
   1099000   297.78436      0.013034914    6.9207315      738.81121     -20.568872      718.24233    
   1100000   301.01734      0.013034914    6.1944538      746.83231     -19.105637      727.72667    
   1101000   294.02726      0.013034914    7.0390601      729.48974     -19.804328      709.68541    
   1102000   291.56406      0.013034914    6.8635405      723.37848     -19.748178      703.6303     
   1103000   308.76911      0.013034914    8.3138969      766.06467     -20.98711       745.07756    
   1104000   306.99611      0.013034914    8.2581432      761.66582     -13.901396      747.76443    
   1105000   292.09262      0.013034914    7.1354226      724.68984     -16.171589      708.51825    
   1106000   301.60869      0.013034914    5.3297715      748.29948     -16.066924      732.23255    
   1107000   305.06786      0.013034914    6.426659       756.88177     -20.004374      736.87739    
   1108000   302.50125      0.013034914    7.3015436      750.51393     -15.786923      734.72701    
   1109000   313.30202      0.013034914    7.2706334      777.31095     -18.999803      758.31115    
   1110000   295.11935      0.013034914    6.1155113      732.19925     -21.362872      710.83638    
   1111000   296.163        0.013034914    7.9774145      734.78856     -20.273626      714.51494    
   1112000   310.68338      0.013034914    7.9473493      770.81404     -20.413722      750.40031    
   1113000   308.91219      0.013034914    5.0316515      766.41965     -22.486465      743.93318    
   1114000   292.11631      0.013034914    6.9299501      724.74861     -19.768279      704.98033    
   1115000   317.53732      0.013034914    9.841997       787.81883     -23.138895      764.67994    
   1116000   298.92409      0.013034914    6.9416044      741.6389      -23.217739      718.42116    
   1117000   293.25105      0.013034914    6.6325339      727.56394     -21.207459      706.35648    
   1118000   308.61394      0.013034914    5.8495513      765.6797      -18.021993      747.6577     
   1119000   309.90366      0.013034914    8.7644432      768.87953     -20.256067      748.62346    
   1120000   296.45951      0.013034914    7.01762        735.52422     -16.814298      718.70993    
   1121000   293.60759      0.013034914    7.2654581      728.44852     -19.632611      708.81591    
   1122000   301.44672      0.013034914    8.0596915      747.89763     -20.297358      727.60027    
   1123000   314.01611      0.013034914    7.7206039      779.08263     -20.948447      758.13418    
   1124000   285.66629      0.013034914    6.4294354      708.74595     -22.600067      686.14588    
   1125000   303.33434      0.013034914    8.0967907      752.58085     -21.500335      731.08051    
   1126000   308.98795      0.013034914    7.8422345      766.60761     -23.347472      743.26014    
   1127000   299.84601      0.013034914    6.7634093      743.92621     -19.325229      724.60098    
   1128000   292.69076      0.013034914    6.5151995      726.17385     -19.738619      706.43523    
   1129000   291.55285      0.013034914    6.590335       723.35065     -20.914447      702.4362     
   1130000   302.44171      0.013034914    7.2335913      750.36622     -19.606465      730.75976    
   1131000   301.95849      0.013034914    7.3284644      749.16734     -18.643091      730.52425    
   1132000   305.84214      0.013034914    8.0772496      758.80278     -19.896141      738.90664    
   1133000   303.30224      0.013034914    6.6564056      752.50121     -26.676937      725.82427    
   1134000   293.54296      0.013034914    5.7455318      728.28819     -19.967864      708.32032    
   1135000   303.40164      0.013034914    7.7390324      752.74782     -19.857713      732.89011    
   1136000   304.26265      0.013034914    8.3808375      754.88401     -22.890195      731.99382    
   1137000   306.34032      0.013034914    7.0143934      760.03878     -21.375342      738.66344    
   1138000   290.59912      0.013034914    6.272857       720.98442     -21.027842      699.95658    
   1139000   294.93687      0.013034914    4.4452833      731.74651     -26.486258      705.26025    
   1140000   299.97643      0.013034914    8.7703665      744.24979     -23.550176      720.69962    
   1141000   297.13007      0.013034914    6.3989072      737.1879      -19.321075      717.86683    
   1142000   298.69717      0.013034914    3.5531972      741.07591     -18.470876      722.60503    
   1143000   300.95878      0.013034914    8.0550814      746.68704     -20.499314      726.18773    
   1144000   314.44611      0.013034914    7.741508       780.14947     -23.530153      756.61931    
   1145000   300.98813      0.013034914    7.0367983      746.75986     -21.636988      725.12287    
   1146000   298.30958      0.013034914    6.6889489      740.1143      -21.613265      718.50103    
   1147000   297.66893      0.013034914    7.2831539      738.52482     -21.372003      717.15282    
   1148000   314.26092      0.013034914    7.9341907      779.69        -20.132993      759.557      
   1149000   305.77522      0.013034914    6.4938504      758.63676     -23.160193      735.47657    
   1150000   292.82626      0.013034914    7.6642846      726.51003     -19.418603      707.09143    
   1151000   302.91914      0.013034914    5.8659171      751.55075     -22.435596      729.11515    
   1152000   314.24615      0.013034914    6.4224692      779.65335     -18.97036       760.68299    
   1153000   307.28991      0.013034914    8.0345222      762.39474     -21.293417      741.10132    
   1154000   293.28536      0.013034914    7.0838337      727.64906     -19.393213      708.25584    
   1155000   292.57933      0.013034914    6.8619485      725.89739     -18.746808      707.15058    
   1156000   300.86171      0.013034914    6.871927       746.44621     -17.587351      728.85886    
   1157000   298.56624      0.013034914    7.7620136      740.75107     -20.5008        720.25027    
   1158000   288.60679      0.013034914    7.9056956      716.04141     -21.573784      694.46763    
   1159000   292.63768      0.013034914    4.8745264      726.04215     -20.540016      705.50214    
   1160000   294.56411      0.013034914    2.8875411      730.82168     -24.241783      706.5799     
   1161000   314.96633      0.013034914    6.8211384      781.44016     -24.69824       756.74192    
   1162000   292.4101       0.013034914    10.846565      725.47751     -24.152571      701.32494    
   1163000   286.81044      0.013034914    6.8740037      711.58461     -20.49204       691.09257    
   1164000   313.46723      0.013034914    0.44454185     777.72085     -16.237198      761.48365    
   1165000   305.18181      0.013034914    12.064846      757.16449     -16.928175      740.23632    
   1166000   280.99694      0.013034914    11.348055      697.16115     -21.762486      675.39867    
   1167000   303.27877      0.013034914    7.0442366      752.44298     -23.400932      729.04204    
   1168000   304.88164      0.013034914    9.110235       756.41975     -20.170209      736.24954    
   1169000   288.99774      0.013034914    3.7803313      717.01137     -18.733055      698.27832    
   1170000   307.03779      0.013034914   -0.98595831     761.76921     -18.921021      742.84819    
   1171000   310.87109      0.013034914    10.724355      771.27975     -22.848271      748.43148    
   1172000   289.67273      0.013034914    11.134101      718.68603     -23.268942      695.41708    
   1173000   294.56857      0.013034914    4.6109827      730.83275     -19.790531      711.04222    
   1174000   307.10589      0.013034914    6.4513693      761.93818     -16.753741      745.18443    
   1175000   313.80801      0.013034914    9.319296       778.56632     -18.570384      759.99594    
   1176000   285.77975      0.013034914    5.062263       709.02744     -19.393751      689.63369    
   1177000   292.59287      0.013034914    5.4374315      725.93098     -15.670804      710.26018    
   1178000   300.00264      0.013034914    6.4535863      744.31482     -15.810954      728.50386    
   1179000   316.90875      0.013034914    7.8354356      786.25934     -16.021578      770.23776    
   1180000   302.97657      0.013034914    10.693284      751.69321     -15.498162      736.19505    
   1181000   295.45675      0.013034914    7.1367671      733.03634     -17.289084      715.74726    
   1182000   295.49109      0.013034914    7.4078491      733.12153     -19.471888      713.64964    
   1183000   313.49746      0.013034914    7.1603193      777.79585     -18.079242      759.71661    
   1184000   294.13266      0.013034914    7.0385665      729.75122     -20.809777      708.94145    
   1185000   284.30193      0.013034914    7.2813266      705.36093     -22.232734      683.1282     
   1186000   305.18142      0.013034914    8.6203462      757.16352     -16.912566      740.25096    
   1187000   304.29038      0.013034914    4.1086907      754.95282     -18.893161      736.05966    
   1188000   294.0988       0.013034914    5.9859783      729.66723     -17.654808      712.01242    
   1189000   299.85691      0.013034914    5.9741631      743.95326     -18.640519      725.31275    
   1190000   298.44595      0.013034914    10.541946      740.45264     -18.895478      721.55716    
   1191000   307.02902      0.013034914    11.36224       761.74746     -19.365903      742.38155    
   1192000   311.27188      0.013034914    8.0773398      772.2741      -19.439318      752.83479    
   1193000   301.89989      0.013034914    3.3886739      749.02195     -22.018522      727.00343    
   1194000   290.4147       0.013034914    8.999563       720.52689     -20.764959      699.76193    
   1195000   301.12449      0.013034914    10.644618      747.09815     -21.473797      725.62435    
   1196000   305.85356      0.013034914    1.6878294      758.83112     -26.60804       732.22308    
   1197000   296.94303      0.013034914    8.2970343      736.72384     -21.387642      715.3362     
   1198000   305.37584      0.013034914    13.612495      757.64588     -18.696631      738.94925    
   1199000   303.80523      0.013034914    15.697597      753.74915     -22.817053      730.9321     
   1200000   298.14279      0.013034914    1.3515691      739.70048     -23.628934      716.07155    
   1201000   298.50216      0.013034914    6.1028774      740.59209     -22.441634      718.15046    
   1202000   312.51221      0.013034914    15.846257      775.35141     -23.320651      752.03075    
   1203000   299.93548      0.013034914    1.1598975      744.1482      -25.309353      718.83884    
   1204000   283.46835      0.013034914   -0.068503386    703.29279     -25.589527      677.70326    
   1205000   285.77503      0.013034914    14.330398      709.01573     -25.156449      683.85928    
   1206000   309.16871      0.013034914    12.770012      767.05609     -25.733378      741.32271    
   1207000   303.15156      0.013034914    4.4971377      752.12739     -26.267353      725.86004    
   1208000   288.61067      0.013034914    10.129202      716.05103     -27.571476      688.47955    
   1209000   304.38077      0.013034914    16.69334       755.17707     -22.017941      733.15913    
   1210000   302.7082       0.013034914    14.771414      751.02738     -21.610148      729.41723    
   1211000   293.22932      0.013034914   -1.5973997      727.51003     -21.24484       706.26519    
   1212000   300.45999      0.013034914    7.1570657      745.44952     -15.43465       730.01487    
   1213000   303.36473      0.013034914    12.585457      752.65625     -21.198736      731.45751    
   1214000   311.54657      0.013034914    16.830953      772.95564     -23.944383      749.01125    
   1215000   298.20393      0.013034914    2.9247818      739.85217     -24.765228      715.08695    
   1216000   279.01412      0.013034914    2.8438295      692.24173     -21.310256      670.93148    
   1217000   296.9734       0.013034914    12.949889      736.7992      -16.229706      720.5695     
   1218000   313.07268      0.013034914    3.0861556      776.74194     -16.957127      759.78481    
   1219000   309.73569      0.013034914   -11.513779      768.46279     -18.655758      749.80703    
   1220000   292.17634      0.013034914    2.6315687      724.89756     -20.336303      704.56126    
   1221000   288.18825      0.013034914    8.3739815      715.003       -21.289171      693.71383    
   1222000   310.01216      0.013034914    8.6066713      769.1487      -20.44086       748.70784    
   1223000   308.49243      0.013034914    5.0905293      765.37822     -18.821522      746.5567     
   1224000   287.56316      0.013034914    1.4623774      713.45212     -19.959923      693.4922     
   1225000   297.79342      0.013034914    12.283408      738.83368     -18.888312      719.94537    
   1226000   299.35187      0.013034914    9.1725142      742.70024     -19.689559      723.01068    
   1227000   307.40353      0.013034914    6.3600733      762.67664     -22.60234       740.0743     
   1228000   302.80959      0.013034914    2.1949452      751.27893     -20.741484      730.53745    
   1229000   286.52762      0.013034914    10.208767      710.88293     -22.707135      688.17579    
   1230000   303.93768      0.013034914    8.1009594      754.07777     -17.701151      736.37662    
   1231000   307.85148      0.013034914    3.8621286      763.78802     -23.386976      740.40104    
   1232000   284.05596      0.013034914   -4.865243       704.75067     -23.105839      681.64483    
   1233000   297.2338       0.013034914    10.594653      737.44524     -20.054892      717.39035    
   1234000   305.34886      0.013034914    8.0319413      757.57893     -20.774731      736.8042     
   1235000   292.36523      0.013034914    4.5513046      725.3662      -17.868562      707.49764    
   1236000   292.55175      0.013034914    0.31608551     725.82895     -18.929685      706.89926    
   1237000   297.35619      0.013034914    8.7448774      737.74891     -20.391851      717.35706    
   1238000   308.40231      0.013034914    15.359155      765.15464     -21.013876      744.14076    
   1239000   296.42256      0.013034914    6.7906772      735.43255     -19.793834      715.63872    
   1240000   292.10387      0.013034914    3.5128512      724.71776     -16.228584      708.48918    
   1241000   296.09594      0.013034914    6.7502154      734.62218     -17.272955      717.34922    
   1242000   305.45864      0.013034914    9.061257       757.85131     -18.128588      739.72272    
   1243000   305.42886      0.013034914    5.6670891      757.77743     -19.675432      738.102      
   1244000   304.1502       0.013034914    3.0785292      754.60504     -22.046734      732.5583     
   1245000   302.8362       0.013034914    6.3184139      751.34496     -19.669364      731.67559    
   1246000   302.24814      0.013034914    7.6218638      749.88597     -15.35814       734.52783    
   1247000   292.6822       0.013034914    6.9297449      726.15261     -18.218429      707.93418    
   1248000   300.84648      0.013034914    6.9205543      746.40842     -17.747506      728.66091    
   1249000   301.27932      0.013034914    11.448571      747.48229     -15.596578      731.88571    
   1250000   297.26674      0.013034914    11.265067      737.52697     -15.715972      721.811      
   1251000   306.13403      0.013034914    6.3488328      759.52695     -18.14733       741.37962    
   1252000   288.56498      0.013034914    2.4675526      715.93767     -20.01813       695.91954    
   1253000   294.76456      0.013034914    8.7672456      731.31901     -22.34927       708.96974    
   1254000   300.60986      0.013034914    9.4160528      745.82134     -21.727699      724.09364    
   1255000   305.55805      0.013034914    2.0160955      758.09795     -24.785412      733.31254    
   1256000   316.28042      0.013034914    6.7406816      784.70043     -26.516973      758.18346    
   1257000   302.38124      0.013034914    8.8236922      750.21619     -28.500627      721.71557    
   1258000   284.15665      0.013034914    11.853497      705.00048     -27.868083      677.1324     
   1259000   293.08847      0.013034914    12.932439      727.16058     -22.173637      704.98694    
   1260000   307.23735      0.013034914    5.4759207      762.26434     -21.826418      740.43792    
   1261000   297.11842      0.013034914    7.1177587      737.15898     -20.027214      717.13177    
   1262000   292.6549       0.013034914    10.683108      726.08488     -24.186046      701.89883    
   1263000   301.14276      0.013034914    5.0802917      747.1435      -23.761222      723.38227    
   1264000   316.81949      0.013034914    6.3945288      786.0379      -23.229788      762.80811    
   1265000   297.77073      0.013034914    8.3334377      738.7774      -23.345538      715.43186    
   1266000   296.49089      0.013034914    8.6576911      735.60206     -21.633528      713.96854    
   1267000   293.83504      0.013034914    5.7382691      729.01282     -21.088703      707.92412    
   1268000   312.47918      0.013034914    7.2399772      775.26946     -22.038753      753.2307     
   1269000   306.40116      0.013034914    6.9493203      760.18972     -18.413978      741.77575    
   1270000   286.48747      0.013034914    7.209858       710.78332     -20.577139      690.20618    
   1271000   294.267        0.013034914    8.7913408      730.08454     -19.816394      710.26815    
   1272000   320.97528      0.013034914    7.7451889      796.34851     -17.49103       778.85747    
   1273000   294.24951      0.013034914    1.9562697      730.04115     -17.746398      712.29475    
   1274000   288.41053      0.013034914    7.8984945      715.55446     -18.413396      697.14107    
   1275000   302.2635       0.013034914    7.3299296      749.92408     -19.412013      730.51207    
   1276000   315.9376       0.013034914    7.4571899      783.84989     -20.885816      762.96407    
   1277000   289.55679      0.013034914    5.2880146      718.39837     -18.73152       699.66685    
   1278000   284.05257      0.013034914    10.489508      704.74226     -20.242905      684.49935    
   1279000   303.9166       0.013034914    7.2419089      754.02545     -17.768681      736.25677    
   1280000   315.26326      0.013034914    6.4173614      782.17685     -16.974018      765.20283    
   1281000   286.56632      0.013034914    6.6612414      710.97895     -17.648374      693.33058    
   1282000   293.49105      0.013034914    6.3015346      728.1594      -17.838744      710.32065    
   1283000   301.93678      0.013034914    6.4615241      749.11347     -17.200062      731.91341    
   1284000   311.32447      0.013034914    7.5839493      772.40459     -17.408139      754.99645    
   1285000   288.77934      0.013034914    6.5594611      716.46949     -16.036599      700.4329     
   1286000   295.63677      0.013034914    5.8409991      733.48299     -20.107558      713.37543    
   1287000   302.38428      0.013034914    7.5699566      750.22372     -17.187666      733.03606    
   1288000   304.35731      0.013034914    7.6319079      755.11886     -15.395378      739.72349    
   1289000   284.45335      0.013034914    6.0248865      705.7366      -18.315958      687.42064    
   1290000   306.589        0.013034914    6.9230653      760.65576     -16.854155      743.8016     
   1291000   313.95845      0.013034914    7.8859441      778.93957     -18.433906      760.50567    
   1292000   290.8599       0.013034914    6.3377199      721.63143     -18.104281      703.52715    
   1293000   292.07311      0.013034914    9.6230658      724.64143     -18.24827       706.39316    
   1294000   310.12613      0.013034914    8.3759488      769.43147     -17.416763      752.01471    
   1295000   312.3191       0.013034914    8.6187201      774.87231     -18.874401      755.9979     
   1296000   288.47123      0.013034914    4.7272561      715.70508     -19.129075      696.57601    
   1297000   294.51758      0.013034914    12.683954      730.70625     -18.873642      711.8326     
   1298000   316.25551      0.013034914    5.9529014      784.63865     -19.245706      765.39294    
   1299000   290.16046      0.013034914    2.8753297      719.89609     -19.277382      700.61871    
   1300000   284.394        0.013034914    15.177476      705.58935     -16.894851      688.6945     
   1301000   311.68634      0.013034914    14.253361      773.3024      -19.264316      754.03809    
   1302000   303.89222      0.013034914    2.6429172      753.96498     -20.886657      733.07832    
   1303000   291.98327      0.013034914    5.5529502      724.41854     -23.810584      700.60796    
   1304000   294.23123      0.013034914    7.6187672      729.99579     -15.927211      714.06858    
   1305000   314.0254       0.013034914    18.185027      779.10566     -18.88997       760.21569    
   1306000   308.67703      0.013034914    7.1288993      765.83621     -17.754449      748.08176    
   1307000   285.55974      0.013034914    3.6609088      708.48159     -17.083859      691.39773    
   1308000   283.66365      0.013034914    0.57479146     703.77733     -14.369185      689.40814    
   1309000   302.8697       0.013034914    12.123644      751.42806     -20.182008      731.24606    
   1310000   315.42944      0.013034914    3.4023764      782.58913     -24.347764      758.24137    
   1311000   294.79236      0.013034914    5.0017697      731.38798     -19.902224      711.48575    
   1312000   278.93961      0.013034914    3.3413642      692.05687     -19.935239      672.12163    
   1313000   297.94491      0.013034914    10.201205      739.20953     -23.611242      715.59829    
   1314000   315.86509      0.013034914    9.3030243      783.67        -19.260487      764.40951    
   1315000   296.15477      0.013034914    3.8332598      734.76815     -20.499329      714.26882    
   1316000   285.50581      0.013034914    7.6975063      708.34779     -24.403146      683.94464    
   1317000   304.31442      0.013034914    8.9868389      755.01246     -22.363695      732.64877    
   1318000   307.1474       0.013034914    7.4669483      762.04117     -22.125317      739.91585    
   1319000   301.95354      0.013034914    6.5984016      749.15505     -24.928832      724.22621    
   1320000   294.16456      0.013034914    6.1063256      729.83039     -25.314773      704.51561    
   1321000   300.29542      0.013034914    6.7685185      745.04121     -25.633637      719.40757    
   1322000   289.98748      0.013034914    3.8881995      719.46694     -29.558032      689.90891    
   1323000   315.74992      0.013034914    7.4346902      783.38426     -23.955722      759.42854    
   1324000   294.2468       0.013034914    7.1951156      730.03443     -27.398427      702.636      
   1325000   296.12047      0.013034914    8.2122096      734.68304     -24.002358      710.68068    
   1326000   309.88577      0.013034914    7.6899151      768.83513     -19.720168      749.11496    
   1327000   303.96194      0.013034914    9.4779591      754.13794     -21.54778       732.59016    
   1328000   286.38419      0.013034914    3.621686       710.52707     -23.559007      686.96806    
   1329000   293.25247      0.013034914    2.1137666      727.56747     -23.416965      704.15051    
   1330000   316.40459      0.013034914    7.1285784      785.0085      -25.241023      759.76748    
   1331000   298.86796      0.013034914    10.15586       741.49966     -21.175254      720.3244     
   1332000   294.65168      0.013034914    7.5970058      731.03893     -21.31628       709.72265    
   1333000   279.32212      0.013034914    5.8418775      693.00587     -21.425097      671.58077    
   1334000   302.13592      0.013034914    6.8391813      749.60755     -20.548679      729.05887    
   1335000   313.0697       0.013034914    7.7334704      776.73455     -18.707606      758.02694    
   1336000   297.51014      0.013034914    9.5055508      738.13085     -18.387692      719.74316    
   1337000   286.34617      0.013034914    5.7380998      710.43274     -20.217288      690.21545    
   1338000   315.28572      0.013034914    5.8558201      782.23257     -19.989961      762.2426     
   1339000   299.02373      0.013034914    7.5553071      741.88611     -20.702654      721.18346    
   1340000   285.65328      0.013034914    6.7628052      708.71366     -20.765521      687.94814    
   1341000   301.70714      0.013034914    6.2543945      748.54373     -19.562848      728.98089    
   1342000   309.36093      0.013034914    9.5280323      767.533       -19.889129      747.64387    
   1343000   300.09883      0.013034914    5.2216108      744.55348     -13.951385      730.60209    
   1344000   294.99739      0.013034914    1.343269       731.89665     -15.46851       716.42814    
   1345000   294.02062      0.013034914    7.2202581      729.47327     -18.147661      711.32561    
   1346000   305.57328      0.013034914    13.700681      758.13573     -17.466841      740.66889    
   1347000   309.93395      0.013034914    10.61596       768.95467     -15.44406       753.51061    
   1348000   293.16124      0.013034914    1.0717526      727.34112     -16.906378      710.43475    
   1349000   300.15964      0.013034914    4.1164097      744.70435     -18.33189       726.37246    
   1350000   314.76739      0.013034914    13.998341      780.94657     -17.652441      763.29413    
   1351000   290.92587      0.013034914    8.1121449      721.7951      -18.81269       702.98241    
   1352000   312.07354      0.013034914   -0.53486415     774.26305     -19.909283      754.35377    
   1353000   297.64639      0.013034914    8.9851378      738.4689      -18.365137      720.10376    
   1354000   295.20182      0.013034914    6.9954842      732.40384     -18.698123      713.70572    
   1355000   303.00533      0.013034914    6.9860987      751.76456     -16.420241      735.34432    
   1356000   315.00447      0.013034914    1.3143646      781.53479     -21.913486      759.6213     
   1357000   301.53398      0.013034914    8.5238392      748.11411     -19.263849      728.85026    
   1358000   300.44873      0.013034914    8.0150496      745.42159     -22.383785      723.03781    
   1359000   290.74498      0.013034914    7.9867754      721.3463      -24.213725      697.13257    
   1360000   299.74211      0.013034914    3.0436964      743.66844     -25.288895      718.37955    
   1361000   300.16668      0.013034914    6.8085145      744.7218      -16.30694       728.41486    
   1362000   305.05221      0.013034914    10.076822      756.84294     -18.137245      738.7057     
   1363000   298.89409      0.013034914    9.2566513      741.56448     -20.388712      721.17576    
   1364000   289.34688      0.013034914    0.38133139     717.87759     -19.037243      698.84035    
   1365000   295.14477      0.013034914    6.4186155      732.2623      -15.218162      717.04414    
   1366000   310.85651      0.013034914    6.2949336      771.24357     -20.741182      750.50239    
   1367000   293.09332      0.013034914    15.563381      727.17259     -23.926225      703.24637    
   1368000   290.41455      0.013034914   -0.71702165     720.52651     -18.001253      702.52526    
   1369000   304.00802      0.013034914    5.5144379      754.25228     -23.819355      730.43292    
   1370000   305.22721      0.013034914    13.775929      757.27713     -20.566071      736.71106    
   1371000   291.72639      0.013034914    12.822609      723.78122     -20.636449      703.14477    
   1372000   287.84748      0.013034914   -1.2261515      714.15753     -20.818873      693.33866    
   1373000   305.35482      0.013034914    9.2028584      757.59372     -20.770774      736.82295    
   1374000   299.65218      0.013034914    14.406409      743.44531     -19.913028      723.53228    
   1375000   303.87713      0.013034914    2.1499778      753.92755     -22.724066      731.20348    
   1376000   294.36819      0.013034914   -0.58291269     730.3356      -21.340959      708.99464    
   1377000   303.96439      0.013034914    8.9825961      754.14403     -18.572816      735.57121    
   1378000   301.21208      0.013034914    8.1309684      747.31547     -16.931214      730.38425    
   1379000   302.34941      0.013034914    2.1822454      750.13723     -18.011643      732.12558    
   1380000   301.84475      0.013034914    10.557498      748.88515     -20.453985      728.43116    
   1381000   284.53103      0.013034914    12.413998      705.92934     -25.421977      680.50736    
   1382000   295.58944      0.013034914    5.2811529      733.36554     -21.01854       712.347      
   1383000   304.01809      0.013034914   -0.045328991    754.27727     -28.35847       725.9188     
   1384000   299.21025      0.013034914    2.1870206      742.34888     -25.808786      716.5401     
   1385000   298.40891      0.013034914    23.020971      740.36074     -31.231498      709.12924    
   1386000   295.20607      0.013034914    2.2880104      732.41441     -25.221521      707.19289    
   1387000   304.05283      0.013034914   -3.474811       754.36344     -23.456195      730.90725    
   1388000   304.87675      0.013034914    11.673823      756.40762     -25.910555      730.49706    
   1389000   296.94906      0.013034914    16.201133      736.7388      -23.697642      713.04116    
   1390000   290.61373      0.013034914    4.5131194      721.02067     -25.118378      695.90229    
   1391000   314.5131       0.013034914    1.7680911      780.31567     -22.001179      758.31449    
   1392000   305.51811      0.013034914    9.6722889      757.99886     -21.663135      736.33572    
   1393000   298.29365      0.013034914    7.3383121      740.07478     -22.070623      718.00415    
   1394000   298.09756      0.013034914    13.29986       739.58826     -19.162342      720.42592    
   1395000   298.15523      0.013034914    4.3239724      739.73134     -22.884781      716.84656    
   1396000   303.49093      0.013034914   -4.0179233      752.96937     -22.793785      730.17558    
   1397000   303.01963      0.013034914    7.4884136      751.80006     -25.504566      726.29549    
   1398000   278.36426      0.013034914    14.624931      690.6294      -19.348148      671.28125    
   1399000   295.91783      0.013034914    3.6040509      734.18029     -16.194631      717.98566    
   1400000   311.44432      0.013034914    3.725834       772.70194     -12.897561      759.80438    
   1401000   305.17993      0.013034914    4.3519704      757.15981     -14.69485       742.46496    
   1402000   298.93138      0.013034914    9.291284       741.65698     -16.22721       725.42977    
   1403000   286.53361      0.013034914    6.9246714      710.89779     -16.451195      694.44659    
   1404000   314.62651      0.013034914    8.8963714      780.59705     -15.927109      764.66994    
   1405000   303.17426      0.013034914    6.7372782      752.1837      -17.195417      734.98829    
   1406000   297.22501      0.013034914    5.4074731      737.42343     -15.069419      722.35401    
   1407000   302.74887      0.013034914    7.8216607      751.12828     -20.730195      730.39809    
   1408000   301.27614      0.013034914    8.1956027      747.4744      -19.084328      728.39007    
   1409000   296.18019      0.013034914    7.1834449      734.83121     -22.261959      712.56925    
   1410000   301.83604      0.013034914    5.1914229      748.86353     -20.460294      728.40324    
   1411000   303.09386      0.013034914    5.2178977      751.98422     -17.650957      734.33327    
   1412000   294.44611      0.013034914    5.7638168      730.5289      -19.445432      711.08347    
   1413000   286.90999      0.013034914    11.077489      711.83159     -18.619523      693.21207    
   1414000   310.75495      0.013034914    7.9381134      770.99159     -22.638751      748.35284    
   1415000   302.93866      0.013034914    5.1855868      751.59917     -19.336054      732.26312    
   1416000   294.55205      0.013034914    5.762505       730.79177     -20.711152      710.08061    
   1417000   304.91385      0.013034914    10.680908      756.49966     -20.504786      735.99487    
   1418000   293.36685      0.013034914   -0.11991712     727.85123     -18.286834      709.5644     
   1419000   297.34593      0.013034914    10.066418      737.72345     -20.277215      717.44624    
   1420000   308.96981      0.013034914    12.266624      766.5626      -19.991886      746.57072    
   1421000   300.39703      0.013034914    5.8814218      745.29331     -17.992018      727.30129    
   1422000   288.15934      0.013034914   -3.6831877      714.93127     -20.025439      694.90583    
   1423000   275.00682      0.013034914    3.9590934      682.29951     -23.600828      658.69868    
   1424000   303.7394       0.013034914    12.000627      753.58582     -21.448561      732.13726    
   1425000   308.37079      0.013034914    7.1091608      765.07642     -22.566103      742.51032    
   1426000   288.81042      0.013034914    6.4247863      716.54661     -21.496052      695.05056    
   1427000   301.46637      0.013034914    7.8313741      747.94637     -20.158119      727.78825    
   1428000   306.75803      0.013034914    10.938911      761.07514     -21.725796      739.34934    
   1429000   301.15142      0.013034914    4.0686349      747.16497     -22.518061      724.64691    
   1430000   289.41505      0.013034914    8.0734204      718.04671     -20.025697      698.02102    
   1431000   312.40745      0.013034914    13.955475      775.09148     -20.792888      754.2986     
   1432000   304.98517      0.013034914    4.8251111      756.67662     -22.384726      734.2919     
   1433000   295.47535      0.013034914    6.1339391      733.08249     -20.508819      712.57367    
   1434000   306.90516      0.013034914    7.470015       761.44016     -16.976853      744.46331    
   1435000   299.56117      0.013034914    7.7410434      743.21952     -15.123309      728.09621    
   1436000   301.01157      0.013034914    6.5822559      746.81799     -18.87822       727.93977    
   1437000   300.86679      0.013034914    6.4066965      746.45881     -21.305706      725.1531     
   1438000   313.92542      0.013034914    3.443276       778.85762     -23.09548       755.76214    
   1439000   300.28777      0.013034914    7.2966894      745.02223     -20.521341      724.50089    
   1440000   299.32907      0.013034914    7.3090796      742.64367     -24.683391      717.96027    
   1441000   292.6316       0.013034914    6.4790609      726.02705     -26.891045      699.13601    
   1442000   306.99612      0.013034914    6.9926232      761.66583     -24.015781      737.65005    
   1443000   315.64949      0.013034914    7.7250794      783.13508     -24.078804      759.05628    
   1444000   288.92533      0.013034914    6.6984189      716.83171     -26.328845      690.50286    
   1445000   301.41632      0.013034914    6.0756066      747.82219     -23.389         724.43319    
   1446000   304.66606      0.013034914    7.1908863      755.88488     -23.082658      732.80222    
   1447000   290.07395      0.013034914    8.187277       719.68146     -19.470097      700.21137    
   1448000   297.79845      0.013034914    6.6267034      738.84615     -22.468839      716.37731    
   1449000   299.16514      0.013034914    7.1061661      742.23697     -21.524857      720.71211    
   1450000   302.93456      0.013034914    6.2696936      751.589       -30.482977      721.10602    
   1451000   296.76628      0.013034914    7.0960345      736.28532     -28.787689      707.49763    
   1452000   295.44417      0.013034914    5.4461382      733.00514     -29.465632      703.53951    
   1453000   304.75246      0.013034914    7.4166147      756.09924     -26.652169      729.44707    
   1454000   310.47262      0.013034914    7.4153275      770.29113     -27.622272      742.66886    
   1455000   287.75591      0.013034914    6.6451256      713.93034     -28.925633      685.0047     
   1456000   295.06447      0.013034914    7.6951731      732.06309     -27.242122      704.82096    
   1457000   308.94629      0.013034914    7.6783677      766.50426     -23.728026      742.77624    
   1458000   294.98797      0.013034914    5.6537713      731.87328     -27.484214      704.38907    
   1459000   298.05614      0.013034914    5.7528296      739.48549     -26.273837      713.21165    
   1460000   300.76401      0.013034914    7.8622336      746.2038      -28.291211      717.91259    
   1461000   304.86776      0.013034914    7.0696918      756.38532     -26.895131      729.49019    
   1462000   292.53379      0.013034914    1.9720676      725.7844      -23.288348      702.49605    
   1463000   289.11382      0.013034914    12.115225      717.29936     -25.941029      691.35833    
   1464000   302.74365      0.013034914    10.102351      751.11535     -25.300801      725.81455    
   1465000   306.6855       0.013034914    7.1377832      760.89517     -24.738299      736.15687    
   1466000   294.1076       0.013034914    1.5723831      729.68906     -24.206602      705.48246    
   1467000   296.35802      0.013034914    4.4722554      735.27242     -24.541571      710.73084    
   1468000   304.10483      0.013034914    12.182029      754.49246     -23.132268      731.36019    
   1469000   305.48619      0.013034914    8.5165949      757.91965     -21.358587      736.56106    
   1470000   299.19171      0.013034914    5.1558661      742.30287     -22.080977      720.22189    
   1471000   296.91814      0.013034914    5.4254391      736.66209     -24.438557      712.22353    
   1472000   294.53065      0.013034914    7.9398993      730.73866     -27.053231      703.68543    
   1473000   296.06018      0.013034914    7.906649       734.53346     -22.936103      711.59736    
   1474000   313.47855      0.013034914    6.2016059      777.74893     -27.10615       750.64278    
   1475000   297.37583      0.013034914    6.7863584      737.79764     -29.092744      708.7049     
   1476000   295.81016      0.013034914    10.754574      733.91317     -33.20993       700.70324    
   1477000   300.944        0.013034914    7.2530774      746.65037     -30.881732      715.76863    
   1478000   302.09027      0.013034914   -2.2292439      749.49429     -31.908096      717.58619    
   1479000   295.08143      0.013034914    6.0782572      732.10516     -28.934176      703.17098    
   1480000   293.67853      0.013034914    7.3916554      728.62454     -28.474411      700.15013    
   1481000   299.38761      0.013034914    8.6764588      742.7889      -27.818509      714.97039    
   1482000   298.1928       0.013034914    1.0631387      739.82454     -29.482418      710.34213    
   1483000   300.02881      0.013034914    6.7939201      744.37974     -24.736311      719.64343    
   1484000   301.6251       0.013034914   -3.5097553      748.34019     -26.310478      722.02971    
   1485000   290.97941      0.013034914    10.005262      721.92793     -28.034221      693.89371    
   1486000   306.76784      0.013034914    15.045309      761.09947     -28.827154      732.27231    
   1487000   305.5224       0.013034914    0.050710932    758.00949     -25.371868      732.63762    
   1488000   293.59588      0.013034914    8.2549357      728.41947     -25.366825      703.05265    
   1489000   300.14405      0.013034914    10.217097      744.66567     -23.931489      720.73418    
   1490000   315.12944      0.013034914    3.3520328      781.84482     -28.534641      753.31018    
   1491000   294.99558      0.013034914    6.5961128      731.89217     -26.701679      705.19049    
   1492000   296.76103      0.013034914    10.891566      736.2723      -21.244206      715.02809    
   1493000   314.02674      0.013034914    6.6823323      779.10899     -25.91477       753.19422    
   1494000   292.60861      0.013034914    6.0426717      725.97004     -25.417678      700.55236    
   1495000   285.99251      0.013034914    6.2826497      709.55531     -27.477746      682.07756    
   1496000   306.83596      0.013034914    7.0710172      761.26848     -27.448437      733.82004    
   1497000   311.05035      0.013034914    9.4845823      771.72448     -21.801334      749.92315    
   1498000   293.25655      0.013034914    7.3562494      727.57759     -22.637752      704.93984    
   1499000   291.38776      0.013034914    6.3022937      722.94106     -21.647871      701.29319    
   1500000   295.14283      0.013034914    6.4149115      732.25751     -22.001601      710.25591    
   1501000   319.21201      0.013034914    6.408567       791.9738      -22.70955       769.26425    
   1502000   298.96015      0.013034914    7.6290197      741.72837     -22.463605      719.26477    
   1503000   279.46834      0.013034914    6.4707197      693.36866     -23.199164      670.1695     
   1504000   295.42354      0.013034914    6.0547223      732.95396     -25.214125      707.73983    
   1505000   311.5442       0.013034914    7.2412441      772.94976     -24.358388      748.59137    
   1506000   308.48216      0.013034914    7.2893334      765.35274     -24.390896      740.96184    
   1507000   284.36009      0.013034914    5.70847        705.50523     -23.436864      682.06837    
   1508000   301.84006      0.013034914    7.3232083      748.87352     -19.304557      729.56896    
   1509000   308.70553      0.013034914    7.1767857      765.90693     -18.140316      747.76661    
   1510000   294.24665      0.013034914    7.064865       730.03406     -19.883637      710.15042    
   1511000   295.61978      0.013034914    6.9235621      733.44083     -21.686487      711.75434    
   1512000   308.66595      0.013034914    6.9636764      765.80872     -21.681134      744.12759    
   1513000   300.28392      0.013034914    6.7861846      745.01269     -24.222862      720.78983    
   1514000   282.81275      0.013034914    7.7709663      701.66622     -22.91287       678.75335    
   1515000   318.46414      0.013034914    7.5835716      790.11832     -23.749467      766.36885    
   1516000   308.28863      0.013034914    1.0352214      764.87259     -23.774724      741.09787    
   1517000   290.2904       0.013034914    6.1910436      720.21848     -21.316118      698.90236    
   1518000   298.03228      0.013034914    11.661287      739.42629     -17.401839      722.02445    
   1519000   309.46417      0.013034914    6.0555575      767.78914     -18.468192      749.32094    
   1520000   291.6021       0.013034914    6.6735369      723.47285     -21.559031      701.91382    
   1521000   301.04998      0.013034914    7.106079       746.91331     -24.237068      722.67624    
   1522000   300.34329      0.013034914    7.4262355      745.15998     -24.050053      721.10992    
   1523000   305.56111      0.013034914    6.5686593      758.10554     -23.885761      734.21978    
   1524000   303.46891      0.013034914    7.1175051      752.91474     -23.320977      729.59376    
   1525000   302.23205      0.013034914    6.5744838      749.84604     -26.914811      722.93123    
   1526000   293.4424       0.013034914    7.1293226      728.03869     -25.228934      702.80976    
   1527000   293.56998      0.013034914    6.573438       728.3552      -24.341718      704.01349    
   1528000   292.98703      0.013034914    6.4433595      726.90891     -22.393584      704.51532    
   1529000   304.77932      0.013034914    6.668063       756.1659      -23.876966      732.28893    
   1530000   292.92158      0.013034914    3.8066634      726.74652     -19.10447       707.64205    
   1531000   307.57888      0.013034914    6.434972       763.11167     -15.123764      747.98791    
   1532000   306.29664      0.013034914    7.087659       759.93042     -16.844621      743.0858     
   1533000   285.53305      0.013034914    3.2846531      708.41538     -14.783367      693.63201    
   1534000   299.23458      0.013034914    5.474871       742.40923     -13.70838       728.70085    
   1535000   308.82724      0.013034914    6.6251442      766.2089      -19.327099      746.8818     
   1536000   304.13362      0.013034914    6.6517335      754.56389     -20.728362      733.83553    
   1537000   288.42969      0.013034914    6.9505791      715.60202     -18.114197      697.48782    
   1538000   307.63633      0.013034914    7.6507684      763.25421     -19.524675      743.72954    
   1539000   306.41984      0.013034914    7.1535593      760.23607     -20.295765      739.9403     
   1540000   294.38564      0.013034914    3.5966862      730.37888     -19.640268      710.73861    
   1541000   286.71796      0.013034914    5.3643791      711.35517     -20.7282        690.62697    
   1542000   281.71743      0.013034914    7.9124924      698.94871     -21.274814      677.6739     
   1543000   300.65191      0.013034914    9.3952651      745.92568     -21.890612      724.03506    
   1544000   320.12035      0.013034914    6.5840076      794.22742     -21.094977      773.13244    
   1545000   306.20404      0.013034914    5.8029978      759.70066     -20.752327      738.94833    
   1546000   290.84217      0.013034914    5.0322413      721.58743     -22.563286      699.02414    
   1547000   295.34271      0.013034914    6.7840493      732.75341     -23.558289      709.19512    
   1548000   306.57822      0.013034914    7.1896999      760.629       -26.386384      734.24262    
   1549000   308.73716      0.013034914    8.3252771      765.9854      -25.175485      740.80991    
   1550000   286.35152      0.013034914    10.255526      710.44602     -21.248648      689.19737    
   1551000   293.19486      0.013034914    6.5367931      727.42454     -24.809774      702.61477    
   1552000   306.53691      0.013034914    4.3898661      760.52653     -26.482545      734.04399    
   1553000   319.46718      0.013034914    7.7792235      792.60688     -19.861784      772.74509    
   1554000   295.6657       0.013034914    7.5357548      733.55475     -22.578571      710.97618    
   1555000   288.79664      0.013034914    6.4873382      716.51241     -22.058473      694.45394    
   1556000   297.05056      0.013034914    6.9118371      736.99063     -26.034729      710.9559     
   1557000   308.36654      0.013034914    7.1021947      765.06589     -20.523753      744.54214    
   1558000   296.24844      0.013034914    6.3997059      735.00055     -20.775735      714.22482    
   1559000   306.33996      0.013034914    9.9053476      760.03788     -21.180295      738.85758    
   1560000   297.37608      0.013034914    5.3002817      737.79825     -20.39464       717.40361    
   1561000   309.91304      0.013034914    6.4922001      768.9028      -25.526894      743.37591    
   1562000   295.0314       0.013034914    8.828875       731.98105     -21.668781      710.31226    
   1563000   290.40571      0.013034914    7.3102758      720.50458     -19.974296      700.53028    
   1564000   291.75012      0.013034914    3.245596       723.84009     -20.027049      703.81304    
   1565000   308.88375      0.013034914    4.8883837      766.34909     -20.59649       745.7526     
   1566000   303.47435      0.013034914    7.2788153      752.92822     -19.959513      732.96871    
   1567000   289.9886       0.013034914    8.8618119      719.46972     -19.036093      700.43363    
   1568000   283.14013      0.013034914    9.0822517      702.47846     -18.097742      684.38072    
   1569000   295.06192      0.013034914    5.4093093      732.05676     -16.957798      715.09896    
   1570000   307.07222      0.013034914    4.4773949      761.85464     -14.953035      746.90161    
   1571000   311.88616      0.013034914    7.9540975      773.79817     -13.762343      760.03583    
   1572000   294.38999      0.013034914    9.8690954      730.38969     -17.275538      713.11415    
   1573000   283.34947      0.013034914    5.5359577      702.99784     -16.610294      686.38754    
   1574000   301.01559      0.013034914    6.5056332      746.82799     -16.271968      730.55602    
   1575000   324.64156      0.013034914    5.4199658      805.44466     -21.340388      784.10427    
   1576000   299.11646      0.013034914    8.8439762      742.11618     -24.288912      717.82726    
   1577000   286.77471      0.013034914    10.56384       711.49597     -21.466004      690.02996    
   1578000   302.81814      0.013034914    4.1598775      751.30016     -26.056066      725.2441     
   1579000   307.61592      0.013034914    7.2036865      763.20358     -21.671014      741.53256    
   1580000   298.8716       0.013034914    8.3729994      741.50867     -21.529284      719.97939    
   1581000   291.30697      0.013034914    8.7501971      722.74063     -27.084125      695.6565     
   1582000   296.15511      0.013034914    8.7555343      734.76899     -27.764101      707.00489    
   1583000   301.85965      0.013034914    5.576183       748.9221      -28.584531      720.33757    
   1584000   301.8204       0.013034914    7.9036714      748.82473     -25.697029      723.12771    
   1585000   306.6893       0.013034914    9.1648991      760.9046      -28.444779      732.45982    
   1586000   308.93395      0.013034914    10.162265      766.47365     -25.867492      740.60616    
   1587000   299.59112      0.013034914    6.4278598      743.29383     -24.205089      719.08874    
   1588000   296.52554      0.013034914    5.2401913      735.68803     -21.957453      713.73058    
   1589000   321.56783      0.013034914    13.471186      797.81864     -19.081571      778.73707    
   1590000   301.5087       0.013034914    13.394759      748.0514      -20.333989      727.71742    
   1591000   292.70871      0.013034914   -1.5915568      726.21837     -24.100967      702.1174     
   1592000   303.78914      0.013034914    11.118513      753.70924     -22.388338      731.3209     
   1593000   307.20088      0.013034914    11.689494      762.17386     -22.680704      739.49316    
   1594000   298.33695      0.013034914    7.5427339      740.1822      -19.64779       720.53441    
   1595000   295.47934      0.013034914    0.31213754     733.09239     -23.618258      709.47413    
   1596000   314.37455      0.013034914    7.1066933      779.97192     -26.044477      753.92744    
   1597000   306.95838      0.013034914    11.267621      761.57221     -22.292754      739.27946    
   1598000   300.19513      0.013034914    12.498054      744.7924      -20.675864      724.11654    
   1599000   294.95124      0.013034914    6.5944744      731.78216     -19.579772      712.20239    
   1600000   307.40381      0.013034914    6.6872383      762.67733     -20.432235      742.2451     
   1601000   304.47534      0.013034914    8.3001532      755.41172     -20.363912      735.04781    
   1602000   295.41479      0.013034914    7.9842244      732.93223     -21.493935      711.43829    
   1603000   292.04718      0.013034914    6.9756209      724.57709     -22.218938      702.35816    
   1604000   304.81391      0.013034914    7.0912894      756.25172     -22.701192      733.55053    
   1605000   302.41036      0.013034914    7.5697046      750.28845     -23.313156      726.97529    
   1606000   294.66248      0.013034914    7.1267488      731.06572     -29.426454      701.63927    
   1607000   295.48885      0.013034914    5.9211708      733.11599     -26.985836      706.13015    
   1608000   304.35607      0.013034914    6.8861562      755.1158      -25.608669      729.50713    
   1609000   301.65352      0.013034914    5.7158427      748.4107      -23.439677      724.97102    
   1610000   288.51803      0.013034914    7.1530814      715.82118     -23.099425      692.72175    
   1611000   294.22835      0.013034914    8.0681252      729.98866     -20.893857      709.0948     
   1612000   309.77706      0.013034914    10.005442      768.56541     -21.256823      747.30859    
   1613000   314.89942      0.013034914    5.9765067      781.27414     -18.339149      762.93499    
   1614000   300.53614      0.013034914    5.7691745      745.63845     -22.351975      723.28648    
   1615000   289.54543      0.013034914    8.6263492      718.37018     -18.032594      700.33759    
   1616000   310.13357      0.013034914    13.379532      769.44993     -21.226239      748.22369    
   1617000   311.41015      0.013034914    6.7913146      772.61717     -25.111247      747.50592    
   1618000   297.90616      0.013034914    3.1187775      739.11339     -28.646871      710.46652    
   1619000   288.55896      0.013034914    6.4947437      715.92274     -27.723037      688.1997     
   1620000   298.56535      0.013034914    9.0615037      740.74887     -24.209708      716.53916    
   1621000   311.54278      0.013034914    6.2679919      772.94622     -27.502365      745.44386    
   1622000   306.21112      0.013034914    1.9968454      759.71824     -24.263352      735.45489    
   1623000   295.87697      0.013034914    6.5192731      734.07892     -25.150712      708.92821    
   1624000   299.21968      0.013034914    8.1503911      742.37227     -24.980015      717.39225    
   1625000   304.25186      0.013034914    7.4492443      754.85726     -25.985594      728.87166    
   1626000   330.66984      0.013034914    4.6517445      820.40099     -27.387631      793.01336    
   1627000   297.93874      0.013034914    6.7317984      739.19422     -28.16677       711.02745    
   1628000   283.5646       0.013034914    4.8453833      703.5316      -26.451186      677.08041    
   1629000   316.83728      0.013034914    7.9422594      786.08204     -27.562527      758.51951    
   1630000   303.23954      0.013034914    6.5366973      752.34567     -26.216958      726.12871    
   1631000   286.5175       0.013034914    5.5813276      710.85781     -26.735236      684.12257    
   1632000   297.28058      0.013034914    7.9333246      737.56131     -22.974163      714.58715    
   1633000   303.86075      0.013034914    6.4537347      753.88689     -23.239769      730.64712    
   1634000   319.87221      0.013034914    7.9976687      793.61178     -25.728203      767.88357    
   1635000   289.02143      0.013034914    8.5434487      717.07014     -26.749997      690.32014    
   1636000   277.46053      0.013034914    5.3200115      688.38723     -23.919199      664.46803    
   1637000   306.14162      0.013034914    6.3031856      759.54581     -19.699262      739.84654    
   1638000   312.53384      0.013034914    7.4542219      775.40508     -25.670443      749.73463    
   1639000   294.43233      0.013034914    7.6875708      730.49473     -24.855438      705.63929    
   1640000   289.03768      0.013034914    6.8145894      717.11044     -23.118874      693.99157    
   1641000   303.04407      0.013034914    7.1927213      751.86069     -24.338107      727.52258    
   1642000   311.82784      0.013034914    7.2892048      773.65347     -26.439776      747.2137     
   1643000   293.72401      0.013034914    6.3147794      728.73736     -29.810246      698.92712    
   1644000   299.31615      0.013034914    7.6434006      742.61162     -27.681339      714.93028    
   1645000   317.5548       0.013034914    8.227148       787.86221     -30.991061      756.87115    
   1646000   296.08748      0.013034914    5.9301308      734.60119     -26.7189        707.88229    
   1647000   297.18949      0.013034914    7.4785931      737.33531     -23.667185      713.66812    
   1648000   303.4329       0.013034914    8.2142323      752.82538     -26.449475      726.37591    
   1649000   307.99041      0.013034914    6.9040978      764.1327      -29.397234      734.73547    
   1650000   298.15118      0.013034914    5.470904       739.7213      -28.136003      711.5853     
   1651000   290.63836      0.013034914    7.6469178      721.08177     -24.435289      696.64648    
   1652000   291.46475      0.013034914    6.7819512      723.13209     -23.869377      699.26271    
   1653000   310.68403      0.013034914    7.8420385      770.81563     -24.470624      746.34501    
   1654000   312.85179      0.013034914    14.951363      776.19391     -26.338663      749.85525    
   1655000   291.61732      0.013034914    13.854826      723.51062     -27.892287      695.61833    
   1656000   295.16993      0.013034914    5.8206614      732.32474     -27.272585      705.05216    
   1657000   297.11096      0.013034914    2.8633312      737.14047     -26.230608      710.90987    
   1658000   307.28678      0.013034914    6.1605207      762.38697     -21.66678       740.72019    
   1659000   306.31059      0.013034914    8.8033777      759.96503     -26.797304      733.16773    
   1660000   298.38796      0.013034914    10.889358      740.30875     -26.165477      714.14328    
   1661000   303.88538      0.013034914    6.8510025      753.948       -24.64526       729.30274    
   1662000   310.95413      0.013034914    2.8403593      771.48577     -27.626787      743.85899    
   1663000   303.71362      0.013034914    7.9746294      753.52187     -21.756705      731.76516    
   1664000   287.07785      0.013034914    7.2160768      712.24806     -21.844437      690.40363    
   1665000   306.41436      0.013034914    6.5721502      760.22248     -20.201402      740.02108    
   1666000   301.13079      0.013034914    4.818507       747.1138      -22.363032      724.75077    
   1667000   301.09486      0.013034914    4.6660079      747.02464     -21.162449      725.8622     
   1668000   308.38466      0.013034914    14.074257      765.11083     -22.631213      742.47962    
   1669000   300.05406      0.013034914    10.647803      744.4424      -23.821769      720.62063    
   1670000   290.02723      0.013034914    7.3071146      719.56554     -23.660404      695.90514    
   1671000   292.8221       0.013034914    8.0168459      726.49969     -27.146593      699.3531     
   1672000   295.90607      0.013034914    5.9287007      734.15111     -23.541338      710.60977    
   1673000   302.73031      0.013034914    5.9045987      751.08224     -29.471279      721.61097    
   1674000   300.55547      0.013034914    7.9469205      745.68641     -24.588817      721.0976     
   1675000   303.44279      0.013034914    7.0535331      752.84992     -28.179864      724.67005    
   1676000   296.95178      0.013034914    5.0002017      736.74555     -29.379106      707.36645    
   1677000   305.16487      0.013034914    7.5038181      757.12244     -27.145693      729.97675    
   1678000   302.85416      0.013034914    7.2912881      751.38952     -28.530324      722.8592     
   1679000   306.62035      0.013034914    7.8358555      760.73354     -29.584168      731.14937    
   1680000   295.10636      0.013034914    8.3402057      732.16702     -28.1463        704.02072    
   1681000   285.89102      0.013034914    4.7955823      709.30351     -29.167513      680.136      
   1682000   313.26299      0.013034914    4.8043393      777.2141      -28.949834      748.26427    
   1683000   311.79607      0.013034914    11.270983      773.57465     -27.913802      745.66085    
   1684000   296.41987      0.013034914    10.019333      735.42587     -25.914777      709.51109    
   1685000   294.2634       0.013034914    6.9001864      730.07562     -28.398685      701.67693    
   1686000   299.8722       0.013034914    5.8089051      743.99118     -24.969893      719.02129    
   1687000   317.52851      0.013034914    8.1610957      787.797       -25.078432      762.71856    
   1688000   303.32142      0.013034914    8.06794        752.5488      -24.506722      728.04207    
   1689000   292.85454      0.013034914    6.9503503      726.5802      -22.380884      704.19931    
   1690000   303.68523      0.013034914    7.5943473      753.45142     -24.717854      728.73357    
   1691000   305.46687      0.013034914    5.4551698      757.87172     -27.6862        730.18552    
   1692000   294.13049      0.013034914    6.8135194      729.74586     -23.524251      706.22161    
   1693000   296.44677      0.013034914    7.2658003      735.4926      -26.643976      708.84863    
   1694000   298.05519      0.013034914    1.8498139      739.48315     -22.996744      716.4864     
   1695000   307.2191       0.013034914    7.1798242      762.21907     -24.231034      737.98803    
   1696000   309.47209      0.013034914    9.2840354      767.80878     -23.815434      743.99335    
   1697000   289.64148      0.013034914    10.027489      718.6085      -22.965732      695.64276    
   1698000   297.75897      0.013034914    2.021052       738.74821     -22.990856      715.75735    
   1699000   298.82398      0.013034914    4.4738704      741.39053     -21.365446      720.02508    
   1700000   296.94744      0.013034914    15.679521      736.73478     -23.263648      713.47113    
   1701000   283.90312      0.013034914    8.9477805      704.37148     -22.091654      682.27982    
   1702000   304.54786      0.013034914    4.8386518      755.59163     -24.87374       730.71788    
   1703000   312.74041      0.013034914    9.0871654      775.91758     -23.127173      752.79041    
   1704000   303.88831      0.013034914    13.96888       753.95528     -20.264716      733.69057    
   1705000   291.64649      0.013034914    12.332651      723.58298     -21.026982      702.556      
   1706000   299.45587      0.013034914    3.8456196      742.95827     -20.620507      722.33777    
   1707000   309.36839      0.013034914    7.5054971      767.55151     -21.982191      745.56932    
   1708000   308.20989      0.013034914    11.200822      764.67724     -25.250149      739.42709    
   1709000   285.81376      0.013034914    3.9600054      709.11182     -23.906535      685.20529    
   1710000   303.52059      0.013034914    5.7411496      753.04296     -24.951038      728.09192    
   1711000   317.20108      0.013034914    6.2509732      786.98462     -22.666192      764.31842    
   1712000   308.54852      0.013034914    8.9151746      765.51737     -25.446483      740.07089    
   1713000   296.40184      0.013034914    7.7631004      735.38114     -26.41654       708.9646     
   1714000   295.28915      0.013034914    6.8179597      732.62053     -24.950655      707.66988    
   1715000   318.84245      0.013034914    7.7492364      791.0569      -26.221707      764.8352     
   1716000   297.9817       0.013034914    4.9323221      739.30081     -29.319985      709.98082    
   1717000   288.343        0.013034914    8.1486758      715.38694     -24.771788      690.61515    
   1718000   309.68217      0.013034914    10.151327      768.33001     -25.592534      742.73747    
   1719000   321.52869      0.013034914    5.5089816      797.72155     -22.383857      775.33769    
   1720000   308.33023      0.013034914    3.7419769      764.9758      -23.787409      741.18839    
   1721000   283.32498      0.013034914    9.9084789      702.93707     -20.916641      682.02043    
   1722000   304.51193      0.013034914    8.7507495      755.5025      -22.703888      732.79861    
   1723000   296.5289       0.013034914   -1.7330756      735.69638     -25.504236      710.19215    
   1724000   312.73729      0.013034914    3.2727199      775.90983     -22.875367      753.03446    
   1725000   288.17796      0.013034914    4.0696984      714.97746     -23.752267      691.22519    
   1726000   297.38251      0.013034914    9.0073905      737.81421     -24.793487      713.02073    
   1727000   310.33282      0.013034914    3.5653786      769.94428     -24.235279      745.709      
   1728000   286.44812      0.013034914    6.7621466      710.68568     -20.732037      689.95364    
   1729000   295.76894      0.013034914    8.6572081      733.81089     -22.655511      711.15538    
   1730000   303.88363      0.013034914    7.9195979      753.94367     -23.593151      730.35052    
   1731000   308.73663      0.013034914    7.7687224      765.9841      -26.182849      739.80125    
   1732000   309.87537      0.013034914    4.4280637      768.80933     -26.609767      742.19957    
   1733000   312.16246      0.013034914    3.5814233      774.48368     -26.126726      748.35695    
   1734000   282.04715      0.013034914    10.369647      699.76674     -24.784705      674.98204    
   1735000   304.68721      0.013034914    7.7949358      755.93738     -27.263609      728.67377    
   1736000   300.937        0.013034914    1.1286094      746.633       -24.260258      722.37274    
   1737000   307.80347      0.013034914    7.0457749      763.6689      -22.043597      741.6253     
   1738000   300.45189      0.013034914    7.5037682      745.42943     -21.424132      724.00529    
   1739000   302.98814      0.013034914    5.7622819      751.72193     -22.186907      729.53502    
   1740000   304.18777      0.013034914    3.8684388      754.69825     -20.485853      734.2124     
   1741000   295.43142      0.013034914    1.3769444      732.97351     -23.850305      709.1232     
   1742000   293.39211      0.013034914    11.072146      727.91391     -26.171002      701.74291    
   1743000   306.50529      0.013034914    8.0862442      760.44807     -24.999639      735.44843    
   1744000   311.58175      0.013034914    4.404241       773.04292     -23.441133      749.60178    
   1745000   295.74011      0.013034914    7.6155944      733.73938     -26.217812      707.52157    
   1746000   323.40467      0.013034914    11.330144      802.37589     -23.133978      779.24192    
   1747000   302.8804       0.013034914    6.0005229      751.45461     -27.617021      723.83759    
   1748000   292.26709      0.013034914    6.157567       725.12272     -26.871817      698.2509     
   1749000   293.54591      0.013034914    6.4397014      728.2955      -25.045172      703.25032    
   1750000   294.42043      0.013034914    5.0701258      730.46521     -24.11929       706.34592    
   1751000   302.23635      0.013034914    13.261017      749.85672     -23.59478       726.26194    
   1752000   297.93411      0.013034914    7.212318       739.18275     -21.863418      717.31933    
   1753000   298.04434      0.013034914    3.0518484      739.45622     -22.760485      716.69574    
   1754000   290.01578      0.013034914   -1.4123178      719.53715     -24.288839      695.24831    
   1755000   295.80678      0.013034914    17.535626      733.90478     -23.919059      709.98572    
   1756000   295.88832      0.013034914    25.844754      734.10709     -23.255831      710.85126    
   1757000   305.42449      0.013034914    9.0874513      757.76659     -28.864014      728.90257    
   1758000   296.04378      0.013034914   -2.3631435      734.49277     -28.038642      706.45413    
   1759000   288.90628      0.013034914    9.423007       716.78445     -26.87836       689.90609    
   1760000   312.7033       0.013034914    9.0802222      775.82551     -26.614092      749.21142    
   1761000   297.77207      0.013034914   -6.3797078      738.78071     -28.032184      710.74852    
   1762000   285.80037      0.013034914    4.1892219      709.07861     -25.549788      683.52882    
   1763000   294.08972      0.013034914    14.484227      729.64471     -21.008023      708.63669    
   1764000   315.35348      0.013034914    5.8026432      782.40067     -23.443808      758.95686    
   1765000   302.42257      0.013034914    2.9679418      750.31873     -23.254752      727.06398    
   1766000   289.93323      0.013034914    7.6205221      719.33233     -21.244833      698.0875     
   1767000   304.15544      0.013034914    8.4274819      754.61804     -23.404818      731.21322    
   1768000   309.98742      0.013034914    11.29372       769.08734     -24.758723      744.32862    
   1769000   294.08464      0.013034914    1.5196863      729.63209     -25.716528      703.91556    
   1770000   312.84613      0.013034914    14.992635      776.17987     -27.888691      748.29118    
   1771000   308.54864      0.013034914    13.490617      765.51768     -24.70295       740.81473    
   1772000   308.6556       0.013034914    12.424773      765.78305     -25.888226      739.89482    
   1773000   305.74443      0.013034914    2.3212313      758.56036     -26.20789       732.35247    
   1774000   303.68183      0.013034914   -0.11044933     753.44299     -23.852179      729.59082    
   1775000   302.37946      0.013034914    7.3630434      750.21177     -22.383876      727.82789    
   1776000   301.54357      0.013034914    14.137872      748.13791     -22.88976       725.24815    
   1777000   300.90702      0.013034914    6.1244087      746.55862     -27.435794      719.12282    
   1778000   308.54607      0.013034914    5.0224058      765.51129     -26.806357      738.70494    
   1779000   303.44413      0.013034914   -0.40929585     752.85325     -31.102328      721.75092    
   1780000   301.08438      0.013034914    10.303382      746.99866     -26.844784      720.15387    
   1781000   304.06707      0.013034914    2.9442026      754.39879     -25.240275      729.15851    
   1782000   291.45259      0.013034914    5.5474782      723.1019      -23.027651      700.07425    
   1783000   302.19674      0.013034914    8.7329094      749.75844     -24.779503      724.97894    
   1784000   310.76251      0.013034914    5.8878113      771.01035     -26.478066      744.53228    
   1785000   287.76748      0.013034914    2.4424805      713.95904     -21.025224      692.93382    
   1786000   315.32455      0.013034914    11.662763      782.32891     -24.809408      757.5195     
   1787000   309.64565      0.013034914    5.5575219      768.2394      -20.240921      747.99848    
   1788000   291.38369      0.013034914    4.3964284      722.93096     -20.77207       702.15889    
   1789000   291.61709      0.013034914    6.9701131      723.51004     -19.470282      704.03976    
   1790000   296.09478      0.013034914    12.105739      734.61931     -21.059999      713.55931    
   1791000   310.56107      0.013034914    13.179603      770.51058     -24.122081      746.3885     
   1792000   303.06709      0.013034914    5.9974874      751.9178      -21.736959      730.18084    
   1793000   289.28297      0.013034914   -0.64384473     717.71901     -24.68229       693.03672    
   1794000   297.39339      0.013034914    8.8469066      737.8412      -25.443283      712.39792    
   1795000   315.39585      0.013034914    14.056076      782.5058      -23.930371      758.57543    
   1796000   316.52691      0.013034914    10.415931      785.31199     -18.847573      766.46442    
   1797000   309.24425      0.013034914    4.7541744      767.24351     -18.34377       748.89974    
   1798000   298.48309      0.013034914    5.376321       740.54477     -19.644056      720.90072    
   1799000   298.77692      0.013034914    7.4915559      741.27378     -23.76246       717.51132    
   1800000   304.97532      0.013034914    6.8973949      756.65217     -20.887637      735.76454    
   1801000   306.49282      0.013034914    3.2213929      760.41713     -18.404118      742.01302    
   1802000   299.75406      0.013034914    7.0364971      743.69809     -22.890185      720.8079     
   1803000   295.57796      0.013034914    7.5950045      733.33706     -18.600508      714.73655    
   1804000   306.00959      0.013034914    7.1126805      759.21822     -19.727441      739.49078    
   1805000   307.0812       0.013034914    7.2776744      761.87692     -19.626741      742.25018    
   1806000   298.45145      0.013034914    6.6970391      740.46628     -23.259181      717.2071     
   1807000   295.78574      0.013034914    7.7230149      733.85258     -22.634733      711.21784    
   1808000   306.28776      0.013034914    7.9185266      759.90838     -20.219426      739.68896    
   1809000   320.15355      0.013034914    1.1669991      794.30979     -21.323543      772.98625    
   1810000   282.89866      0.013034914    4.314018       701.87938     -26.540717      675.33866    
   1811000   298.08086      0.013034914    11.979446      739.54683     -21.678109      717.86872    
   1812000   310.85252      0.013034914   -1.4573579      771.23368     -18.706626      752.52705    
   1813000   318.14345      0.013034914    0.58060406     789.32266     -18.436222      770.88644    
   1814000   296.00382      0.013034914    9.8611315      734.39364     -23.019458      711.37418    
   1815000   305.58523      0.013034914    7.7307382      758.16538     -22.913266      735.25211    
   1816000   307.30706      0.013034914    6.2156699      762.43728     -20.915809      741.52147    
   1817000   292.45615      0.013034914    4.0822886      725.59177     -18.571251      707.02052    
   1818000   291.1265       0.013034914    6.9249171      722.29288     -19.252504      703.04038    
   1819000   307.1827       0.013034914    15.463497      762.12874     -21.596347      740.53239    
   1820000   309.31619      0.013034914    5.6864165      767.422       -24.212891      743.20911    
   1821000   296.3413       0.013034914    6.6870737      735.23095     -23.688864      711.54208    
   1822000   284.54156      0.013034914    3.4956206      705.95545     -20.855875      685.09958    
   1823000   294.50024      0.013034914    8.1060587      730.66321     -23.257113      707.4061     
   1824000   307.56521      0.013034914    11.409923      763.07777     -24.053765      739.024      
   1825000   304.53339      0.013034914    6.0298171      755.55574     -26.071313      729.48443    
   1826000   291.35924      0.013034914    4.4124508      722.87031     -29.835359      693.03495    
   1827000   307.06098      0.013034914    13.436831      761.82675     -24.162955      737.66379    
   1828000   314.79521      0.013034914    6.2261849      781.01559     -23.628145      757.38745    
   1829000   301.33773      0.013034914    6.6212311      747.62721     -23.475259      724.15195    
   1830000   296.99889      0.013034914    4.5095633      736.86244     -21.346495      715.51594    
   1831000   306.27867      0.013034914    9.6860006      759.88582     -22.790199      737.09563    
   1832000   315.23218      0.013034914    7.2083873      782.09972     -22.099966      759.99975    
   1833000   288.41499      0.013034914    4.9220154      715.56555     -22.780999      692.78455    
   1834000   293.63393      0.013034914    6.4752683      728.51389     -22.155118      706.35877    
   1835000   321.24372      0.013034914    11.824931      797.01453     -19.842671      777.17186    
   1836000   303.28836      0.013034914    1.9435507      752.46678     -20.325235      732.14155    
   1837000   293.06001      0.013034914    7.6185244      727.08997     -20.108419      706.98155    
   1838000   303.68792      0.013034914    8.8805342      753.4581      -22.870832      730.58727    
   1839000   307.15326      0.013034914    7.1974918      762.0557      -21.88369       740.17201    
   1840000   299.17762      0.013034914    0.38799199     742.26791     -21.665577      720.60234    
   1841000   295.66207      0.013034914    10.283363      733.54575     -21.263107      712.28265    
   1842000   309.18608      0.013034914    6.0197442      767.09919     -26.062832      741.03636    
   1843000   311.1494       0.013034914    3.7184029      771.97024     -22.938378      749.03186    
   1844000   289.98791      0.013034914    9.5584576      719.468       -21.363396      698.1046     
   1845000   298.84668      0.013034914    19.81294       741.44684     -22.296642      719.1502     
   1846000   310.33395      0.013034914    5.1970902      769.94708     -20.911578      749.0355     
   1847000   301.64898      0.013034914   -2.2715651      748.39945     -22.400666      725.99878    
   1848000   298.96673      0.013034914    6.2264211      741.74469     -19.446715      722.29798    
   1849000   290.90763      0.013034914    9.2695904      721.74985     -21.21565       700.5342     
   1850000   303.72895      0.013034914    7.9259839      753.55991     -20.993455      732.56645    
   1851000   303.13023      0.013034914    6.1763897      752.07445     -25.515216      726.55923    
   1852000   302.87422      0.013034914    6.4957305      751.4393      -28.497795      722.9415     
   1853000   298.53758      0.013034914    6.8311987      740.67996     -27.041226      713.63873    
   1854000   297.82477      0.013034914    7.1103378      738.91148     -23.859757      715.05172    
   1855000   297.37933      0.013034914    7.1970282      737.80631     -29.961874      707.84444    
   1856000   295.6419       0.013034914    6.0315609      733.49571     -27.733093      705.76261    
   1857000   302.43131      0.013034914    6.3375212      750.34041     -28.94932       721.39109    
   1858000   314.46834      0.013034914    8.4433656      780.20462     -25.038799      755.16582    
   1859000   307.24102      0.013034914    7.3533934      762.27344     -27.251031      735.0224     
   1860000   299.11679      0.013034914    6.260821       742.11701     -24.634976      717.48203    
   1861000   297.2742       0.013034914    3.3650277      737.54549     -22.727898      714.81759    
   1862000   301.2133       0.013034914    7.9181691      747.3185      -23.852108      723.46639    
   1863000   308.16674      0.013034914    10.816678      764.57017     -22.243351      742.32682    
   1864000   296.83958      0.013034914    6.6880472      736.46719     -22.33872       714.12847    
   1865000   291.91889      0.013034914    5.5276597      724.2588      -23.135891      701.12291    
   1866000   311.74703      0.013034914    9.6736235      773.45298     -18.87569       754.57729    
   1867000   305.63956      0.013034914    7.3520753      758.30019     -20.42852       737.87167    
   1868000   294.11         0.013034914    6.8356747      729.69503     -16.98093       712.7141     
   1869000   290.0245       0.013034914    6.1210659      719.55878     -20.16087       699.39791    
   1870000   308.47096      0.013034914    7.0229233      765.32495     -22.134644      743.1903     
   1871000   308.81734      0.013034914    7.6721111      766.18433     -19.701561      746.48277    
   1872000   301.22275      0.013034914    6.6580833      747.34195     -20.26811       727.07384    
   1873000   294.81818      0.013034914    6.9849706      731.45204     -22.643947      708.80809    
   1874000   294.35692      0.013034914    5.5489168      730.30764     -23.447646      706.85999    
   1875000   305.50992      0.013034914    7.4604929      757.97852     -22.313906      735.66462    
   1876000   304.65695      0.013034914    6.652093       755.8623      -18.70053       737.16177    
   1877000   293.15395      0.013034914    7.555998       727.32304     -16.708079      710.61496    
   1878000   298.07979      0.013034914    8.5262684      739.54416     -14.388045      725.15612    
   1879000   306.30807      0.013034914    7.6169123      759.95877     -16.555808      743.40296    
   1880000   299.25377      0.013034914    4.9662869      742.45686     -18.65669       723.80017    
   1881000   302.51612      0.013034914    7.2218019      750.55084     -19.193686      731.35715    
   1882000   301.08932      0.013034914    7.1696777      747.01091     -21.210557      725.80036    
   1883000   297.63849      0.013034914    6.9454047      738.44931     -20.766429      717.68288    
   1884000   291.25418      0.013034914    10.273229      722.60966     -25.822983      696.78667    
   1885000   302.59722      0.013034914    6.07162        750.75205     -27.471747      723.2803     
   1886000   302.88041      0.013034914    4.4078834      751.45463     -27.170838      724.2838     
   1887000   300.04958      0.013034914    6.9250894      744.43128     -26.7814        717.64988    
   1888000   302.13893      0.013034914    8.7693175      749.61502     -25.312692      724.30233    
   1889000   305.37938      0.013034914    7.7026034      757.65467     -26.301582      731.35309    
   1890000   300.77323      0.013034914    0.77293468     746.22668     -27.064119      719.16256    
   1891000   290.53675      0.013034914    9.5324901      720.82968     -27.900574      692.9291     
   1892000   292.37746      0.013034914    6.7139851      725.39654     -25.196713      700.19983    
   1893000   309.11864      0.013034914   -2.2579633      766.93186     -23.348925      743.58293    
   1894000   312.10657      0.013034914    8.2101123      774.34499     -24.879203      749.46579    
   1895000   298.69023      0.013034914    7.7521823      741.05869     -25.028382      716.0303     
   1896000   290.93183      0.013034914    12.351526      721.80988     -24.441642      697.36824    
   1897000   314.4867       0.013034914    1.6815965      780.25017     -27.782756      752.46742    
   1898000   295.31458      0.013034914    7.0705925      732.68361     -23.240179      709.44343    
   1899000   294.96015      0.013034914    8.632389       731.80426     -19.820482      711.98378    
   1900000   296.9299       0.013034914    5.5918199      736.69127     -21.71062       714.98065    
   1901000   300.20029      0.013034914    4.9410666      744.80521     -22.752558      722.05265    
   1902000   306.59205      0.013034914    13.282978      760.66332     -23.216604      737.44671    
   1903000   306.09661      0.013034914    18.281574      759.43412     -26.452187      732.98193    
   1904000   294.34381      0.013034914    15.31105       730.27511     -23.392697      706.88242    
   1905000   296.67335      0.013034914    4.2137124      736.05477     -21.954124      714.10064    
   1906000   304.45446      0.013034914   -4.0473864      755.35992     -22.4569        732.90302    
   1907000   294.07672      0.013034914    14.475666      729.61245     -20.633583      708.97886    
   1908000   296.86641      0.013034914   -2.3234482      736.53375     -24.113537      712.42021    
   1909000   311.59515      0.013034914    4.349673       773.07615     -20.507957      752.5682     
   1910000   322.14813      0.013034914    8.7411512      799.25838     -19.252257      780.00612    
   1911000   307.08871      0.013034914    24.09977       761.89556     -21.309464      740.5861     
   1912000   299.35109      0.013034914    10.834445      742.69831     -24.068436      718.62987    
   1913000   296.46389      0.013034914    5.8376844      735.53508     -21.410363      714.12471    
   1914000   291.79554      0.013034914    4.1959852      723.95277     -23.07177       700.881      
   1915000   311.41624      0.013034914    8.4791457      772.63226     -23.70091       748.93135    
   1916000   299.3643       0.013034914    12.498667      742.73107     -24.87379       717.85728    
   1917000   290.08827      0.013034914    11.76491       719.71699     -23.574207      696.14278    
   1918000   293.05318      0.013034914    4.4991547      727.07301     -20.638305      706.43471    
   1919000   303.61333      0.013034914   -1.0967378      753.27303     -20.589971      732.68306    
   1920000   315.93917      0.013034914    15.006875      783.85379     -17.487699      766.36609    
   1921000   301.17796      0.013034914    13.248538      747.23081     -21.417333      725.81348    
   1922000   294.25294      0.013034914    5.987061       730.04965     -26.837157      703.21249    
   1923000   296.26623      0.013034914    3.3161777      735.04468     -22.569289      712.47539    
   1924000   306.99622      0.013034914    19.75944       761.66608     -22.1261        739.53998    
   1925000   295.63193      0.013034914    13.989907      733.47096     -22.428909      711.04205    
   1926000   297.50505      0.013034914    5.7478064      738.11824     -20.642304      717.47593    
   1927000   296.93758      0.013034914    4.8594136      736.71031     -19.565255      717.14506    
   1928000   309.42464      0.013034914    7.8786725      767.69107     -20.476912      747.21416    
   1929000   314.11122      0.013034914    13.828257      779.31859     -20.757832      758.56076    
   1930000   296.77845      0.013034914    9.5585899      736.31552     -28.551462      707.76406    
   1931000   293.33278      0.013034914    12.060287      727.76672     -22.202339      705.56438    
   1932000   295.38302      0.013034914    7.2557775      732.85342     -20.385186      712.46823    
   1933000   308.39667      0.013034914   -6.9496622      765.14064     -19.44657       745.69407    
   1934000   310.10074      0.013034914    8.7949267      769.36849     -21.570114      747.79837    
   1935000   293.59631      0.013034914    10.947119      728.42054     -24.033125      704.38742    
   1936000   295.16536      0.013034914    7.2146645      732.31339     -23.522034      708.79135    
   1937000   314.46884      0.013034914    6.5252109      780.20585     -24.295492      755.91036    
   1938000   300.24756      0.013034914    7.7527575      744.92247     -18.71107       726.2114     
   1939000   293.28619      0.013034914    8.855792       727.65112     -23.097842      704.55328    
   1940000   294.12292      0.013034914    7.4589226      729.72706     -21.600358      708.1267     
   1941000   300.33949      0.013034914    5.0693222      745.15055     -21.667468      723.48308    
   1942000   303.46765      0.013034914    7.6223338      752.91161     -19.710943      733.20066    
   1943000   291.16463      0.013034914    8.4103668      722.38748     -18.815508      703.57197    
   1944000   301.27288      0.013034914    3.9253335      747.46631     -23.867354      723.59896    
   1945000   314.66972      0.013034914    6.4356107      780.70424     -20.994805      759.70944    
   1946000   301.27568      0.013034914    17.532582      747.47327     -21.656298      725.81697    
   1947000   291.46762      0.013034914    10.475023      723.13919     -20.933906      702.20528    
   1948000   302.25119      0.013034914    5.4587766      749.89354     -26.105822      723.78772    
   1949000   307.47425      0.013034914    6.3925151      762.85209     -24.879125      737.97297    
   1950000   295.31998      0.013034914    11.531732      732.69701     -23.017332      709.67968    
   1951000   297.86349      0.013034914    0.61731571     739.00754     -23.768707      715.23883    
   1952000   306.28606      0.013034914    6.6805672      759.90416     -23.268647      736.63552    
   1953000   306.01324      0.013034914    9.1340976      759.22729     -25.765821      733.46147    
   1954000   290.5475       0.013034914    5.8347514      720.85636     -23.447904      697.40846    
   1955000   299.55145      0.013034914    6.6220799      743.19541     -21.062202      722.13321    
   1956000   305.03739      0.013034914    7.0070793      756.80617     -21.211488      735.59469    
   1957000   307.82923      0.013034914    6.6869182      763.73281     -23.325568      740.40724    
   1958000   298.66051      0.013034914    6.5242433      740.98496     -28.086706      712.89825    
   1959000   302.23816      0.013034914    7.9614485      749.86122     -29.31572       720.5455     
   1960000   308.90825      0.013034914    7.5432557      766.40988     -24.569982      741.8399     
   1961000   295.17091      0.013034914    6.9513722      732.32716     -26.570306      705.75686    
   1962000   300.47639      0.013034914    7.582263       745.49021     -25.64345       719.84676    
   1963000   296.56187      0.013034914    7.1321252      735.77818     -22.83591       712.94227    
   1964000   306.1236       0.013034914    6.364925       759.50108     -21.502706      737.99838    
   1965000   296.19842      0.013034914    6.6939705      734.87643     -21.773538      713.1029     
   1966000   306.35095      0.013034914    7.0794307      760.06514     -22.395314      737.66983    
   1967000   301.12737      0.013034914    8.2341826      747.1053      -17.339489      729.76581    
   1968000   313.37701      0.013034914    7.4921876      777.497       -19.250865      758.24614    
   1969000   306.86135      0.013034914    8.564332       761.33147     -17.314309      744.01716    
   1970000   294.09388      0.013034914    8.4791719      729.65503     -20.762608      708.89242    
   1971000   300.23858      0.013034914    8.2357354      744.9002      -18.006893      726.89331    
   1972000   294.06207      0.013034914    6.4966435      729.57609     -21.394425      708.18167    
   1973000   301.34372      0.013034914    5.5277657      747.64207     -20.255481      727.38659    
   1974000   296.47787      0.013034914    10.417946      735.56977     -15.061286      720.50849    
   1975000   298.52887      0.013034914    6.6980261      740.65836     -18.804787      721.85358    
   1976000   310.9981       0.013034914    6.7269627      771.59486     -21.73969       749.85517    
   1977000   298.84262      0.013034914    6.8426219      741.43677     -20.303064      721.13371    
   1978000   289.42676      0.013034914    3.5846934      718.07576     -22.137379      695.93838    
   1979000   299.05752      0.013034914    6.8125019      741.96994     -20.828694      721.14125    
   1980000   287.71471      0.013034914    6.6198928      713.82813     -19.608674      694.21945    
   1981000   305.20245      0.013034914    7.7652318      757.21569     -21.712521      735.50317    
   1982000   305.7627       0.013034914    7.4170426      758.60569     -20.717181      737.88851    
   1983000   308.0448       0.013034914    6.9222876      764.26764     -26.201788      738.06585    
   1984000   290.38895      0.013034914    7.1713273      720.46299     -20.821122      699.64187    
   1985000   309.67757      0.013034914    8.4378892      768.31858     -18.846726      749.47186    
   1986000   298.75347      0.013034914    6.7517126      741.2156      -22.58633       718.62927    
   1987000   289.87466      0.013034914    6.8427864      719.18702     -22.58793       696.59909    
   1988000   316.13228      0.013034914    9.2992749      784.33289     -22.07844       762.25445    
   1989000   310.40615      0.013034914    7.3999325      770.12622     -19.599609      750.52661    
   1990000   280.07224      0.013034914    6.1467978      694.86695     -23.437061      671.42989    
   1991000   297.75871      0.013034914    6.2743011      738.74756     -23.678172      715.06939    
   1992000   311.42731      0.013034914    6.9299919      772.65975     -29.087061      743.57269    
   1993000   300.70727      0.013034914    7.224962       746.06304     -33.655149      712.40789    
   1994000   296.49855      0.013034914    7.2128441      735.62108     -33.582333      702.03875    
   1995000   298.63029      0.013034914    6.4674185      740.90998     -29.927971      710.98201    
   1996000   312.71319      0.013034914    7.3838435      775.85006     -21.536467      754.31359    
   1997000   284.8549       0.013034914    8.8574414      706.73286     -25.86089       680.87197    
   1998000   291.12804      0.013034914    6.671013       722.29668     -25.171258      697.12542    
   1999000   310.14647      0.013034914    5.1821108      769.48194     -23.159973      746.32197    
   2000000   307.53119      0.013034914    7.0931453      762.99337     -20.322921      742.67045    
   2001000   296.00088      0.013034914    7.5154419      734.38635     -23.079536      711.30681    
   2002000   291.26175      0.013034914    6.9742243      722.62844     -22.362475      700.26597    
   2003000   304.66266      0.013034914    7.4963869      755.87645     -19.037184      736.83926    
   2004000   308.96159      0.013034914    7.4023394      766.54222     -20.40422       746.138      
   2005000   296.76919      0.013034914    7.0377456      736.29255     -18.63795       717.6546     
   2006000   299.16502      0.013034914    9.0416265      742.23667     -18.887338      723.34933    
   2007000   311.65293      0.013034914    5.6384319      773.21952     -26.911904      746.30761    
   2008000   300.87981      0.013034914    2.078165       746.49111     -26.351533      720.13958    
   2009000   286.57514      0.013034914    8.6235361      711.00082     -24.145947      686.85487    
   2010000   302.95455      0.013034914    10.29374       751.63859     -22.813912      728.82468    
   2011000   300.93888      0.013034914    2.8213         746.63765     -19.430133      727.20752    
   2012000   303.0373       0.013034914    7.0994067      751.84389     -24.005831      727.83806    
   2013000   305.03744      0.013034914    7.4571209      756.8063      -23.714536      733.09177    
   2014000   275.7637       0.013034914    5.236453       684.17734     -25.452318      658.72502    
   2015000   293.56797      0.013034914    6.5900015      728.35023     -23.162062      705.18817    
   2016000   307.02508      0.013034914    7.146848       761.73769     -24.125858      737.61183    
   2017000   308.10448      0.013034914    4.5449952      764.4157      -27.891968      736.52373    
   2018000   284.07335      0.013034914    6.6633394      704.7938      -25.60691       679.18689    
   2019000   285.53369      0.013034914    7.6366128      708.41695     -24.360168      684.05678    
   2020000   310.66639      0.013034914    8.4865287      770.77188     -19.529106      751.24277    
   2021000   305.60406      0.013034914    5.8267327      758.2121      -21.595518      736.61658    
   2022000   301.67807      0.013034914    6.0578034      748.47162     -24.63856       723.83306    
   2023000   303.13126      0.013034914    6.0620919      752.07702     -22.43504       729.64198    
   2024000   312.13101      0.013034914    8.5083814      774.40564     -20.524765      753.88087    
   2025000   303.24224      0.013034914    6.2351001      752.35237     -21.900216      730.45215    
   2026000   284.34695      0.013034914    5.7211133      705.47262     -22.048597      683.42403    
   2027000   298.24479      0.013034914    9.3511342      739.95355     -21.435625      718.51792    
   2028000   313.62417      0.013034914    8.0277891      778.11022     -24.647394      753.46283    
   2029000   303.77421      0.013034914    6.8139975      753.6722      -23.773502      729.89869    
   2030000   295.40813      0.013034914    6.3387746      732.91572     -20.835015      712.0807     
   2031000   287.67157      0.013034914    6.9143183      713.72109     -19.754179      693.96691    
   2032000   310.65868      0.013034914    9.282032       770.75275     -20.293243      750.45951    
   2033000   307.01813      0.013034914    5.3728254      761.72043     -20.179343      741.54109    
   2034000   296.3544       0.013034914    0.18790663     735.26343     -21.381254      713.88218    
   2035000   290.66556      0.013034914    16.108553      721.14927     -19.060681      702.08859    
   2036000   305.93259      0.013034914    4.9884477      759.02719     -22.744914      736.28228    
   2037000   289.80612      0.013034914    0.90447968     719.01697     -26.835404      692.18157    
   2038000   297.47359      0.013034914    13.778057      738.04017     -22.681012      715.35915    
   2039000   303.73289      0.013034914    5.7652663      753.56967     -25.222232      728.34744    
   2040000   295.79238      0.013034914   -1.8647493      733.86904     -28.015396      705.85365    
   2041000   296.81788      0.013034914    6.481274       736.41335     -24.132487      712.28086    
   2042000   304.49751      0.013034914    7.0127979      755.46672     -24.714105      730.75261    
   2043000   308.02163      0.013034914    7.9977261      764.21015     -20.05404       744.15611    
   2044000   294.0661       0.013034914   -0.90000165     729.58609     -21.025158      708.56094    
   2045000   298.51188      0.013034914    9.4377269      740.6162      -24.704095      715.9121     
   2046000   313.57372      0.013034914    15.729204      777.98505     -26.380117      751.60494    
   2047000   303.7418       0.013034914    5.2228569      753.59179     -27.681988      725.9098     
   2048000   293.88104      0.013034914    1.0766514      729.12697     -25.906534      703.22044    
   2049000   287.11072      0.013034914    8.1089871      712.32962     -24.029643      688.29998    
   2050000   305.04788      0.013034914    11.810814      756.83221     -27.494811      729.3374     
   2051000   301.65422      0.013034914    3.043092       748.41244     -30.59122       717.82121    
   2052000   288.71158      0.013034914    7.1127778      716.30138     -27.878027      688.42335    
   2053000   315.03696      0.013034914    8.8608024      781.61539     -27.683608      753.93178    
   2054000   300.68523      0.013034914    6.1826671      746.00833     -20.839312      725.16902    
   2055000   279.23979      0.013034914    7.4832749      692.80161     -21.213267      671.58834    
   2056000   304.95699      0.013034914    8.9736662      756.60669     -21.764745      734.84194    
   2057000   317.0343       0.013034914    9.2854876      786.57084     -22.187327      764.38351    
   2058000   306.45003      0.013034914    7.2290913      760.31096     -19.938462      740.3725     
   2059000   293.97905      0.013034914    6.5901992      729.37012     -18.174258      711.19586    
   2060000   300.51557      0.013034914    8.1555682      745.58741     -21.186731      724.40068    
   2061000   308.06643      0.013034914    7.0759558      764.32131     -24.421099      739.90021    
   2062000   294.77705      0.013034914    5.4347774      731.34999     -27.134847      704.21514    
   2063000   285.37181      0.013034914    11.583165      708.01532     -29.548674      678.46664    
   2064000   304.39306      0.013034914    7.5189785      755.20758     -30.6308        724.57678    
   2065000   307.64469      0.013034914    1.4740332      763.27496     -27.525627      735.74933    
   2066000   293.87304      0.013034914    5.2558681      729.10711     -27.225374      701.88173    
   2067000   308.33976      0.013034914    18.186546      764.99944     -27.917079      737.08236    
   2068000   303.95755      0.013034914    5.1482812      754.12705     -27.242551      726.8845     
   2069000   302.48446      0.013034914    2.3741702      750.47227     -27.294996      723.17728    
   2070000   290.33505      0.013034914    8.5958906      720.32926     -26.995596      693.33366    
   2071000   299.72685      0.013034914    10.403621      743.63059     -27.759362      715.87123    
   2072000   314.51545      0.013034914    1.7157774      780.32149     -28.344296      751.97719    
   2073000   309.0155       0.013034914    1.9802231      766.67598     -29.590135      737.08585    
   2074000   286.66973      0.013034914   -4.761802       711.2355      -28.509334      682.72616    
   2075000   294.12034      0.013034914    6.6174638      729.72067     -25.576175      704.14449    
   2076000   311.37259      0.013034914    9.8562071      772.52398     -26.013007      746.51097    
   2077000   308.20887      0.013034914    0.26154457     764.6747      -27.175248      737.49945    
   2078000   291.75076      0.013034914    3.0694071      723.84169     -28.394005      695.44768    
   2079000   302.10875      0.013034914    14.749763      749.54012     -26.472344      723.06778    
   2080000   308.6299       0.013034914    4.1889267      765.71929     -29.200916      736.51837    
   2081000   299.32419      0.013034914   -0.059248767    742.63158     -27.690234      714.94134    
   2082000   287.15541      0.013034914    8.2427927      712.44048     -26.551083      685.88939    
   2083000   297.49622      0.013034914    12.348979      738.09633     -26.115437      711.98089    
   2084000   299.0311       0.013034914    12.578801      741.9044      -22.212424      719.69197    
   2085000   297.24248      0.013034914    6.7568542      737.46679     -20.503858      716.96293    
   2086000   306.32225      0.013034914    4.2960464      759.99394     -23.181592      736.81235    
   2087000   295.10502      0.013034914    3.6939978      732.16368     -21.09418       711.0695     
   2088000   291.00488      0.013034914    9.8188568      721.99114     -20.97805       701.01309    
   2089000   300.73977      0.013034914    12.373935      746.14366     -21.546909      724.59675    
   2090000   296.71997      0.013034914    4.1767368      736.17042     -20.305187      715.86523    
   2091000   286.07001      0.013034914    8.5894581      709.74758     -21.164617      688.58296    
   2092000   298.26222      0.013034914    6.9412012      739.99679     -21.451828      718.54496    
   2093000   295.27213      0.013034914    7.3509687      732.57829     -19.064923      713.51336    
   2094000   303.10648      0.013034914    8.2218133      752.01552     -17.936336      734.07919    
   2095000   300.3991       0.013034914    6.5500195      745.29845     -22.116113      723.18234    
   2096000   299.21049      0.013034914    5.9281469      742.34949     -20.542802      721.80668    
   2097000   307.70782      0.013034914    7.0444564      763.43157     -22.073471      741.3581     
   2098000   295.6658       0.013034914    7.6971215      733.55501     -15.82701       717.728      
   2099000   295.94418      0.013034914    9.1469461      734.24567     -17.171952      717.07372    
   2100000   302.27657      0.013034914    7.4351217      749.9565      -17.469975      732.48652    
   2101000   301.48791      0.013034914    7.696          747.99982     -17.600131      730.39969    
   2102000   295.63851      0.013034914    3.226663       733.48728     -15.553687      717.93359    
   2103000   308.17466      0.013034914    6.8270645      764.58983     -14.742346      749.84749    
   2104000   312.87145      0.013034914    10.004412      776.24269     -18.973617      757.26907    
   2105000   294.17554      0.013034914    6.7403361      729.85762     -19.870846      709.98677    
   2106000   301.81297      0.013034914    6.5808422      748.80629     -15.873405      732.93289    
   2107000   306.7001       0.013034914    9.8629642      760.9314      -20.328999      740.6024     
   2108000   300.03024      0.013034914    6.6191712      744.3833      -18.648452      725.73485    
   2109000   298.86268      0.013034914    5.1393801      741.48656     -20.501309      720.98525    
   2110000   299.55281      0.013034914    6.8468453      743.19878     -19.878446      723.32033    
   2111000   311.90936      0.013034914    7.1790398      773.85572     -19.443058      754.41266    
   2112000   292.43459      0.013034914    6.5989482      725.53828     -20.980751      704.55753    
   2113000   297.46244      0.013034914    6.8033978      738.01251     -26.287021      711.72548    
   2114000   309.08187      0.013034914    6.9270232      766.84063     -28.720052      738.12058    
   2115000   304.19066      0.013034914    9.4761355      754.7054      -22.600113      732.10529    
   2116000   282.51474      0.013034914    6.2014107      700.92686     -24.219032      676.70783    
   2117000   311.91856      0.013034914    4.3293993      773.87855     -25.171334      748.70722    
   2118000   305.88439      0.013034914    9.0749876      758.9076      -24.95062       733.95698    
   2119000   297.47191      0.013034914    5.9563913      738.03601     -19.238485      718.79752    
   2120000   294.09208      0.013034914    6.8787025      729.65057     -17.167592      712.48297    
   2121000   315.90016      0.013034914    7.3218821      783.75701     -13.008068      770.74894    
   2122000   305.57544      0.013034914    5.6036963      758.1411      -13.792382      744.34872    
   2123000   292.62401      0.013034914    6.7837645      726.00825     -17.189528      708.81872    
   2124000   289.08224      0.013034914    9.0408975      717.22101     -18.153265      699.06775    
   2125000   314.99458      0.013034914    7.977446       781.51023     -20.609947      760.90029    
   2126000   301.83996      0.013034914    5.727665       748.87326     -16.040701      732.83256    
   2127000   287.81932      0.013034914    7.9800197      714.08768     -20.952205      693.13547    
   2128000   292.44149      0.013034914    7.8893116      725.55539     -20.535884      705.0195     
   2129000   322.48856      0.013034914    7.5333043      800.10301     -22.435937      777.66707    
   2130000   301.48084      0.013034914    7.4751844      747.98228     -23.343586      724.63869    
   2131000   286.08265      0.013034914    9.0460158      709.77895     -20.543189      689.23576    
   2132000   289.66423      0.013034914    6.1724391      718.66494     -21.109543      697.5554     
   2133000   311.14854      0.013034914    6.2491411      771.9681      -23.723745      748.24436    
   2134000   300.51023      0.013034914    11.360586      745.57417     -22.540605      723.03356    
   2135000   298.35233      0.013034914    6.9911318      740.22034     -19.840967      720.37938    
   2136000   301.14018      0.013034914    6.855246       747.13708     -23.650881      723.4862     
   2137000   311.9221       0.013034914    9.5715396      773.88734     -20.234523      753.65282    
   2138000   326.08817      0.013034914    9.0138242      809.03375     -19.41911       789.61464    
   2139000   291.57499      0.013034914    10.052261      723.40559     -18.202552      705.20304    
   2140000   290.98333      0.013034914    7.2098979      721.93766     -15.961877      705.97579    
   2141000   305.58543      0.013034914    2.193247       758.16588     -16.356753      741.80912    
   2142000   305.41964      0.013034914    9.7480879      757.75455     -14.504743      743.24981    
   2143000   286.9755       0.013034914    2.3921038      711.99413     -15.967396      696.02673    
   2144000   300.06918      0.013034914   -4.5720895      744.47991     -17.686889      726.79302    
   2145000   321.75702      0.013034914    10.485643      798.28803     -14.371222      783.91681    
   2146000   305.91007      0.013034914    6.5921045      758.97132     -17.241817      741.7295     
   2147000   286.51281      0.013034914    13.222612      710.84619     -17.861639      692.98455    
   2148000   286.29233      0.013034914    1.4724683      710.29916     -16.187146      694.11201    
   2149000   312.63239      0.013034914    7.4665948      775.64958     -16.758514      758.89106    
   2150000   297.35917      0.013034914    11.908604      737.75631     -16.551454      721.20485    
   2151000   286.13706      0.013034914    6.6612502      709.91392     -17.467921      692.446      
   2152000   290.96873      0.013034914    8.2780009      721.90144     -22.122989      699.77845    
   2153000   304.98279      0.013034914    6.0792373      756.67071     -15.830374      740.84033    
   2154000   316.10972      0.013034914    9.915082       784.27692     -22.251278      762.02564    
   2155000   292.30117      0.013034914    7.4879498      725.20725     -20.109578      705.09767    
   2156000   303.27585      0.013034914    6.747961       752.43573     -19.252064      733.18367    
   2157000   293.77583      0.013034914    7.5105489      728.86593     -16.881865      711.98406    
   2158000   292.3986       0.013034914    10.359838      725.44898     -18.011579      707.4374     
   2159000   303.90654      0.013034914    6.8699824      754.0005      -20.305722      733.69477    
   2160000   300.92311      0.013034914    6.3702626      746.59854     -23.692256      722.90628    
   2161000   296.82862      0.013034914    7.7855353      736.44        -24.511921      711.92808    
   2162000   306.1014       0.013034914    7.5141225      759.44601     -21.757421      737.68859    
   2163000   298.56949      0.013034914    7.8662449      740.75915     -24.057374      716.70177    
   2164000   303.99742      0.013034914    7.8911988      754.22599     -20.739331      733.48666    
   2165000   301.08958      0.013034914    5.7885091      747.01156     -21.962741      725.04882    
   2166000   300.05905      0.013034914    5.3077876      744.45478     -22.712234      721.74254    
   2167000   305.37993      0.013034914    15.294003      757.65604     -27.37544       730.2806     
   2168000   297.68491      0.013034914    6.1957202      738.56448     -24.246903      714.31758    
   2169000   287.65479      0.013034914   -0.59231267     713.67946     -19.696067      693.98339    
   2170000   309.81687      0.013034914    5.9155102      768.6642      -19.602898      749.0613     
   2171000   313.39975      0.013034914    14.200871      777.55341     -17.153687      760.39972    
   2172000   291.88471      0.013034914    8.4786464      724.17402     -20.091532      704.08249    
   2173000   294.10149      0.013034914   -2.4705062      729.6739      -15.986071      713.68783    
   2174000   306.38964      0.013034914    0.33478806     760.16115     -20.925439      739.23571    
   2175000   307.24811      0.013034914    9.8030127      762.29103     -16.797099      745.49393    
   2176000   310.38748      0.013034914    8.1415244      770.07988     -20.680568      749.39932    
   2177000   287.10321      0.013034914    9.0152253      712.31098     -22.594491      689.71649    
   2178000   290.74336      0.013034914    7.6911195      721.34229     -23.881368      697.46092    
   2179000   299.74659      0.013034914    6.9183778      743.67956     -18.827793      724.85176    
   2180000   304.90862      0.013034914    6.1862854      756.48669     -26.881642      729.60505    
   2181000   313.95508      0.013034914    7.482749       778.9312      -21.658737      757.27246    
   2182000   289.49293      0.013034914    7.5953694      718.23994     -24.808528      693.43142    
   2183000   283.6544       0.013034914    5.9726772      703.75438     -23.786415      679.96797    
   2184000   310.43831      0.013034914    6.6307737      770.20602     -26.772827      743.43319    
   2185000   299.72736      0.013034914    6.6045887      743.63184     -21.869371      721.76247    
   2186000   307.2509       0.013034914    7.7753282      762.29795     -17.6007        744.69725    
   2187000   298.15521      0.013034914    7.3613699      739.73131     -19.730777      720.00053    
   2188000   303.77249      0.013034914    8.7276325      753.66793     -17.518713      736.14922    
   2189000   305.99469      0.013034914    6.6425219      759.18126     -20.206541      738.97471    
   2190000   293.31561      0.013034914    6.6645403      727.72411     -20.818369      706.90574    
   2191000   308.93332      0.013034914    7.0915619      766.47209     -22.287979      744.18411    
   2192000   302.59462      0.013034914    7.5892498      750.7456      -22.423754      728.32185    
   2193000   290.87513      0.013034914    7.0347061      721.66922     -22.739387      698.92983    
   2194000   300.42187      0.013034914    4.4178747      745.35494     -21.18516       724.16978    
   2195000   305.06763      0.013034914    6.3538283      756.8812      -20.025992      736.85521    
   2196000   289.76851      0.013034914    15.402881      718.92365     -24.699405      694.22424    
   2197000   295.2418       0.013034914    8.9163115      732.50304     -21.036008      711.46703    
   2198000   294.84213      0.013034914    4.2949603      731.51146     -19.297322      712.21413    
   2199000   303.49044      0.013034914    5.6438623      752.96815     -22.996901      729.97125    
   2200000   311.1155       0.013034914    5.179701       771.88613     -21.696269      750.18986    
   2201000   310.92067      0.013034914    10.103747      771.40275     -22.339676      749.06307    
   2202000   289.14502      0.013034914    7.4606494      717.37677     -25.398736      691.97804    
   2203000   302.99472      0.013034914    7.0761203      751.73825     -24.21101       727.52724    
   2204000   303.67393      0.013034914    7.1926804      753.42339     -24.919956      728.50344    
   2205000   295.19118      0.013034914    6.606795       732.37745     -22.089457      710.28799    
   2206000   292.34821      0.013034914    2.9816034      725.32396     -18.372891      706.95107    
   2207000   319.6949       0.013034914    10.036076      793.17185     -19.012216      774.15963    
   2208000   300.28389      0.013034914    8.378049       745.01261     -20.087231      724.92538    
   2209000   280.04956      0.013034914    10.310665      694.81069     -23.578305      671.23238    
   2210000   305.15917      0.013034914    5.7666136      757.10831     -20.903403      736.20491    
   2211000   311.25659      0.013034914    5.9841838      772.23618     -23.451589      748.78459    
   2212000   299.7963       0.013034914    11.134515      743.80288     -23.295019      720.50786    
   2213000   300.69263      0.013034914    6.8939777      746.0267      -23.748064      722.27864    
   2214000   312.20286      0.013034914    3.1539374      774.58391     -24.744871      749.83904    
   2215000   309.50632      0.013034914    16.769666      767.89372     -22.94585       744.94787    
   2216000   294.8806       0.013034914   -0.96190376     731.6069      -25.44175       706.16515    
   2217000   296.75313      0.013034914    2.6919416      736.25271     -25.707321      710.54539    
   2218000   304.2746       0.013034914    7.6741017      754.91367     -22.539463      732.37421    
   2219000   303.95729      0.013034914    8.0970982      754.1264      -24.114619      730.01178    
   2220000   286.93105      0.013034914    1.7447435      711.88384     -24.22119       687.66265    
   2221000   296.51586      0.013034914    7.5239122      735.66402     -19.110481      716.55354    
   2222000   299.18408      0.013034914    7.7451298      742.28394     -19.435027      722.84892    
   2223000   301.62903      0.013034914    3.5514171      748.34995     -22.426791      725.92316    
   2224000   312.38369      0.013034914    5.6486916      775.03255     -22.917942      752.11461    
   2225000   311.03849      0.013034914    14.657147      771.69507     -20.609511      751.08556    
   2226000   290.97571      0.013034914    6.3287838      721.91875     -24.047037      697.87172    
   2227000   294.28343      0.013034914    6.3140641      730.1253      -25.357524      704.76777    
   2228000   316.5221       0.013034914    7.7334714      785.30006     -20.760832      764.53923    
   2229000   300.87331      0.013034914    6.4022318      746.47498     -21.362918      725.11206    
   2230000   291.0095       0.013034914    6.3639807      722.0026      -22.052268      699.95033    
   2231000   286.984        0.013034914    6.8887306      712.01522     -21.158062      690.85716    
   2232000   305.82533      0.013034914    7.3910345      758.76108     -21.056543      737.70454    
   2233000   298.95089      0.013034914    7.4009092      741.7054      -20.508592      721.1968     
   2234000   293.7653       0.013034914    4.9408982      728.83981     -16.362532      712.47728    
   2235000   302.19283      0.013034914    6.8593308      749.74875     -22.037266      727.71149    
   2236000   304.68489      0.013034914    7.1788367      755.93162     -21.201299      734.73032    
   2237000   301.14386      0.013034914    5.9621938      747.14621     -22.516268      724.62994    
   2238000   290.53719      0.013034914    6.3564588      720.83078     -19.338211      701.49257    
   2239000   303.98344      0.013034914    6.226076       754.19128     -22.725297      731.46599    
   2240000   312.36074      0.013034914    8.0059508      774.97561     -21.547722      753.42788    
   2241000   284.1873       0.013034914    6.6515403      705.07652     -26.030887      679.04563    
   2242000   290.62064      0.013034914    6.258503       721.03783     -21.72422       699.31361    
   2243000   309.61648      0.013034914    7.0833237      768.16703     -21.827744      746.33928    
   2244000   329.10424      0.013034914    8.0179515      816.51669     -22.426556      794.09013    
   2245000   298.64273      0.013034914    7.1890325      740.94085     -20.310291      720.63055    
   2246000   292.46092      0.013034914    6.8841993      725.6036      -23.412765      702.19083    
   2247000   307.80546      0.013034914    8.0154039      763.67382     -21.723202      741.95062    
   2248000   306.52347      0.013034914    7.3168488      760.49317     -21.308431      739.18474    
   2249000   295.12913      0.013034914    6.7459671      732.2235      -21.410279      710.81323    
   2250000   279.38992      0.013034914    6.2527877      693.17409     -20.423505      672.75059    
   2251000   299.09111      0.013034914    7.7823424      742.05329     -18.84773       723.20556    
   2252000   299.16845      0.013034914    8.7458546      742.24518     -21.36253       720.88265    
   2253000   303.55658      0.013034914    7.3525792      753.13224     -23.744517      729.38773    
   2254000   292.61596      0.013034914    3.282952       725.98826     -17.92978       708.05848    
   2255000   301.4499       0.013034914    6.8266323      747.90552     -19.634233      728.27129    
   2256000   301.10421      0.013034914    9.3288311      747.04785     -18.824628      728.22323    
   2257000   298.26413      0.013034914    10.131515      740.00152     -23.794603      716.20692    
   2258000   303.63087      0.013034914    4.8131757      753.31657     -21.396045      731.92052    
   2259000   312.27794      0.013034914    7.4797551      774.77017     -21.389109      753.38106    
   2260000   304.90128      0.013034914    7.1814838      756.46847     -23.685788      732.78269    
   2261000   284.57628      0.013034914    6.6708487      706.04159     -23.681987      682.3596     
   2262000   309.28905      0.013034914    7.3837044      767.35467     -22.331468      745.0232     
   2263000   310.58771      0.013034914    6.7664387      770.57667     -18.366049      752.21062    
   2264000   295.04448      0.013034914    8.0756922      732.01349     -18.654581      713.35891    
   2265000   296.1736       0.013034914    7.1951441      734.81487     -23.574972      711.2399     
   2266000   308.43334      0.013034914    8.7147936      765.23161     -21.91019       743.32142    
   2267000   309.79962      0.013034914    7.7723638      768.6214      -24.154024      744.46737    
   2268000   300.97932      0.013034914    5.7837679      746.73799     -28.173029      718.56496    
   2269000   282.2095       0.013034914    7.7051544      700.16956     -25.5894        674.58016    
   2270000   314.47578      0.013034914    8.4053927      780.22307     -20.529099      759.69397    
   2271000   294.48258      0.013034914    3.1956045      730.61939     -22.161112      708.45828    
   2272000   295.64133      0.013034914    7.4693856      733.49429     -24.694615      708.79967    
   2273000   305.81779      0.013034914    9.5975936      758.74236     -22.474532      736.26782    
   2274000   305.5683       0.013034914    5.6089789      758.12336     -25.778615      732.34475    
   2275000   317.4231       0.013034914    6.0388367      787.53545     -24.557235      762.97822    
   2276000   284.73107      0.013034914    8.5526081      706.42563     -24.731948      681.69368    
   2277000   298.04597      0.013034914    6.9258972      739.46026     -22.143087      717.31717    
   2278000   315.97816      0.013034914    8.1321131      783.95052     -22.695929      761.25459    
   2279000   304.35278      0.013034914    5.903524       755.10763     -24.058129      731.0495     
   2280000   295.36624      0.013034914    6.6270581      732.81178     -21.545051      711.26673    
   2281000   294.65913      0.013034914    7.7362399      731.05742     -25.270474      705.78695    
   2282000   310.94706      0.013034914    9.7941716      771.46822     -28.591724      742.87649    
   2283000   307.42742      0.013034914    7.2394966      762.7359      -28.194343      734.54156    
   2284000   296.98565      0.013034914    6.4393458      736.82958     -25.888639      710.94094    
   2285000   291.25662      0.013034914    7.8250943      722.61571     -26.511022      696.10469    
   2286000   303.84326      0.013034914    5.5542252      753.84351     -20.820463      733.02304    
   2287000   298.37127      0.013034914    5.5345538      740.26733     -23.237765      717.02957    
   2288000   309.25473      0.013034914    10.519417      767.26952     -20.606885      746.66264    
   2289000   304.07996      0.013034914    7.5225139      754.43077     -22.270169      732.16061    
   2290000   275.85495      0.013034914    4.4354617      684.40374     -19.566574      664.83717    
   2291000   296.31572      0.013034914    8.5650915      735.16747     -21.037403      714.13007    
   2292000   315.0857       0.013034914    8.2067936      781.73631     -23.312875      758.42344    
   2293000   297.10844      0.013034914    1.6855399      737.13423     -22.926643      714.20759    
   2294000   292.45356      0.013034914    3.0212737      725.58533     -21.352159      704.23317    
   2295000   295.16537      0.013034914    13.934473      732.31341     -21.456136      710.85727    
   2296000   310.66826      0.013034914    1.6954204      770.77652     -25.425952      745.35056    
   2297000   299.79833      0.013034914    2.6687992      743.80792     -26.178857      717.62907    
   2298000   295.12736      0.013034914    16.703208      732.21911     -28.323306      703.8958     
   2299000   309.66349      0.013034914    13.86222       768.28367     -23.985248      744.29842    
   2300000   306.78432      0.013034914    4.3010638      761.14036     -27.528753      733.61161    
   2301000   305.70939      0.013034914   -2.2098799      758.47343     -26.099308      732.37412    
   2302000   287.27168      0.013034914    9.5417955      712.72897     -21.535587      691.19338    
   2303000   320.40242      0.013034914    13.908332      794.92724     -21.744933      773.1823     
   2304000   312.97714      0.013034914    7.0320004      776.50492     -22.079302      754.42561    
   2305000   292.45512      0.013034914    3.1554726      725.58922     -18.153507      707.43571    
   2306000   294.5957       0.013034914    19.023658      730.90006     -18.079556      712.82051    
   2307000   311.25448      0.013034914    5.7509135      772.23094     -17.16723       755.06371    
   2308000   307.27954      0.013034914    1.9504182      762.369       -16.410069      745.95893    
   2309000   301.10935      0.013034914    6.8661246      747.06059     -18.193241      728.86735    
   2310000   286.54495      0.013034914    8.8938444      710.92593     -18.772917      692.15301    
   2311000   294.88654      0.013034914    7.5321208      731.62164     -20.551577      711.07006    
   2312000   303.47904      0.013034914    9.2003324      752.93987     -20.43889       732.50098    
   2313000   300.56193      0.013034914    4.5242597      745.70244     -21.378213      724.32423    
   2314000   285.9721       0.013034914    8.3580416      709.50466     -22.842918      686.66174    
   2315000   308.57769      0.013034914    15.628883      765.58976     -24.164751      741.42501    
   2316000   301.41264      0.013034914    4.3752594      747.81308     -21.333302      726.47978    
   2317000   290.67069      0.013034914    1.4108942      721.16199     -22.208134      698.95385    
   2318000   301.70213      0.013034914    9.6667685      748.53131     -23.280505      725.25081    
   2319000   295.49469      0.013034914    11.614481      733.13048     -19.311864      713.81862    
   2320000   303.18735      0.013034914    5.281874       752.21617     -18.277449      733.93872    
   2321000   293.59438      0.013034914    0.76186681     728.41575     -20.306772      708.10898    
   2322000   313.504        0.013034914    13.247792      777.81207     -18.006424      759.80565    
   2323000   315.96398      0.013034914    12.512029      783.91535     -18.512635      765.40271    
   2324000   301.0075       0.013034914    5.5145472      746.8079      -22.98479       723.82311    
   2325000   297.47292      0.013034914    3.985903       738.03852     -25.168195      712.87033    
   2326000   293.54507      0.013034914    6.488486       728.2934      -26.513864      701.77954    
   2327000   306.74806      0.013034914    16.190374      761.05038     -23.13719       737.91319    
   2328000   308.21925      0.013034914    2.2534213      764.70046     -22.821397      741.87907    
   2329000   306.64155      0.013034914    2.7753513      760.78615     -24.962219      735.82393    
   2330000   296.76716      0.013034914    14.884337      736.28749     -19.91417       716.37332    
   2331000   300.1128       0.013034914    10.68173       744.58813     -17.356053      727.23208    
   2332000   307.93572      0.013034914    6.858218       763.997       -21.014494      742.98251    
   2333000   293.67314      0.013034914    4.3356511      728.61115     -25.34443       703.26672    
   2334000   292.72199      0.013034914    6.9148555      726.25132     -24.037678      702.21365    
   2335000   296.06419      0.013034914    7.9832173      734.54341     -24.647424      709.89599    
   2336000   301.39021      0.013034914    6.7413288      747.75742     -23.65953       724.09789    
   2337000   300.5751       0.013034914    4.9907939      745.7351      -24.695328      721.03977    
   2338000   297.83         0.013034914    10.10118       738.92445     -26.30257       712.62188    
   2339000   294.58628      0.013034914    7.1774074      730.87668     -20.00997       710.86671    
   2340000   308.93312      0.013034914    7.2038349      766.47159     -23.357406      743.11418    
   2341000   305.9391       0.013034914    5.6672565      759.04334     -20.776614      738.26673    
   2342000   285.55642      0.013034914    8.547617       708.47336     -23.944956      684.5284     
   2343000   297.54839      0.013034914    6.7178383      738.22575     -19.870993      718.35476    
   2344000   291.87571      0.013034914    4.0968701      724.15168     -15.26142       708.89026    
   2345000   297.25464      0.013034914    9.0454091      737.49695     -17.746167      719.75078    
   2346000   312.95893      0.013034914    11.267505      776.45972     -19.49732       756.9624     
   2347000   299.14927      0.013034914    7.5927544      742.19759     -18.737399      723.46019    
   2348000   289.6506       0.013034914    7.155059       718.63113     -22.14649       696.48464    
   2349000   292.57127      0.013034914    7.5036066      725.87739     -23.611438      702.26595    
   2350000   316.0912       0.013034914    3.4533453      784.23097     -27.112137      757.11884    
   2351000   306.42199      0.013034914    4.9287959      760.2414      -21.25078       738.99062    
   2352000   294.50146      0.013034914    10.876567      730.66625     -23.599982      707.06626    
   2353000   291.4684       0.013034914    12.436308      723.14113     -21.857591      701.28354    
   2354000   303.42758      0.013034914    5.5714415      752.81218     -23.09494       729.71724    
   2355000   313.72862      0.013034914    5.8632298      778.36936     -22.873867      755.49549    
   2356000   309.99302      0.013034914    7.5404744      769.10124     -29.667572      739.43367    
   2357000   297.61387      0.013034914    17.752833      738.38822     -25.780332      712.60789    
   2358000   292.33594      0.013034914    5.6295428      725.29353     -23.395182      701.89834    
   2359000   308.48895      0.013034914    0.6197348      765.3696      -20.570873      744.79872    
   2360000   300.49021      0.013034914    4.6449345      745.52448     -18.776514      726.74797    
   2361000   305.16305      0.013034914    9.078136       757.11794     -21.744946      735.37299    
   2362000   294.35384      0.013034914    6.7738103      730.3         -20.173265      710.12674    
   2363000   296.80381      0.013034914    6.6936485      736.37843     -17.656401      718.72203    
   2364000   298.32903      0.013034914    7.3235334      740.16254     -18.756646      721.40589    
   2365000   296.24128      0.013034914    7.514746       734.98278     -21.079077      713.9037     
   2366000   296.03916      0.013034914    7.1847974      734.48131     -19.536457      714.94485    
   2367000   305.39388      0.013034914    6.9257394      757.69064     -19.772026      737.91861    
   2368000   306.91994      0.013034914    7.4157627      761.47683     -21.463975      740.01286    
   2369000   290.31608      0.013034914    1.0544345      720.28219     -22.166217      698.11597    
   2370000   287.39379      0.013034914    9.9127026      713.03192     -19.629007      693.40291    
   2371000   305.25781      0.013034914    7.7528986      757.35305     -21.646464      735.70659    
   2372000   300.15968      0.013034914    8.4079806      744.70444     -21.783345      722.9211     
   2373000   299.03898      0.013034914    2.7190605      741.92396     -24.0585        717.86546    
   2374000   294.73696      0.013034914    7.290298       731.25053     -22.623201      708.62733    
   2375000   303.42406      0.013034914    10.739966      752.80345     -22.459867      730.34359    
   2376000   312.4567       0.013034914    5.8250626      775.21368     -19.245593      755.96809    
   2377000   288.0773       0.013034914    5.1426409      714.72773     -19.954817      694.77292    
   2378000   300.47188      0.013034914    15.138751      745.47902     -21.969341      723.50968    
   2379000   328.10651      0.013034914    0.27849471     814.04131     -21.557192      792.48412    
   2380000   301.06736      0.013034914    3.9034049      746.95643     -22.126335      724.8301     
   2381000   284.20676      0.013034914    4.5869444      705.1248      -19.99679       685.12802    
   2382000   289.34151      0.013034914    8.5404926      717.86426     -22.306114      695.55814    
   2383000   300.88662      0.013034914    8.1385732      746.508       -23.043302      723.4647     
   2384000   305.40511      0.013034914    8.2801512      757.7185      -21.262632      736.45587    
   2385000   290.76417      0.013034914    5.2952742      721.39393     -20.932975      700.46095    
   2386000   301.04525      0.013034914    8.3007645      746.90157     -21.143145      725.75842    
   2387000   315.74346      0.013034914    7.5934923      783.36823     -21.147773      762.22046    
   2388000   287.54569      0.013034914    8.9228154      713.40879     -16.795737      696.61305    
   2389000   300.6908       0.013034914    6.1392614      746.02217     -18.626087      727.39609    
   2390000   307.4516       0.013034914    6.1419176      762.79589     -18.438886      744.35701    
   2391000   303.61433      0.013034914    9.1889516      753.27551     -19.195015      734.0805     
   2392000   295.88949      0.013034914    8.6633376      734.10998     -19.322527      714.78745    
   2393000   304.34455      0.013034914    3.7298112      755.08721     -19.919829      735.16738    
   2394000   303.34656      0.013034914    6.305213       752.61117     -22.286649      730.32453    
   2395000   293.49634      0.013034914    9.0626749      728.17251     -21.844548      706.32797    
   2396000   292.35755      0.013034914    6.5153707      725.34714     -22.610639      702.7365     
   2397000   304.18387      0.013034914    4.8892013      754.68856     -21.9386        732.74996    
   2398000   308.93752      0.013034914    9.9896271      766.48251     -19.068834      747.41368    
   2399000   291.45397      0.013034914    14.441085      723.10534     -21.803448      701.3019     
   2400000   294.54639      0.013034914    7.330925       730.77772     -23.744438      707.03328    
   2401000   296.52881      0.013034914    5.9589232      735.69615     -19.113484      716.58266    
   2402000   298.59567      0.013034914    5.0060761      740.82408     -17.982764      722.84132    
   2403000   302.21616      0.013034914    8.294326       749.80664     -17.842122      731.96451    
   2404000   303.43255      0.013034914    10.29074       752.82453     -22.683583      730.14095    
   2405000   298.92275      0.013034914    5.3927178      741.63558     -21.930891      719.70469    
   2406000   306.33464      0.013034914   -4.8022858      760.0247      -19.894036      740.13066    
   2407000   301.66834      0.013034914    10.124484      748.44747     -27.045573      721.4019     
   2408000   300.63736      0.013034914    9.2047948      745.88958     -20.358983      725.5306     
   2409000   297.05361      0.013034914    4.6123542      736.99819     -24.300339      712.69785    
   2410000   307.06284      0.013034914    3.6350321      761.83137     -19.982304      741.84906    
   2411000   299.89709      0.013034914    9.06704        744.05295     -20.2296        723.82335    
   2412000   300.92274      0.013034914    7.6776564      746.59761     -19.782279      726.81533    
   2413000   289.99492      0.013034914    5.7381698      719.4854      -18.536235      700.94916    
   2414000   298.14258      0.013034914    7.2370709      739.69996     -19.508539      720.19142    
   2415000   306.90094      0.013034914    10.135474      761.4297      -23.317252      738.11245    
   2416000   303.20348      0.013034914    7.0509889      752.2562      -23.045348      729.21086    
   2417000   295.01211      0.013034914    6.5924875      731.93317     -25.122038      706.81113    
   2418000   306.80096      0.013034914    7.3977198      761.18164     -19.892724      741.28892    
   2419000   290.45058      0.013034914    2.5384733      720.6159      -17.333439      703.28246    
   2420000   290.76247      0.013034914    6.4681494      721.38969     -20.239881      701.14981    
   2421000   301.4224       0.013034914    8.5732793      747.83729     -19.743968      728.09333    
   2422000   299.83036      0.013034914    7.4589305      743.8874      -19.695778      724.19162    
   2423000   300.56862      0.013034914    6.9201768      745.71903     -23.843279      721.87575    
   2424000   295.91971      0.013034914    6.5918013      734.18497     -24.188232      709.99674    
   2425000   293.51078      0.013034914    7.5614743      728.20834     -23.397242      704.8111     
   2426000   296.00937      0.013034914    7.2162686      734.40741     -21.187277      713.22013    
   2427000   290.86719      0.013034914    6.8695575      721.64953     -22.119906      699.52962    
   2428000   304.38556      0.013034914    5.6296879      755.18896     -21.704527      733.48444    
   2429000   304.14032      0.013034914    7.2560561      754.58053     -17.911324      736.6692     
   2430000   294.86935      0.013034914    6.1342045      731.57898     -17.375874      714.20311    
   2431000   299.20992      0.013034914    6.822283       742.34805     -19.806597      722.54145    
   2432000   309.82438      0.013034914    7.5301362      768.68283     -19.169138      749.51369    
   2433000   297.8411       0.013034914    7.4048537      738.95198     -18.185898      720.76608    
   2434000   301.86908      0.013034914    7.307385       748.9455      -17.030292      731.91521    
   2435000   309.3345       0.013034914    6.7818152      767.46742     -19.417941      748.04948    
   2436000   300.73185      0.013034914    8.2852052      746.124       -20.385386      725.73862    
   2437000   279.94858      0.013034914    7.0584824      694.56015     -21.97897       672.58118    
   2438000   307.25369      0.013034914    6.842085       762.30486     -17.352983      744.95188    
   2439000   304.6343       0.013034914    7.8375239      755.80609     -23.85798       731.94811    
   2440000   294.99833      0.013034914    6.2605107      731.89899     -23.094159      708.80483    
   2441000   309.62607      0.013034914    6.5545498      768.1908      -21.467769      746.72304    
   2442000   311.62775      0.013034914    7.4339114      773.15704     -28.196415      744.96063    
   2443000   295.48189      0.013034914    6.9884862      733.09871     -25.456769      707.64195    
   2444000   294.5953       0.013034914    6.8347554      730.89906     -20.976872      709.92219    
   2445000   301.20987      0.013034914    8.3764924      747.30998     -21.943921      725.36606    
   2446000   301.19159      0.013034914    7.042878       747.26465     -19.610956      727.65369    
   2447000   296.07991      0.013034914    9.7856862      734.58242     -21.578433      713.00399    
   2448000   295.04254      0.013034914    4.7980236      732.00867     -19.194442      712.81423    
   2449000   308.04146      0.013034914    6.6226589      764.25936     -18.797415      745.46195    
   2450000   301.92278      0.013034914    7.9934463      749.07873     -14.715713      734.36302    
   2451000   295.73033      0.013034914    9.5075252      733.7151      -15.81992       717.89518    
   2452000   304.87133      0.013034914    3.0463845      756.39418     -18.310752      738.08343    
   2453000   315.40967      0.013034914    5.20259        782.54009     -21.600137      760.93995    
   2454000   309.90262      0.013034914    5.3698528      768.87694     -19.345218      749.53172    
   2455000   291.02729      0.013034914    6.8239839      722.04672     -17.936542      704.11018    
   2456000   292.53139      0.013034914    7.0351718      725.77844     -16.460366      709.31807    
   2457000   301.31964      0.013034914    8.1830742      747.58233     -15.761522      731.82081    
   2458000   296.79132      0.013034914    6.8588708      736.34744     -20.334742      716.01269    
   2459000   305.72647      0.013034914    6.5620207      758.51581     -20.20119       738.31462    
   2460000   316.9001       0.013034914    6.9204038      786.23789     -25.076878      761.16101    
   2461000   294.68018      0.013034914    6.8153184      731.10965     -25.046956      706.0627     
   2462000   295.26099      0.013034914    7.2885618      732.55065     -25.717124      706.83353    
   2463000   304.20793      0.013034914    8.344091       754.74826     -20.645516      734.10275    
   2464000   298.11002      0.013034914    6.8528393      739.61917     -19.266693      720.35247    
   2465000   315.36343      0.013034914    7.3762482      782.42537     -21.128458      761.29691    
   2466000   309.58125      0.013034914    6.7510102      768.07963     -19.599833      748.47979    
   2467000   294.61842      0.013034914    4.9181744      730.95642     -23.890202      707.06622    
   2468000   292.8242       0.013034914    7.0610849      726.50492     -22.334145      704.17077    
   2469000   307.01322      0.013034914    11.589986      761.70826     -20.820217      740.88805    
   2470000   306.04555      0.013034914    5.7790215      759.30745     -18.208857      741.09859    
   2471000   294.61976      0.013034914    5.8706586      730.95974     -19.868121      711.09162    
   2472000   292.99856      0.013034914    4.9856661      726.93751     -18.230251      708.70726    
   2473000   306.24909      0.013034914    10.445023      759.81243     -24.436911      735.37552    
   2474000   319.74931      0.013034914    6.5206067      793.30686     -21.052224      772.25463    
   2475000   295.5384       0.013034914    4.4928787      733.23891     -25.413931      707.82498    
   2476000   285.52163      0.013034914    11.626757      708.38705     -27.344564      681.04248    
   2477000   295.17005      0.013034914    8.6749992      732.32502     -25.440387      706.88464    
   2478000   301.93406      0.013034914    6.4132858      749.10672     -25.68254       723.42418    
   2479000   286.39068      0.013034914    9.0068711      710.54317     -21.467714      689.07546    
   2480000   294.15277      0.013034914    8.2570709      729.80114     -22.534575      707.26656    
   2481000   296.65317      0.013034914    7.8365625      736.0047      -24.058182      711.94652    
   2482000   319.04835      0.013034914    7.7280179      791.56775     -26.901463      764.66629    
   2483000   305.5478       0.013034914   -0.62607123     758.0725      -23.449954      734.62255    
   2484000   296.70912      0.013034914    6.2343696      736.14352     -23.406707      712.73681    
   2485000   299.99602      0.013034914    7.9734556      744.2984      -25.760166      718.53824    
   2486000   305.70532      0.013034914    6.918425       758.46331     -22.841216      735.6221     
   2487000   305.48582      0.013034914    6.6337833      757.91873     -20.464999      737.45373    
   2488000   305.09183      0.013034914    8.2135712      756.94125     -22.21259       734.72866    
   2489000   299.93084      0.013034914    6.1206036      744.13668     -22.505041      721.63164    
   2490000   297.41186      0.013034914    6.5381079      737.88703     -20.511822      717.3752     
   2491000   311.64121      0.013034914    8.7436003      773.19044     -18.286182      754.90426    
   2492000   293.5674       0.013034914    7.0281501      728.34881     -18.05986       710.28895    
   2493000   286.93389      0.013034914    5.2727915      711.8909      -18.163577      693.72732    
   2494000   302.27668      0.013034914    6.4672486      749.95677     -14.872833      735.08394    
   2495000   304.20897      0.013034914    7.1087768      754.75084     -16.697125      738.05371    
   2496000   305.75875      0.013034914    6.972184       758.5959      -19.435405      739.16049    
   2497000   296.1746       0.013034914    6.5838938      734.81735     -24.050819      710.76653    
   2498000   298.82633      0.013034914    6.7983061      741.39637     -20.801804      720.59457    
   2499000   293.59542      0.013034914    7.1062578      728.41833     -23.644796      704.77353    
   2500000   308.55143      0.013034914    8.9264231      765.5246      -23.076037      742.44856    
   2501000   299.75265      0.013034914    6.9248048      743.69458     -19.913497      723.78108    
   2502000   294.10097      0.013034914    6.5177917      729.67261     -17.564327      712.10828    
   2503000   302.30241      0.013034914    7.152448       750.0206      -21.382137      728.63846    
   2504000   300.54898      0.013034914    7.5148367      745.6703      -18.893042      726.77726    
   2505000   311.46917      0.013034914    6.3355367      772.7636      -20.698034      752.06557    
   2506000   301.49345      0.013034914    4.3814195      748.01355     -21.90641       726.10714    
   2507000   305.17345      0.013034914    6.934312       757.14374     -19.88817       737.25557    
   2508000   293.23753      0.013034914    6.7245111      727.53038     -17.05324       710.47714    
   2509000   298.66903      0.013034914    7.2928239      741.0061      -18.828029      722.17807    
   2510000   291.91307      0.013034914    6.9136706      724.24437     -18.865411      705.37895    
   2511000   297.28965      0.013034914    7.0567904      737.58383     -20.616584      716.96724    
   2512000   311.79439      0.013034914    7.172635       773.57047     -21.5613        752.00917    
   2513000   298.8646       0.013034914    8.9378683      741.49131     -21.507307      719.984      
   2514000   293.03615      0.013034914    7.0850491      727.03077     -21.316822      705.71395    
   2515000   293.14295      0.013034914    7.4133949      727.29573     -22.406989      704.88874    
   2516000   319.70293      0.013034914    7.7687461      793.19179     -21.538431      771.65336    
   2517000   294.51835      0.013034914    6.022256       730.70816     -18.976921      711.73123    
   2518000   295.30514      0.013034914    6.636364       732.66019     -21.342922      711.31726    
   2519000   303.46446      0.013034914    10.039593      752.90368     -18.876325      734.02735    
   2520000   314.26096      0.013034914    2.076593       779.6901      -20.050141      759.63996    
   2521000   294.24413      0.013034914    7.1082129      730.02779     -16.57188       713.45591    
   2522000   298.12556      0.013034914    12.174068      739.65774     -19.339289      720.31845    
   2523000   306.34478      0.013034914    3.929827       760.04984     -18.369576      741.68026    
   2524000   292.46175      0.013034914    4.1762962      725.60566     -20.750626      704.85503    
   2525000   292.67236      0.013034914    8.291399       726.12819     -23.444998      702.68319    
   2526000   321.84191      0.013034914    8.5242141      798.49865     -25.159543      773.3391     
   2527000   306.54217      0.013034914    6.510685       760.53957     -22.762473      737.7771     
   2528000   302.19041      0.013034914    1.2279242      749.74273     -24.330813      725.41191    
   2529000   285.88526      0.013034914    6.3395304      709.2892      -23.423376      685.86583    
   2530000   308.98987      0.013034914    11.847436      766.61239     -20.004964      746.60743    
   2531000   309.59467      0.013034914    4.9115078      768.11292     -17.717572      750.39535    
   2532000   294.85068      0.013034914    5.4622804      731.53267     -22.772215      708.76046    
   2533000   292.35231      0.013034914    8.4503413      725.33414     -26.874875      698.45927    
   2534000   309.0501       0.013034914    7.4716979      766.76182     -25.069107      741.69271    
   2535000   294.90394      0.013034914    6.030636       731.6648      -28.14649       703.51831    
   2536000   304.67655      0.013034914    7.3026786      755.91092     -21.452191      734.45873    
   2537000   312.91553      0.013034914    8.3124951      776.35206     -24.123588      752.22847    
   2538000   301.92116      0.013034914    6.6715342      749.07472     -19.993362      729.08136    
   2539000   301.17578      0.013034914    7.7139829      747.22542     -17.420475      729.80494    
   2540000   302.09229      0.013034914    5.8157621      749.4993      -17.702513      731.79679    
   2541000   297.4689       0.013034914    8.3875889      738.02855     -16.447134      721.58141    
   2542000   294.7731       0.013034914    4.9595051      731.3402      -21.544651      709.79555    
   2543000   315.8213       0.013034914    7.0891079      783.56135     -21.389143      762.1722     
   2544000   296.97977      0.013034914    7.8423964      736.815       -16.925562      719.88944    
   2545000   278.70015      0.013034914    4.5102939      691.46275     -19.597763      671.86499    
   2546000   309.31003      0.013034914    0.77240238     767.4067      -21.878995      745.5277     
   2547000   312.68186      0.013034914    6.815015       775.77231     -18.954526      756.81778    
   2548000   295.35185      0.013034914    9.8047948      732.77609     -21.32148       711.45461    
   2549000   291.98177      0.013034914    2.9813042      724.41483     -22.641743      701.77308    
   2550000   313.81703      0.013034914    5.8097282      778.5887      -18.852462      759.73624    
   2551000   300.14946      0.013034914    7.5893089      744.67909     -18.702284      725.97681    
   2552000   288.88401      0.013034914    6.7319747      716.72919     -21.215558      695.51363    
   2553000   304.40369      0.013034914    8.2853556      755.23395     -26.816442      728.41751    
   2554000   306.38974      0.013034914    3.8180636      760.1614      -23.918366      736.24303    
   2555000   292.96154      0.013034914    6.5657866      726.84567     -22.349627      704.49604    
   2556000   297.24524      0.013034914    7.463296       737.47364     -22.653686      714.81996    
   2557000   308.32719      0.013034914    7.3792543      764.96826     -20.32902       744.63924    
   2558000   309.19207      0.013034914    7.1255919      767.11405     -18.664468      748.44958    
   2559000   302.26134      0.013034914    7.7238867      749.91871     -23.554231      726.36448    
   2560000   291.45438      0.013034914    7.237995       723.10635     -24.213509      698.89284    
   2561000   295.57078      0.013034914    5.8878928      733.31924     -19.894669      713.42457    
   2562000   303.24041      0.013034914    4.5377291      752.34781     -17.697694      734.65011    
   2563000   301.83564      0.013034914    8.7137182      748.86255     -22.477678      726.38487    
   2564000   299.77352      0.013034914    6.6506471      743.74638     -22.280154      721.46622    
   2565000   301.31279      0.013034914    6.0417194      747.56534     -20.198565      727.36678    
   2566000   309.82365      0.013034914    8.5405823      768.68101     -21.891853      746.78916    
   2567000   306.23071      0.013034914    8.4544587      759.76684     -21.672541      738.0943     
   2568000   300.73277      0.013034914    4.962607       746.1263      -19.96048       726.16581    
   2569000   295.1526       0.013034914    7.2384672      732.28173     -24.505211      707.77652    
   2570000   302.17585      0.013034914    7.359598       749.70661     -20.267642      729.43896    
   2571000   301.26486      0.013034914    6.9070789      747.44641     -21.938934      725.50748    
   2572000   305.05373      0.013034914    6.5795334      756.84671     -19.395017      737.45169    
   2573000   308.019        0.013034914    8.7492797      764.20364     -18.702476      745.50116    
   2574000   303.14748      0.013034914    7.801855       752.11725     -16.718949      735.3983     
   2575000   295.06948      0.013034914    5.5642234      732.07552     -21.751991      710.32353    
   2576000   305.69911      0.013034914    7.287884       758.44791     -20.222535      738.22537    
   2577000   306.03928      0.013034914    6.9808032      759.29188     -23.243641      736.04824    
   2578000   299.55941      0.013034914    6.8819186      743.21515     -25.724633      717.49052    
   2579000   290.34992      0.013034914    6.5987676      720.36615     -25.032685      695.33347    
   2580000   299.15658      0.013034914    6.6493535      742.21573     -27.280453      714.93527    
   2581000   297.29106      0.013034914    6.4818941      737.58731     -22.557462      715.02984    
   2582000   299.18488      0.013034914    6.8817716      742.28593     -24.003865      718.28207    
   2583000   296.59866      0.013034914    5.5475263      735.86946     -20.287988      715.58147    
   2584000   299.60903      0.013034914    7.1635614      743.33826     -17.866709      725.47155    
   2585000   296.75393      0.013034914    7.6389293      736.25469     -19.426113      716.82858    
   2586000   298.76487      0.013034914    6.8997823      741.24388     -23.447618      717.79626    
   2587000   306.28081      0.013034914    6.950913       759.89113     -20.784269      739.10686    
   2588000   302.74033      0.013034914    7.3110338      751.10711     -22.258554      728.84856    
   2589000   307.81127      0.013034914    7.0199606      763.68824     -26.064895      737.62334    
   2590000   296.65509      0.013034914    6.8375764      736.00946     -23.371052      712.63841    
   2591000   292.25677      0.013034914    7.8418894      725.09711     -19.237188      705.85992    
   2592000   308.43254      0.013034914    7.4070565      765.22963     -22.388548      742.84108    
   2593000   289.18919      0.013034914    6.575502       717.48635     -22.901897      694.58445    
   2594000   295.49407      0.013034914    7.5791757      733.12894     -19.840355      713.28858    
   2595000   306.27552      0.013034914    8.35413        759.878       -16.763605      743.11439    
   2596000   319.11596      0.013034914    7.2167125      791.73549     -19.292394      772.4431     
   2597000   298.07952      0.013034914    6.9626681      739.54351     -21.180869      718.36264    
   2598000   292.09963      0.013034914    6.5443946      724.70722     -20.60434       704.10288    
   2599000   306.80411      0.013034914    8.8985964      761.18945     -28.035009      733.15444    
   2600000   310.4668       0.013034914    7.1803759      770.27668     -28.005966      742.27071    
   2601000   296.90305      0.013034914    4.9626992      736.62465     -31.127913      705.49673    
   2602000   283.40705      0.013034914    7.4885824      703.1407      -29.038895      674.10181    
   2603000   309.95841      0.013034914    9.470356       769.01536     -28.683268      740.33209    
   2604000   312.76239      0.013034914    9.3097193      775.97212     -26.531022      749.4411     
   2605000   290.19289      0.013034914    4.9966034      719.97655     -22.705543      697.27101    
   2606000   288.2588       0.013034914    4.197652       715.17803     -23.341579      691.83645    
   2607000   307.11899      0.013034914    8.9621668      761.97068     -21.368534      740.60214    
   2608000   309.34679      0.013034914    3.1374315      767.49791     -20.418527      747.07938    
   2609000   288.89038      0.013034914    5.7834069      716.74499     -22.331445      694.41354    
   2610000   297.40506      0.013034914    9.0873412      737.87016     -22.289402      715.58075    
   2611000   307.86091      0.013034914    6.9652614      763.8114      -20.324761      743.48664    
   2612000   306.68805      0.013034914    6.4248429      760.9015      -22.280466      738.62104    
   2613000   294.15165      0.013034914    11.009321      729.79836     -23.796211      706.00215    
   2614000   306.25532      0.013034914    5.5476277      759.82788     -20.830558      738.99733    
   2615000   294.63586      0.013034914    1.5516037      730.99969     -23.641016      707.35867    
   2616000   302.87527      0.013034914    8.9807196      751.44189     -24.359145      727.08274    
   2617000   294.69617      0.013034914    7.7111151      731.14932     -27.729788      703.41953    
   2618000   304.52681      0.013034914   -0.38344254     755.5394      -28.224189      727.31521    
   2619000   304.07699      0.013034914    9.1437743      754.4234      -27.579816      726.84358    
   2620000   289.0371       0.013034914    9.2789418      717.10901     -24.867234      692.24178    
   2621000   295.69342      0.013034914    2.0297335      733.62354     -26.733544      706.88999    
   2622000   312.76092      0.013034914    6.6843544      775.96846     -22.221534      753.74693    
   2623000   292.03043      0.013034914    9.3495151      724.53555     -22.545868      701.98969    
   2624000   283.6114       0.013034914    6.3829469      703.64769     -22.804197      680.8435     
   2625000   304.37718      0.013034914    5.3770916      755.16817     -26.650189      728.51798    
   2626000   311.3107       0.013034914    7.4214117      772.37044     -26.905288      745.46515    
   2627000   286.97884      0.013034914    12.096901      712.00242     -22.583871      689.41855    
   2628000   303.64012      0.013034914    1.4366056      753.3395      -21.124313      732.21519    
   2629000   303.50465      0.013034914    7.1741641      753.0034      -25.378617      727.62479    
   2630000   294.35079      0.013034914    7.9378878      730.29242     -19.643869      710.64855    
   2631000   305.12846      0.013034914    7.4344532      757.03211     -21.092347      735.93976    
   2632000   300.74026      0.013034914    3.001333       746.14488     -19.534831      726.61005    
   2633000   312.59415      0.013034914    3.6210202      775.55471     -19.302859      756.25185    
   2634000   298.08724      0.013034914    8.3513213      739.56267     -17.683361      721.87931    
   2635000   289.38117      0.013034914    8.1103137      717.96265     -18.70136       699.26129    
   2636000   299.40475      0.013034914    4.6361664      742.83145     -18.827378      724.00407    
   2637000   307.13113      0.013034914    4.8629206      762.0008      -20.32564       741.67516    
   2638000   292.62478      0.013034914    8.7692736      726.01014     -24.332724      701.67742    
   2639000   285.5377       0.013034914    6.2628826      708.42691     -29.054582      679.37233    
   2640000   305.7193       0.013034914    6.9492176      758.49801     -23.489687      735.00832    
   2641000   315.26329      0.013034914    7.8399572      782.17691     -23.500288      758.67663    
   2642000   292.76078      0.013034914    8.6537568      726.34757     -20.755294      705.59228    
   2643000   298.76422      0.013034914    6.8497         741.24226     -25.80214       715.44012    
   2644000   305.65648      0.013034914    7.08276        758.34216     -25.280725      733.06143    
   2645000   301.56127      0.013034914    8.0348392      748.18183     -24.106885      724.07494    
   2646000   287.40776      0.013034914    6.4875487      713.06656     -29.564915      683.50165    
   2647000   298.09259      0.013034914    4.9791898      739.57593     -28.503605      711.07233    
   2648000   303.8156       0.013034914    4.5780686      753.77488     -29.100914      724.67397    
   2649000   302.15152      0.013034914    11.769164      749.64626     -25.225338      724.42092    
   2650000   291.76145      0.013034914    6.5840365      723.86819     -24.979977      698.88821    
   2651000   309.66896      0.013034914    6.3956814      768.29723     -22.991596      745.30563    
   2652000   304.03833      0.013034914    7.5148368      754.32748     -22.364276      731.9632     
   2653000   298.11048      0.013034914    7.5305374      739.62033     -23.248214      716.37211    
   2654000   284.13049      0.013034914    6.9748207      704.93558     -27.087532      677.84805    
   2655000   301.52503      0.013034914    7.2215883      748.09192     -27.540122      720.5518     
   2656000   312.84007      0.013034914    8.4125031      776.16485     -22.54136       753.62349    
   2657000   308.33614      0.013034914    10.58396       764.99046     -22.441747      742.54871    
   2658000   291.47797      0.013034914    9.1413176      723.16487     -23.345907      699.81897    
   2659000   289.48083      0.013034914    3.2749473      718.20993     -26.521864      691.68806    
   2660000   304.97243      0.013034914    4.8168747      756.645       -25.675691      730.96931    
   2661000   299.29263      0.013034914    5.8252992      742.55326     -25.536623      717.01663    
   2662000   297.85172      0.013034914    3.2549762      738.97833     -19.466303      719.51203    
   2663000   317.10941      0.013034914    17.314083      786.75719     -21.837353      764.91983    
   2664000   295.42897      0.013034914    10.405328      732.96741     -23.270445      709.69697    
   2665000   279.31722      0.013034914    9.1533913      692.99373     -25.955178      667.03855    
   2666000   304.28451      0.013034914    5.9601474      754.93826     -21.9922        732.94606    
   2667000   315.88292      0.013034914    6.6902864      783.71424     -19.714633      763.9996     
   2668000   290.37056      0.013034914    8.7771022      720.41736     -21.480372      698.93698    
   2669000   294.15473      0.013034914    6.2248966      729.80598     -17.121285      712.6847     
   2670000   301.34869      0.013034914    6.2452326      747.65441     -17.145015      730.5094     
   2671000   307.07663      0.013034914    7.1350976      761.86559     -19.64142       742.22417    
   2672000   299.21519      0.013034914    8.4026574      742.36114     -19.288723      723.07242    
   2673000   298.10776      0.013034914    4.3892323      739.61358     -19.650842      719.96273    
   2674000   300.08873      0.013034914    8.0033529      744.52841     -19.169586      725.35883    
   2675000   292.48736      0.013034914    6.623052       725.6692      -23.136213      702.53299    
   2676000   308.34398      0.013034914    7.0324193      765.00992     -22.571081      742.43884    
   2677000   315.15648      0.013034914    7.1950558      781.91193     -21.794394      760.11753    
   2678000   285.70912      0.013034914    3.9283518      708.85221     -24.72981       684.1224     
   2679000   290.007        0.013034914    7.0807588      719.51536     -22.044283      697.47107    
   2680000   311.56225      0.013034914    7.7757629      772.99453     -21.885959      751.10857    
   2681000   300.92117      0.013034914    6.9444535      746.59373     -13.915954      732.67777    
   2682000   300.01106      0.013034914    5.2717716      744.33571     -18.325938      726.00977    
   2683000   303.39148      0.013034914    3.3768292      752.72263     -21.151384      731.57124    
   2684000   291.90056      0.013034914    6.5172077      724.21333     -17.534448      706.67888    
   2685000   300.0123       0.013034914    8.2734895      744.33877     -20.998973      723.3398     
   2686000   297.4604       0.013034914    10.513741      738.00745     -20.625435      717.38202    
   2687000   297.62797      0.013034914    2.2862744      738.4232      -23.81008       714.61312    
   2688000   289.63982      0.013034914   -3.5825015      718.60438     -22.442756      696.16163    
   2689000   285.80388      0.013034914    7.0518887      709.08729     -23.626926      685.46037    
   2690000   308.15719      0.013034914    12.983035      764.54649     -20.459865      744.08663    
   2691000   307.5156       0.013034914    5.646466       762.95469     -23.452644      739.50205    
   2692000   307.87359      0.013034914    4.0732601      763.84287     -20.482345      743.36052    
   2693000   289.40786      0.013034914    8.7338034      718.02887     -22.231546      695.79733    
   2694000   297.63138      0.013034914    8.9564779      738.43166     -18.875968      719.55569    
   2695000   314.26787      0.013034914    2.7857805      779.70725     -16.639467      763.06778    
   2696000   293.3081       0.013034914   -0.62056978     727.70549     -18.230493      709.475      
   2697000   286.29027      0.013034914    8.507398       710.29406     -21.279026      689.01504    
   2698000   298.37296      0.013034914    12.173726      740.27155     -22.109728      718.16182    
   2699000   311.40032      0.013034914    5.043053       772.59279     -23.738167      748.85462    
   2700000   309.59497      0.013034914   -2.2282651      768.11366     -22.941887      745.17177    
   2701000   292.61086      0.013034914    4.1866111      725.97561     -23.54715       702.42846    
   2702000   300.57658      0.013034914    9.3488035      745.73877     -24.243856      721.49491    
   2703000   316.37919      0.013034914    15.437592      784.94549     -23.490764      761.45472    
   2704000   304.37434      0.013034914   -2.8046966      755.16114     -22.757176      732.40396    
   2705000   291.23308      0.013034914    6.3959259      722.5573      -20.882541      701.67476    
   2706000   315.16261      0.013034914    15.608504      781.92712     -25.177238      756.74988    
   2707000   301.40972      0.013034914    2.1307551      747.80582     -26.804326      721.00149    
   2708000   286.41295      0.013034914    8.6555342      710.59843     -23.715695      686.88273    
   2709000   292.61623      0.013034914    7.3336133      725.98894     -27.808903      698.18004    
   2710000   308.4195       0.013034914    8.0391061      765.19729     -26.923638      738.27365    
   2711000   316.0604       0.013034914    6.3587438      784.15458     -25.948591      758.20599    
   2712000   285.21315      0.013034914    5.8251651      707.6217      -27.081312      680.54039    
   2713000   299.11723      0.013034914    9.701572       742.1181      -26.638347      715.47976    
   2714000   313.43633      0.013034914    7.7788676      777.64418     -19.310387      758.3338     
   2715000   308.43751      0.013034914    6.4676188      765.24197     -17.673971      747.568      
   2716000   297.6781       0.013034914    5.212928       738.54757     -18.656664      719.8909     
   2717000   299.3744       0.013034914    8.4357204      742.75615     -20.534123      722.22203    
   2718000   308.83777      0.013034914    9.7658273      766.23502     -18.202725      748.0323     
   2719000   305.04616      0.013034914    7.5875518      756.82793     -17.890224      738.93771    
   2720000   283.15259      0.013034914    6.5428557      702.50939     -20.167924      682.34147    
   2721000   282.7452       0.013034914    6.9303512      701.49863     -17.117494      684.38114    
   2722000   310.56958      0.013034914    7.8879799      770.53169     -20.827939      749.70375    
   2723000   300.59749      0.013034914    5.3369713      745.79066     -22.16955       723.62111    
   2724000   290.2645       0.013034914    3.9933635      720.15422     -18.130758      702.02346    
   2725000   292.38321      0.013034914    9.1547702      725.4108      -18.277159      707.13364    
   2726000   311.69257      0.013034914    9.2576666      773.31785     -19.566036      753.75181    
   2727000   301.74787      0.013034914    5.6862841      748.64479     -15.330122      733.31467    
   2728000   285.76697      0.013034914    7.9465446      708.99573     -19.852353      689.14338    
   2729000   306.32355      0.013034914    8.8308842      759.99718     -20.319767      739.67741    
   2730000   300.98846      0.013034914    7.7061013      746.76066     -20.634957      726.12571    
   2731000   295.81743      0.013034914    6.3720747      733.9312      -17.30513       716.62607    
   2732000   301.26354      0.013034914    6.5067462      747.44314     -18.665319      728.77782    
   2733000   302.162        0.013034914    7.7653272      749.67226     -16.623296      733.04896    
   2734000   309.17151      0.013034914    7.0016543      767.06304     -13.316534      753.74651    
   2735000   297.59358      0.013034914    6.6292661      738.33788     -14.406449      723.93144    
   2736000   292.21134      0.013034914    6.7782142      724.98439     -14.091087      710.8933     
   2737000   314.31181      0.013034914    6.9685671      779.81627     -16.226628      763.58964    
   2738000   314.51447      0.013034914    7.0544374      780.31907     -17.456808      762.86226    
   2739000   284.83588      0.013034914    7.300148       706.68568     -15.800088      690.88559    
   2740000   289.55551      0.013034914    4.6925758      718.3952      -17.275409      701.11979    
   2741000   298.61615      0.013034914    4.9355833      740.8749      -17.830518      723.04438    
   2742000   304.25144      0.013034914    10.918831      754.85621     -16.696511      738.1597     
   2743000   292.89079      0.013034914    6.0964446      726.67012     -18.38586       708.28426    
   2744000   289.86227      0.013034914    5.5831218      719.15629     -19.662612      699.49368    
   2745000   309.31827      0.013034914    7.3911733      767.42716     -19.432765      747.99439    
   2746000   303.91759      0.013034914    10.230393      754.02793     -23.305227      730.7227     
   2747000   284.4763       0.013034914    0.084504492    705.79354     -23.391999      682.40154    
   2748000   301.91961      0.013034914    9.0897729      749.07088     -28.67356       720.39732    
   2749000   282.14382      0.013034914    9.7642061      700.00659     -24.63791       675.36868    
   2750000   288.29829      0.013034914   -0.99009928     715.276       -23.251707      692.02429    
   2751000   305.4085       0.013034914    9.1343241      757.72691     -18.661349      739.06556    
   2752000   305.57783      0.013034914    11.288044      758.14703     -22.419238      735.72779    
   2753000   296.08585      0.013034914    2.3927289      734.59715     -23.727107      710.87005    
   2754000   302.434        0.013034914    4.6644066      750.34709     -25.023001      725.32409    
   2755000   312.62325      0.013034914    12.688939      775.6269      -24.071513      751.55539    
   2756000   294.79805      0.013034914    6.5879555      731.40208     -24.821741      706.58034    
   2757000   283.49706      0.013034914    2.9384781      703.36402     -24.395937      678.96808    
   2758000   300.70004      0.013034914    7.7606651      746.04509     -22.326634      723.71846    
   2759000   309.76696      0.013034914    10.2763        768.54038     -21.619619      746.92076    
   2760000   296.29661      0.013034914    8.80113        735.12006     -17.795677      717.32438    
   2761000   287.79059      0.013034914    7.2589275      714.01639     -19.76073       694.25566    
   2762000   313.76359      0.013034914    1.3446572      778.45613     -17.898502      760.55762    
   2763000   299.04396      0.013034914    8.3535601      741.9363      -17.633401      724.3029     
   2764000   292.78392      0.013034914    9.2903872      726.40497     -18.501471      707.9035     
   2765000   293.48492      0.013034914    4.8497194      728.14417     -18.587786      709.55638    
   2766000   318.17046      0.013034914    6.7448132      789.38968     -18.769541      770.62014    
   2767000   320.57377      0.013034914    6.0708149      795.35237     -20.512277      774.84009    
   2768000   292.02879      0.013034914    9.3817118      724.53147     -18.362471      706.169      
   2769000   292.11902      0.013034914    6.6762212      724.75534     -19.93765       704.81769    
   2770000   321.18051      0.013034914    3.471751       796.85771     -21.544782      775.31293    
   2771000   307.63155      0.013034914    7.2851363      763.24234     -18.434602      744.80774    
   2772000   292.69403      0.013034914    6.7061838      726.18197     -20.587808      705.59416    
   2773000   291.27215      0.013034914    6.8093936      722.65424     -22.815573      699.83866    
   2774000   299.22977      0.013034914    6.237721       742.39731     -17.05776       725.33955    
   2775000   305.23281      0.013034914    6.0507115      757.29102     -17.316645      739.97437    
   2776000   299.62351      0.013034914    7.5063425      743.37419     -18.093828      725.28036    
   2777000   285.80818      0.013034914    5.3739709      709.09796     -18.751249      690.34672    
   2778000   300.82613      0.013034914    7.6938566      746.35793     -18.04855       728.30938    
   2779000   307.30039      0.013034914    7.7861575      762.42074     -19.96513       742.45561    
   2780000   306.99525      0.013034914    7.5883701      761.66369     -16.589878      745.07381    
   2781000   308.3374       0.013034914    7.8036719      764.99358     -17.804466      747.18911    
   2782000   306.21572      0.013034914    7.6650399      759.72965     -20.066795      739.66286    
   2783000   298.59774      0.013034914    8.5251587      740.82922     -19.317163      721.51206    
   2784000   294.9393       0.013034914    8.5905         731.75254     -19.044183      712.70836    
   2785000   293.19378      0.013034914    5.0614075      727.42184     -19.755126      707.66672    
   2786000   299.50839      0.013034914    6.9748165      743.08856     -17.810538      725.27803    
   2787000   307.61623      0.013034914    8.4743041      763.20434     -21.237192      741.96715    
   2788000   296.95087      0.013034914    7.4935356      736.7433      -24.065131      712.67817    
   2789000   294.77735      0.013034914    6.6318384      731.35072     -22.91898       708.43174    
   2790000   296.90005      0.013034914    7.9315818      736.61721     -21.009706      715.6075     
   2791000   298.11576      0.013034914    6.7109816      739.63341     -21.965041      717.66837    
   2792000   305.06834      0.013034914    7.5662323      756.88297     -18.689472      738.1935     
   2793000   307.50678      0.013034914    5.9259494      762.93281     -20.64505       742.28776    
   2794000   299.33206      0.013034914    6.127956       742.65109     -16.90321       725.74788    
   2795000   295.19617      0.013034914    7.0562999      732.38984     -15.64443       716.74541    
   2796000   297.2641       0.013034914    4.391238       737.52043     -19.413446      718.10698    
   2797000   297.27529      0.013034914    5.2853562      737.54818     -20.228712      717.31947    
   2798000   281.68746      0.013034914    7.9303748      698.87436     -16.998124      681.87623    
   2799000   299.22075      0.013034914    8.163685       742.37494     -18.34474       724.0302     
   2800000   316.64277      0.013034914    6.3409471      785.59945     -22.264251      763.3352     
   2801000   307.56807      0.013034914    5.7834458      763.08485     -20.596585      742.48827    
   2802000   282.7079       0.013034914    1.9536387      701.40609     -18.815037      682.59105    
   2803000   287.98503      0.013034914    6.744861       714.49881     -20.037423      694.46138    
   2804000   313.23984      0.013034914    11.709777      777.15667     -21.145865      756.01081    
   2805000   309.43302      0.013034914    7.9984169      767.71185     -18.01902       749.69283    
   2806000   298.44324      0.013034914    4.3148266      740.44591     -21.100484      719.34542    
   2807000   298.68482      0.013034914    7.0965764      741.04528     -22.898846      718.14644    
   2808000   309.56553      0.013034914    9.6065619      768.04062     -21.580249      746.46038    
   2809000   314.76124      0.013034914    7.8145844      780.9313      -18.610357      762.32094    
   2810000   299.52439      0.013034914    5.6714363      743.12827     -17.725224      725.40305    
   2811000   297.24886      0.013034914    6.2687759      737.48263     -22.544244      714.93838    
   2812000   307.41447      0.013034914    8.0944122      762.70377     -21.89833       740.80544    
   2813000   296.97357      0.013034914    6.2284294      736.7996      -24.008428      712.79118    
   2814000   291.97597      0.013034914    6.9283973      724.40042     -25.589719      698.8107     
   2815000   319.13337      0.013034914    11.005558      791.77868     -23.235986      768.5427     
   2816000   303.71262      0.013034914    5.3201574      753.51939     -25.325916      728.19348    
   2817000   291.26514      0.013034914    6.4640508      722.63685     -23.94398       698.69287    
   2818000   294.62893      0.013034914    10.73321       730.9825      -25.327984      705.65451    
   2819000   309.12343      0.013034914    9.7055164      766.94375     -25.411859      741.53189    
   2820000   303.76249      0.013034914    13.778792      753.64312     -22.791519      730.8516     
   2821000   312.84756      0.013034914    5.2044332      776.18343     -21.584956      754.59847    
   2822000   292.35799      0.013034914    3.9008627      725.34823     -21.226932      704.12129    
   2823000   289.68896      0.013034914    16.300341      718.72631     -15.756242      702.97006    
   2824000   307.0022       0.013034914    5.8786973      761.68091     -14.976569      746.70434    
   2825000   293.14033      0.013034914    3.0380893      727.28924     -15.69373       711.59551    
   2826000   296.34664      0.013034914    8.4208852      735.24418     -19.720742      715.52344    
   2827000   300.95784      0.013034914    8.9616265      746.68469     -22.122644      724.56205    
   2828000   306.38794      0.013034914    5.9454441      760.15692     -22.754819      737.4021     
   2829000   300.43258      0.013034914    1.7722118      745.38151     -22.16219       723.21932    
   2830000   291.23004      0.013034914    1.5288579      722.54975     -21.78031       700.76944    
   2831000   302.52918      0.013034914    7.6060241      750.58323     -17.925782      732.65744    
   2832000   310.02456      0.013034914    10.659415      769.17947     -19.355018      749.82445    
   2833000   300.91071      0.013034914    6.0264659      746.56776     -16.033556      730.5342     
   2834000   278.78789      0.013034914    7.9728172      691.68044     -17.155062      674.52538    
   2835000   299.19568      0.013034914    8.0552684      742.31273     -19.096259      723.21647    
   2836000   299.23502      0.013034914    6.0065174      742.41033     -18.428862      723.98147    
   2837000   306.2999       0.013034914    2.9490448      759.93851     -21.206512      738.73199    
   2838000   285.0704       0.013034914    5.8091557      707.26753     -20.262219      687.00531    
   2839000   301.4745       0.013034914    9.1262231      747.96655     -22.051526      725.91502    
   2840000   298.55826      0.013034914    6.667007       740.73127     -22.473067      718.25821    
   2841000   296.45896      0.013034914    7.2857695      735.52286     -19.81174       715.71112    
   2842000   301.59945      0.013034914    7.2300295      748.27656     -17.009309      731.26725    
   2843000   297.30971      0.013034914    6.4895663      737.63358     -17.021319      720.61226    
   2844000   303.77711      0.013034914    5.0822882      753.67938     -18.343318      735.33607    
   2845000   297.80055      0.013034914    7.8369489      738.85136     -19.089204      719.76216    
   2846000   308.20433      0.013034914    7.3280775      764.66343     -16.599194      748.06424    
   2847000   307.09999      0.013034914    5.7617499      761.92355     -16.379121      745.54443    
   2848000   296.8527       0.013034914    9.5636464      736.49973     -17.664507      718.83523    
   2849000   292.97593      0.013034914    12.978479      726.88135     -18.580748      708.3006     
   2850000   299.56391      0.013034914    10.756985      743.22632     -17.960912      725.26541    
   2851000   303.52416      0.013034914    4.5197455      753.05181     -17.26888       735.78293    
   2852000   300.40112      0.013034914    6.2615159      745.30346     -19.034465      726.269      
   2853000   304.16819      0.013034914    8.3528944      754.64966     -20.049313      734.60034    
   2854000   307.69932      0.013034914    9.4973199      763.41049     -16.287519      747.12297    
   2855000   297.81937      0.013034914    4.8995077      738.89806     -16.247196      722.65086    
   2856000   307.73464      0.013034914    9.0274707      763.49814     -18.848781      744.64935    
   2857000   312.7054       0.013034914    9.3858958      775.83071     -17.451749      758.37896    
   2858000   300.62662      0.013034914    5.3440353      745.86292     -18.867183      726.99574    
   2859000   293.31385      0.013034914    6.0250956      727.71974     -22.75343       704.96631    
   2860000   300.72757      0.013034914    11.251914      746.1134      -21.884762      724.22864    
   2861000   304.46338      0.013034914    6.6676091      755.38203     -20.601827      734.78021    
   2862000   302.86091      0.013034914    6.889588       751.40626     -17.726335      733.67993    
   2863000   291.60855      0.013034914    2.5677246      723.48884     -18.330842      705.158      
   2864000   308.25698      0.013034914    8.8030117      764.79406     -19.051571      745.74249    
   2865000   302.67919      0.013034914    8.0861326      750.9554      -17.332984      733.62242    
   2866000   299.69239      0.013034914    6.427684       743.54508     -20.618843      722.92624    
   2867000   298.76619      0.013034914    6.4630937      741.24716     -22.153186      719.09397    
   2868000   293.88791      0.013034914    5.3035525      729.14401     -21.965566      707.17844    
   2869000   306.69831      0.013034914    9.3814355      760.92695     -21.462224      739.46473    
   2870000   309.60276      0.013034914    2.6522748      768.13298     -23.824057      744.30892    
   2871000   292.93197      0.013034914    6.2000664      726.7723      -24.251941      702.52036    
   2872000   294.512        0.013034914    8.457357       730.69238     -26.251123      704.44126    
   2873000   303.06137      0.013034914    7.0771049      751.90362     -25.891168      726.01246    
   2874000   306.44411      0.013034914    7.2140996      760.29629     -26.10961       734.18668    
   2875000   294.70143      0.013034914    6.6621995      731.16238     -26.536068      704.62631    
   2876000   297.16259      0.013034914    6.7422921      737.26857     -23.740076      713.52849    
   2877000   316.15479      0.013034914    6.5245036      784.38874     -24.0445        760.34424    
   2878000   302.90358      0.013034914    5.1113019      751.51213     -21.592189      729.91994    
   2879000   282.90083      0.013034914    7.3102003      701.88475     -25.739315      676.14544    
   2880000   297.15123      0.013034914    6.3718557      737.2404      -23.627766      713.61263    
   2881000   310.34954      0.013034914    7.0718771      769.98576     -22.510733      747.47502    
   2882000   304.82498      0.013034914    10.921948      756.27917     -24.038759      732.24041    
   2883000   291.94506      0.013034914    10.129774      724.32373     -22.635887      701.68784    
   2884000   294.74147      0.013034914    6.1271289      731.2617      -24.984976      706.27673    
   2885000   317.22994      0.013034914   -2.1785827      787.05622     -26.379354      760.67687    
   2886000   313.93897      0.013034914    7.0842459      778.89124     -27.516368      751.37487    
   2887000   290.91129      0.013034914    7.8773292      721.75892     -27.675248      694.08367    
   2888000   297.0539       0.013034914    8.914564       736.99891     -27.791199      709.20771    
   2889000   299.81301      0.013034914    17.32358       743.84434     -27.95586       715.88848    
   2890000   282.91534      0.013034914    5.4729571      701.92076     -28.422378      673.49838    
   2891000   298.95128      0.013034914   -10.125864      741.70637     -26.86388       714.84249    
   2892000   306.94558      0.013034914    12.035487      761.54043     -25.622938      735.9175     
   2893000   304.48802      0.013034914    7.8865659      755.44318     -26.867395      728.57579    
   2894000   306.70126      0.013034914    5.02948        760.93428     -26.787964      734.14632    
   2895000   297.51283      0.013034914   -1.0226192      738.13752     -27.037493      711.10003    
   2896000   305.69616      0.013034914    6.6677461      758.44061     -21.585794      736.85482    
   2897000   302.02461      0.013034914    17.16556       749.33137     -25.786089      723.54528    
   2898000   295.73169      0.013034914    11.997801      733.71847     -25.542199      708.17627    
   2899000   288.52201      0.013034914    3.1972841      715.83107     -29.385969      686.4451     
   2900000   304.85386      0.013034914    4.8660468      756.35083     -29.374536      726.97629    
   2901000   289.50881      0.013034914    15.268602      718.27933     -31.42243       686.8569     
   2902000   291.05634      0.013034914    11.551577      722.1188      -29.502431      692.61636    
   2903000   299.44754      0.013034914    4.8633169      742.93761     -30.927077      712.01053    
   2904000   294.7681       0.013034914    6.084127       731.32779     -30.369466      700.95832    
   2905000   306.06267      0.013034914    7.8649744      759.34992     -26.287138      733.06278    
   2906000   298.40904      0.013034914    8.5372934      740.36106     -23.594511      716.76655    
   2907000   295.25627      0.013034914    3.0985973      732.53894     -28.825015      703.71393    
   2908000   302.94666      0.013034914    7.2899007      751.61901     -24.200317      727.41869    
   2909000   309.49699      0.013034914    8.0856953      767.87056     -24.531749      743.33881    
   2910000   295.29047      0.013034914    6.4064895      732.6238      -27.632427      704.99137    
   2911000   308.9665       0.013034914    7.2836432      766.55441     -27.176178      739.37823    
   2912000   300.25607      0.013034914    6.7856425      744.94359     -25.747878      719.19571    
   2913000   308.67151      0.013034914    7.3524849      765.82253     -25.249336      740.57319    
   2914000   301.78022      0.013034914    6.7677212      748.72505     -28.813453      719.91159    
   2915000   296.15951      0.013034914    6.5248107      734.7799      -31.053865      703.72603    
   2916000   289.35104      0.013034914    6.8897115      717.8879      -31.967286      685.92061    
   2917000   299.21327      0.013034914    7.4547214      742.35638     -28.722411      713.63396    
   2918000   303.25566      0.013034914    7.540749       752.38565     -27.088621      725.29702    
   2919000   313.55132      0.013034914    6.7132478      777.92946     -28.520868      749.40859    
   2920000   286.94237      0.013034914    6.329608       711.91192     -30.13271       681.77921    
   2921000   284.33541      0.013034914    6.7325141      705.444       -27.734923      677.70907    
   2922000   308.62568      0.013034914    8.5221852      765.70883     -27.466677      738.24215    
   2923000   308.25032      0.013034914    5.3716233      764.77753     -24.482374      740.29516    
   2924000   300.33854      0.013034914    3.9064225      745.1482      -26.234912      718.91329    
   2925000   292.37451      0.013034914    8.3997121      725.38921     -22.805387      702.58382    
   2926000   297.38153      0.013034914    9.8167645      737.81178     -22.223382      715.5884     
   2927000   298.64369      0.013034914    4.7566401      740.94323     -22.808162      718.13507    
   2928000   296.55947      0.013034914    5.9036148      735.77223     -20.195237      715.57699    
   2929000   295.64804      0.013034914    14.130839      733.51093     -20.716778      712.79415    
   2930000   307.62379      0.013034914    5.2937973      763.2231      -24.588083      738.63502    
   2931000   284.9397       0.013034914    0.081007701    706.94326     -26.579921      680.36334    
   2932000   298.52698      0.013034914    9.3559681      740.65366     -25.529898      715.12376    
   2933000   310.44096      0.013034914    8.1885409      770.21259     -22.236793      747.97579    
   2934000   306.13153      0.013034914    0.49604798     759.52075     -24.605367      734.91539    
   2935000   296.16356      0.013034914    4.0327847      734.78995     -25.90405       708.8859     
   2936000   297.4072       0.013034914    10.561335      737.87547     -23.501559      714.37391    
   2937000   305.33567      0.013034914    7.1136811      757.5462      -25.042071      732.50413    
   2938000   311.42576      0.013034914    7.7048438      772.65589     -24.420291      748.2356     
   2939000   281.78886      0.013034914    6.8836054      699.12592     -26.913467      672.21246    
   2940000   295.54313      0.013034914    6.7180491      733.25064     -20.671436      712.57921    
   2941000   310.79579      0.013034914    7.5913181      771.09292     -24.965095      746.12783    
   2942000   302.16148      0.013034914    5.3266905      749.67097     -21.518894      728.15208    
   2943000   284.87157      0.013034914    6.6814615      706.77423     -21.667883      685.10634    
   2944000   291.37623      0.013034914    7.5950604      722.91246     -24.428931      698.48353    
   2945000   316.53396      0.013034914    6.6604341      785.32949     -28.648135      756.68135    
   2946000   294.21227      0.013034914    6.2742788      729.94876     -26.395347      703.55341    
   2947000   290.96358      0.013034914    6.8165685      721.88866     -28.490111      693.39855    
   2948000   305.32298      0.013034914    4.9153627      757.51473     -22.194024      735.32071    
   2949000   305.30832      0.013034914    8.5994072      757.47835     -22.552423      734.92593    
   2950000   285.46621      0.013034914    5.8219759      708.24954     -22.354721      685.89482    
   2951000   294.10028      0.013034914    5.8925865      729.6709      -21.454585      708.21631    
   2952000   303.50896      0.013034914    10.402674      753.01411     -23.743953      729.27015    
   2953000   303.31501      0.013034914    7.023142       752.5329      -23.605975      728.92692    
   2954000   291.52684      0.013034914    5.3620118      723.28611     -23.700687      699.58543    
   2955000   304.56202      0.013034914    7.3076521      755.62676     -22.358651      733.26811    
   2956000   295.1133       0.013034914    7.9474823      732.18423     -25.092706      707.09152    
   2957000   291.95613      0.013034914    6.7001179      724.35122     -26.754836      697.59638    
   2958000   312.47722      0.013034914    7.5670971      775.26459     -22.805641      752.45895    
   2959000   305.6975       0.013034914    6.2737866      758.44392     -24.590692      733.85323    
   2960000   282.06008      0.013034914    6.2901264      699.79884     -29.943067      669.85578    
   2961000   295.40182      0.013034914    7.2129826      732.90006     -26.177096      706.72296    
   2962000   299.96782      0.013034914    7.2290944      744.22843     -28.352334      715.8761     
   2963000   301.60698      0.013034914    6.2647632      748.29523     -26.838332      721.4569     
   2964000   295.98171      0.013034914    6.7400931      734.33879     -24.722059      709.61673    
   2965000   297.49351      0.013034914    7.1922578      738.0896      -23.552078      714.53753    
   2966000   306.03752      0.013034914    6.2634067      759.28752     -25.502237      733.78529    
   2967000   291.79782      0.013034914    5.0467996      723.95845     -26.120451      697.838      
   2968000   298.34793      0.013034914    9.4998276      740.20944     -20.795033      719.41441    
   2969000   304.79522      0.013034914    7.4680327      756.20535     -21.872881      734.33247    
   2970000   304.47178      0.013034914    4.7703999      755.40288     -24.122721      731.28016    
   2971000   293.10311      0.013034914    6.1516411      727.19689     -18.75297       708.44392    
   2972000   305.71266      0.013034914    14.110929      758.48154     -20.726175      737.75536    
   2973000   297.46298      0.013034914    4.9291203      738.01385     -23.116824      714.89702    
   2974000   284.91815      0.013034914    4.477671       706.88979     -26.125916      680.76387    
   2975000   307.57354      0.013034914    13.672954      763.09844     -24.29109       738.80735    
   2976000   311.57607      0.013034914    9.1270485      773.02882     -29.475773      743.55304    
   2977000   294.65165      0.013034914   -0.12899164     731.03887     -27.154568      703.8843     
   2978000   279.4297       0.013034914    5.6437922      693.27279     -24.307386      668.96541    
   2979000   300.25133      0.013034914    7.6227011      744.93182     -20.96057       723.97125    
   2980000   304.04048      0.013034914    7.7643701      754.3328      -20.739355      733.59345    
   2981000   295.73818      0.013034914    9.0212018      733.73458     -20.580605      713.15398    
   2982000   317.94465      0.013034914    7.6099175      788.82945     -22.973836      765.85562    
   2983000   299.63198      0.013034914    5.5266606      743.39521     -22.980242      720.41497    
   2984000   296.37044      0.013034914    5.7326555      735.30322     -25.253738      710.04948    
   2985000   297.81419      0.013034914    7.6564061      738.88522     -27.113015      711.7722     
   2986000   301.99572      0.013034914    10.485698      749.25971     -27.05709       722.20262    
   2987000   312.06077      0.013034914    4.4039921      774.23138     -24.957319      749.27406    
   2988000   292.51415      0.013034914    0.70583854     725.73567     -22.171578      703.56409    
   2989000   282.27645      0.013034914    10.149788      700.33566     -26.273831      674.06183    
   2990000   304.25791      0.013034914    10.427935      754.87227     -19.065536      735.80673    
   2991000   303.47348      0.013034914   -5.616075       752.92606     -22.85122       730.07484    
   2992000   287.09671      0.013034914    6.1012627      712.29484     -24.020535      688.27431    
   2993000   298.41527      0.013034914    13.677551      740.37651     -23.609862      716.76664    
   2994000   310.67139      0.013034914    8.8538377      770.78429     -23.951069      746.83322    
   2995000   311.15207      0.013034914    7.4563193      771.97685     -19.500077      752.47678    
   2996000   297.76868      0.013034914    5.8877723      738.77231     -22.627694      716.14462    
   2997000   298.08514      0.013034914    5.7961124      739.55744     -21.337638      718.2198     
   2998000   307.65921      0.013034914    14.78459       763.31097     -21.836551      741.47442    
   2999000   298.21428      0.013034914    6.4539044      739.87784     -17.416038      722.46181    
   3000000   299.84812      0.013034914    3.0197351      743.93145     -14.732431      729.19902    
   3001000   286.66782      0.013034914    10.566659      711.23076     -17.163033      694.06772    
   3002000   305.51288      0.013034914    10.399163      757.98587     -18.911976      739.0739     
   3003000   302.55574      0.013034914   -2.4657147      750.64914     -18.337539      732.3116     
   3004000   300.61688      0.013034914    1.5752288      745.83878     -19.364826      726.47395    
   3005000   300.89224      0.013034914    9.1233787      746.52193     -20.722818      725.79911    
   3006000   302.67384      0.013034914    12.716598      750.94213     -26.015487      724.92665    
   3007000   303.25977      0.013034914    8.7451879      752.39585     -22.42012       729.97573    
   3008000   299.33681      0.013034914    1.8898979      742.66287     -23.204208      719.45866    
   3009000   297.50634      0.013034914    8.185686       738.12143     -24.203413      713.91802    
   3010000   301.09404      0.013034914    7.7221445      747.0226      -22.841419      724.18119    
   3011000   288.87676      0.013034914    10.142329      716.7112      -23.110678      693.60052    
   3012000   314.94269      0.013034914    6.9992286      781.3815      -23.923797      757.4577     
   3013000   303.97059      0.013034914    4.5956012      754.1594      -24.905086      729.25431    
   3014000   287.83905      0.013034914    6.2301818      714.13661     -23.331375      690.80524    
   3015000   306.45409      0.013034914    6.5165467      760.32103     -20.155379      740.16565    
   3016000   304.7185       0.013034914    7.3758464      756.01499     -23.33825       732.67674    
   3017000   297.42088      0.013034914    10.782424      737.90941     -24.112016      713.79739    
   3018000   293.80934      0.013034914    8.0765545      728.94907     -23.998855      704.95021    
   3019000   303.81919      0.013034914    3.5000561      753.78379     -24.177303      729.60648    
   3020000   305.36889      0.013034914    5.9136923      757.62863     -26.123966      731.50467    
   3021000   301.94016      0.013034914    6.0441474      749.12187     -29.606409      719.51546    
   3022000   295.67074      0.013034914    9.5266239      733.56726     -31.218696      702.34857    
   3023000   302.91117      0.013034914   -2.4421606      751.53096     -27.182686      724.34828    
   3024000   306.93049      0.013034914    1.8987456      761.50301     -26.11156       735.39145    
   3025000   299.42983      0.013034914    9.3799359      742.89366     -28.144273      714.74939    
   3026000   308.44599      0.013034914    8.0688467      765.26301     -29.069291      736.19372    
   3027000   291.32697      0.013034914    5.2711247      722.79024     -26.543962      696.24628    
   3028000   305.00654      0.013034914    5.32405        756.72964     -25.840681      730.88896    
   3029000   302.91569      0.013034914    4.5165278      751.54218     -23.597871      727.94431    
   3030000   307.6362       0.013034914    20.128049      763.2539      -23.258625      739.99528    
   3031000   294.58987      0.013034914    9.2198448      730.88558     -27.15585       703.72973    
   3032000   302.18964      0.013034914    3.6420876      749.74083     -24.129361      725.61146    
   3033000   308.87099      0.013034914    7.3661974      766.31743     -24.067163      742.25027    
   3034000   300.33283      0.013034914    8.096172       745.13403     -22.780773      722.35325    
   3035000   298.20873      0.013034914    7.1541936      739.86408     -21.031508      718.83258    
   3036000   301.9973       0.013034914    7.2859159      749.26362     -20.247         729.01662    
   3037000   308.69882      0.013034914    7.1300763      765.89028     -22.712172      743.1781     
   3038000   297.23945      0.013034914    7.4776121      737.45927     -20.22643       717.23284    
   3039000   294.95215      0.013034914    6.1890147      731.78441     -23.45721       708.3272     
   3040000   294.24098      0.013034914    7.0753869      730.01998     -20.974373      709.0456     
   3041000   306.38194      0.013034914    6.6644082      760.14204     -21.767462      738.37458    
   3042000   295.17816      0.013034914    4.9192292      732.34516     -22.749038      709.59612    
   3043000   297.77412      0.013034914    6.9413455      738.7858      -23.249865      715.53594    
   3044000   282.16651      0.013034914    5.8207566      700.06289     -24.704151      675.35874    
   3045000   309.25373      0.013034914    8.1093177      767.26703     -20.025969      747.24106    
   3046000   302.92925      0.013034914    7.5250369      751.57583     -23.691484      727.88434    
   3047000   299.83495      0.013034914    7.1622139      743.89878     -21.551009      722.34777    
   3048000   292.34339      0.013034914    7.6899418      725.312       -19.872731      705.43927    
   3049000   298.4779       0.013034914    6.3534045      740.5319      -23.074344      717.45755    
   3050000   293.15749      0.013034914    6.711908       727.33181     -25.816673      701.51514    
   3051000   309.55125      0.013034914    7.1368732      768.00519     -22.045038      745.96015    
   3052000   304.91473      0.013034914    8.550515       756.50186     -24.949145      731.55271    
   3053000   299.76236      0.013034914    6.8039823      743.71867     -24.711319      719.00735    
   3054000   297.18966      0.013034914    7.4003461      737.33575     -23.380345      713.9554     
   3055000   300.91541      0.013034914    6.992746       746.57942     -21.383633      725.19578    
   3056000   291.95036      0.013034914    1.9317431      724.33689     -23.725745      700.61114    
   3057000   295.34932      0.013034914    7.5905475      732.76981     -18.750192      714.01962    
   3058000   283.4891       0.013034914    6.6872679      703.34428     -27.149679      676.1946     
   3059000   300.0126       0.013034914    7.3182841      744.33952     -24.037266      720.30226    
   3060000   306.92777      0.013034914    7.6076469      761.49625     -23.348254      738.148      
   3061000   304.27238      0.013034914    7.4214702      754.90817     -21.294149      733.61402    
   3062000   303.39846      0.013034914    7.2764022      752.73993     -19.414858      733.32507    
   3063000   303.49943      0.013034914    7.0146793      752.99045     -22.028965      730.96149    
   3064000   296.46089      0.013034914    5.6205409      735.52764     -19.462284      716.06535    
   3065000   297.07514      0.013034914    8.1642223      737.05162     -19.47291       717.57871    
   3066000   299.25461      0.013034914    9.0703851      742.45894     -19.22858       723.23036    
   3067000   300.16196      0.013034914    3.6889555      744.71009     -23.523865      721.18622    
   3068000   302.38097      0.013034914    5.6070798      750.21551     -19.98088       730.23463    
   3069000   304.65152      0.013034914    6.3336414      755.84883     -19.700832      736.148      
   3070000   305.60145      0.013034914    9.9354794      758.20562     -19.52351       738.68211    
   3071000   296.43634      0.013034914    7.5995466      735.46673     -17.747534      717.7192     
   3072000   300.97366      0.013034914    6.5423815      746.72394     -20.950016      725.77392    
   3073000   300.97551      0.013034914    7.7536848      746.72853     -19.199299      727.52923    
   3074000   308.9117       0.013034914    7.8030704      766.41845     -18.090655      748.3278     
   3075000   299.46982      0.013034914    7.8710466      742.99287     -20.480343      722.51253    
   3076000   287.68823      0.013034914    6.8807459      713.76243     -18.746994      695.01544    
   3077000   303.16594      0.013034914    7.3769417      752.16304     -21.08652       731.07652    
   3078000   317.37319      0.013034914    8.4229494      787.41162     -20.383005      767.02862    
   3079000   303.44301      0.013034914    6.3636538      752.85048     -21.141754      731.70873    
   3080000   286.12342      0.013034914    4.7384889      709.88009     -21.006165      688.87392    
   3081000   298.67325      0.013034914    9.1383088      741.01657     -21.60461       719.41196    
   3082000   313.42658      0.013034914    11.84335       777.61999     -18.55844       759.06155    
   3083000   315.05006      0.013034914    6.7097197      781.64789     -17.194372      764.45352    
   3084000   285.39244      0.013034914    1.7582038      708.0665      -19.952852      688.11365    
   3085000   297.81067      0.013034914    7.5088468      738.87648     -17.93369       720.94279    
   3086000   299.31045      0.013034914    8.875055       742.59747     -17.207297      725.39017    
   3087000   322.43609      0.013034914    21.952252      799.97282     -20.898231      779.07459    
   3088000   308.63515      0.013034914    8.1103594      765.73232     -20.119421      745.6129     
   3089000   293.55142      0.013034914   -6.2302112      728.30916     -24.647672      703.66148    
   3090000   290.24186      0.013034914    0.3354948      720.09805     -26.119407      693.97865    
   3091000   312.80843      0.013034914    12.709797      776.08633     -24.864098      751.22223    
   3092000   310.51526      0.013034914   -10.601362      770.39693     -20.172654      750.22427    
   3093000   289.22719      0.013034914    6.119972       717.58064     -18.586301      698.99434    
   3094000   303.40029      0.013034914    14.018023      752.74447     -18.91001       733.83446    
   3095000   323.30187      0.013034914    2.4031717      802.12084     -17.420642      784.7002     
   3096000   302.30168      0.013034914    6.6463444      750.0188      -16.219832      733.79897    
   3097000   311.58322      0.013034914    10.193546      773.04655     -18.280501      754.76605    
   3098000   298.84956      0.013034914   -0.41802108     741.454       -16.83577       724.61823    
   3099000   289.11326      0.013034914    7.3493803      717.29797     -19.264578      698.03339    
   3100000   296.94375      0.013034914    13.243793      736.72564     -21.757464      714.96818    
   3101000   316.51074      0.013034914    14.10051       785.27187     -18.95782       766.31405    
   3102000   322.56459      0.013034914    15.965335      800.29164     -19.076497      781.21515    
   3103000   297.48504      0.013034914    4.3715083      738.06859     -21.190338      716.87825    
   3104000   296.35709      0.013034914    1.1966328      735.2701      -24.385289      710.88481    
   3105000   297.72546      0.013034914    7.2992224      738.66508     -20.041039      718.62404    
   3106000   294.10096      0.013034914    10.341374      729.67258     -20.52786       709.14472    
   3107000   304.34724      0.013034914    11.358498      755.09389     -24.449175      730.64471    
   3108000   301.68263      0.013034914    2.4712568      748.48293     -24.453752      724.02918    
   3109000   301.59422      0.013034914    1.9871198      748.26357     -26.058492      722.20508    
   3110000   298.40561      0.013034914    11.257733      740.35256     -20.128388      720.22417    
   3111000   301.89644      0.013034914    5.4478484      749.01338     -21.405905      727.60747    
   3112000   290.26596      0.013034914    6.1615951      720.15784     -26.962891      693.19495    
   3113000   307.05842      0.013034914    8.6204125      761.82039     -28.118112      733.70228    
   3114000   296.96425      0.013034914    7.5978696      736.77649     -27.155652      709.62084    
   3115000   293.49901      0.013034914    6.7510083      728.17915     -24.020931      704.15822    
   3116000   300.42103      0.013034914    10.456328      745.35286     -26.879781      718.47308    
   3117000   311.46896      0.013034914    6.9901912      772.76307     -23.727605      749.03546    
   3118000   300.79081      0.013034914    6.0501222      746.27029     -19.723331      726.54696    
   3119000   285.65845      0.013034914    6.4644425      708.72649     -22.555293      686.1712     
   3120000   292.81327      0.013034914    9.8805624      726.4778      -20.093311      706.38449    
   3121000   319.41137      0.013034914    7.0135253      792.46842     -22.866692      769.60173    
   3122000   300.7942       0.013034914    5.9245402      746.27871     -20.150325      726.12838    
   3123000   290.84677      0.013034914   -1.0203422      721.59884     -24.288199      697.31064    
   3124000   296.45119      0.013034914    3.2482126      735.50358     -21.54608       713.9575     
   3125000   299.48583      0.013034914    13.08897       743.0326      -18.329003      724.7036     
   3126000   297.79633      0.013034914    22.433324      738.84091     -20.282807      718.55811    
   3127000   287.69518      0.013034914   -1.7567766      713.77967     -18.053361      695.72631    
   3128000   300.55898      0.013034914    7.9225766      745.69511     -20.901843      724.79327    
   3129000   304.83242      0.013034914    4.9690792      756.29764     -17.986599      738.31104    
   3130000   309.937        0.013034914    6.7950146      768.96224     -16.038892      752.92335    
   3131000   292.45002      0.013034914    7.8780452      725.57656     -15.552306      710.02425    
   3132000   298.08307      0.013034914    5.6411856      739.55232     -18.714075      720.83824    
   3133000   307.96838      0.013034914    7.2130708      764.07803     -15.064514      749.01352    
   3134000   313.97397      0.013034914    9.1903247      778.97807     -16.731323      762.24674    
   3135000   291.42757      0.013034914    7.9353901      723.03983     -15.431694      707.60813    
   3136000   290.44556      0.013034914    7.1903799      720.60345     -14.611943      705.99151    
   3137000   323.99426      0.013034914    8.9193421      803.8387      -13.962901      789.8758     
   3138000   309.51452      0.013034914    6.5463882      767.91405     -12.90533       755.00872    
   3139000   287.25609      0.013034914    4.62125        712.69028     -14.842633      697.84764    
   3140000   272.97016      0.013034914    9.6126839      677.24648     -15.59252       661.65396    
   3141000   309.39346      0.013034914    9.4402851      767.6137      -18.66974       748.94396    
   3142000   305.30048      0.013034914    5.8466052      757.4589      -18.821585      738.63731    
   3143000   295.25262      0.013034914    5.0505406      732.52988     -23.42008       709.1098     
   3144000   288.72245      0.013034914    7.2167068      716.32835     -19.171552      697.1568     
   3145000   296.18274      0.013034914    6.7321588      734.83754     -21.436167      713.40137    
   3146000   304.7101       0.013034914    7.0609683      755.99417     -21.544134      734.45003    
   3147000   299.67639      0.013034914    6.5005742      743.50538     -21.058179      722.4472     
   3148000   293.67616      0.013034914    9.9667443      728.61866     -20.602316      708.01634    
   3149000   292.60133      0.013034914    5.1096347      725.95197     -21.022995      704.92897    
   3150000   320.2903       0.013034914    5.4297202      794.64906     -24.622004      770.02705    
   3151000   303.05606      0.013034914    8.3889143      751.89043     -19.98527       731.90516    
   3152000   291.11131      0.013034914    10.07651       722.25518     -21.660391      700.59479    
   3153000   292.88708      0.013034914    5.7936825      726.66091     -21.758979      704.90193    
   3154000   317.23412      0.013034914    4.6893137      787.06659     -20.329609      766.73698    
   3155000   302.88515      0.013034914    7.8846156      751.4664      -19.32937       732.13703    
   3156000   289.19858      0.013034914    6.581479       717.50965     -15.646105      701.86355    
   3157000   305.14064      0.013034914    6.0295172      757.06234     -16.448578      740.61377    
   3158000   313.18795      0.013034914    7.7568511      777.02794     -16.034536      760.99341    
   3159000   300.78298      0.013034914    12.859951      746.25086     -17.811118      728.43974    
   3160000   289.20939      0.013034914    9.8698564      717.53646     -17.782175      699.75428    
   3161000   299.26192      0.013034914    2.5437596      742.47707     -13.804364      728.67271    
   3162000   309.26529      0.013034914    7.4750327      767.2957      -14.096358      753.19934    
   3163000   303.63514      0.013034914    14.270787      753.32715     -17.084407      736.24274    
   3164000   294.83607      0.013034914    10.542495      731.49643     -18.51703       712.9794     
   3165000   299.87529      0.013034914    5.2886052      743.99887     -19.308145      724.69073    
   3166000   304.63326      0.013034914    4.875789       755.80353     -20.019906      735.78362    
   3167000   303.77548      0.013034914    7.1100958      753.67534     -17.293067      736.38227    
   3168000   294.40871      0.013034914    9.5520546      730.43612     -23.068926      707.3672     
   3169000   298.08547      0.013034914    6.175566       739.55828     -21.745887      717.81239    
   3170000   306.73197      0.013034914    6.7411444      761.01046     -16.782122      744.22834    
   3171000   302.13328      0.013034914    7.5950121      749.601       -16.121621      733.47938    
   3172000   293.6503       0.013034914    9.4586782      728.55449     -17.073002      711.48149    
   3173000   301.00003      0.013034914    8.5143804      746.78938     -17.710967      729.07841    
   3174000   302.53617      0.013034914    4.6221489      750.60058     -20.120592      730.47998    
   3175000   303.80933      0.013034914    7.8497055      753.75931     -17.424506      736.33481    
   3176000   303.2427       0.013034914    9.1696177      752.35349     -20.027325      732.32616    
   3177000   302.46945      0.013034914    8.7223119      750.43504     -23.029854      727.40518    
   3178000   297.12847      0.013034914    2.7348477      737.18393     -23.152465      714.03146    
   3179000   300.66042      0.013034914    9.4386135      745.9468      -20.009417      725.93738    
   3180000   295.94475      0.013034914    13.092627      734.24708     -23.629786      710.61729    
   3181000   300.6839       0.013034914    5.6453654      746.00505     -23.112039      722.89301    
   3182000   313.61069      0.013034914   -1.7653284      778.07677     -23.970403      754.10637    
   3183000   293.941        0.013034914    12.77128       729.27573     -24.125499      705.15023    
   3184000   298.80577      0.013034914    11.45885       741.34534     -24.28192       717.06342    
   3185000   306.59484      0.013034914   -5.2137087      760.67025     -23.723025      736.94722    
   3186000   299.63024      0.013034914    8.3764232      743.39088     -21.678106      721.71277    
   3187000   290.33826      0.013034914    8.9365997      720.33724     -24.01988       696.31736    
   3188000   303.97524      0.013034914    7.9314369      754.17095     -21.720874      732.45007    
   3189000   300.90122      0.013034914    6.2334075      746.54422     -25.587888      720.95634    
   3190000   307.52309      0.013034914   -2.3436275      762.97325     -25.544117      737.42914    
   3191000   306.78151      0.013034914    4.9347         761.13339     -21.920863      739.21253    
   3192000   299.40414      0.013034914    9.3737964      742.82992     -23.980425      718.8495     
   3193000   295.1967       0.013034914    7.3946101      732.39115     -22.853259      709.5379     
   3194000   301.86746      0.013034914    6.449387       748.9415      -17.484946      731.45655    
   3195000   301.71362      0.013034914    6.3204102      748.5598      -19.745111      728.81469    
   3196000   303.9819       0.013034914    7.055295       754.18746     -21.336116      732.85135    
   3197000   311.514        0.013034914    7.2148926      772.87482     -24.598961      748.27586    
   3198000   298.65122      0.013034914    8.2889305      740.9619      -25.516411      715.44549    
   3199000   295.23374      0.013034914    4.8748131      732.48305     -21.719942      710.76311    
   3200000   308.64696      0.013034914    5.6532652      765.76161     -18.751356      747.01025    
   3201000   308.88359      0.013034914    10.707807      766.3487      -19.018167      747.33053    
   3202000   294.87306      0.013034914    7.9602687      731.5882      -19.185983      712.40222    
   3203000   293.9648       0.013034914    6.6638749      729.33478     -16.637833      712.69695    
   3204000   299.36105      0.013034914    6.1543307      742.72303     -24.300304      718.42272    
   3205000   303.71491      0.013034914    7.7109968      753.52507     -20.604393      732.92068    
   3206000   305.61557      0.013034914    7.9692352      758.24064     -20.425616      737.81503    
   3207000   293.79359      0.013034914    7.2425552      728.91001     -19.716932      709.19307    
   3208000   293.3967       0.013034914    6.6164692      727.9253      -20.096585      707.82872    
   3209000   302.38967      0.013034914    7.0841287      750.23711     -19.792338      730.44477    
   3210000   305.79609      0.013034914    5.9403151      758.68853     -19.618042      739.07049    
   3211000   286.63705      0.013034914    9.4508887      711.15442     -18.702066      692.45236    
   3212000   301.44557      0.013034914    9.137186       747.89478     -20.225755      727.66902    
   3213000   306.3721       0.013034914    5.8319935      760.11762     -22.11595       738.00167    
   3214000   304.17756      0.013034914    5.2830337      754.6729      -22.380288      732.29262    
   3215000   298.40909      0.013034914    5.8027042      740.36117     -22.076598      718.28457    
   3216000   295.41122      0.013034914    7.438186       732.92337     -23.374883      709.54849    
   3217000   291.55547      0.013034914    7.5281767      723.35716     -23.355725      700.00143    
   3218000   302.39852      0.013034914    6.868092       750.25906     -23.824175      726.43488    
   3219000   297.12903      0.013034914    4.605702       737.18531     -21.220062      715.96524    
   3220000   297.38253      0.013034914    5.739098       737.81426     -22.29574       715.51852    
   3221000   290.60395      0.013034914    6.1337746      720.99641     -27.623905      693.37251    
   3222000   295.92192      0.013034914    9.3621992      734.19044     -20.793487      713.39695    
   3223000   296.61509      0.013034914    5.1866617      735.91022     -22.603305      713.30692    
   3224000   299.34331      0.013034914    7.3532099      742.679       -19.989688      722.68931    
   3225000   307.64792      0.013034914    15.502908      763.28296     -21.679473      741.60349    
   3226000   292.51415      0.013034914    3.8697712      725.73567     -20.495092      705.24058    
   3227000   291.05506      0.013034914    4.0160306      722.11563     -21.916924      700.19871    
   3228000   292.62219      0.013034914    7.2179356      726.00371     -18.481178      707.52253    
   3229000   302.93575      0.013034914    15.239489      751.59195     -18.115439      733.47651    
   3230000   300.74224      0.013034914    8.0599251      746.1498      -17.787708      728.36209    
   3231000   301.34342      0.013034914    4.8721843      747.64133     -19.279282      728.36205    
   3232000   293.55217      0.013034914    7.156018       728.31102     -18.587793      709.72323    
   3233000   297.11576      0.013034914    9.679601       737.15238     -22.520174      714.63221    
   3234000   307.60329      0.013034914    15.122649      763.17223     -20.565259      742.60697    
   3235000   302.07026      0.013034914    6.5286778      749.44463     -21.08079       728.36384    
   3236000   291.13046      0.013034914    0.57005493     722.3027      -20.30902       701.99368    
   3237000   298.33145      0.013034914    7.7642518      740.16854     -21.737669      718.43087    
   3238000   303.29589      0.013034914    13.497438      752.48547     -20.490344      731.99513    
   3239000   315.72471      0.013034914    7.9736955      783.32171     -20.364515      762.9572     
   3240000   300.01371      0.013034914    7.4386302      744.34228     -18.208819      726.13346    
   3241000   290.90893      0.013034914    6.1110926      721.75307     -17.534826      704.21825    
   3242000   303.3865       0.013034914    12.796971      752.71028     -17.289703      735.42058    
   3243000   316.9352       0.013034914    5.3037438      786.32496     -20.446761      765.87819    
   3244000   286.26137      0.013034914    5.2256493      710.22234     -24.645866      685.57647    
   3245000   297.61503      0.013034914    7.5716212      738.3911      -26.634338      711.75676    
   3246000   311.0923       0.013034914    8.1046194      771.82857     -27.992115      743.83646    
   3247000   307.78828      0.013034914    6.4005047      763.6312      -23.817557      739.81364    
   3248000   296.61198      0.013034914    8.4474919      735.9025      -23.045808      712.85669    
   3249000   293.28695      0.013034914    4.3539276      727.653       -19.134507      708.51849    
   3250000   304.71099      0.013034914    2.6684735      755.99636     -22.850456      733.1459     
   3251000   296.81039      0.013034914    7.0311391      736.39475     -21.681305      714.71344    
   3252000   304.34777      0.013034914    7.626684       755.09521     -20.596085      734.49912    
   3253000   303.87654      0.013034914    6.8193248      753.92608     -22.777924      731.14816    
   3254000   306.61045      0.013034914    5.8052044      760.70898     -21.530917      739.17806    
   3255000   307.43276      0.013034914    8.5334915      762.74915     -23.488208      739.26094    
   3256000   293.95612      0.013034914    7.0894714      729.31323     -21.329686      707.98355    
   3257000   288.21064      0.013034914    7.4713673      715.05855     -26.075093      688.98346    
   3258000   317.41038      0.013034914    7.1494768      787.50391     -26.878799      760.62511    
   3259000   305.91801      0.013034914    7.1998181      758.99101     -23.304397      735.68662    
   3260000   287.75706      0.013034914    6.4840946      713.9332      -20.755902      693.1773     
   3261000   290.73648      0.013034914    7.4504546      721.32523     -20.722722      700.60251    
   3262000   307.07859      0.013034914    6.8607919      761.87044     -26.846618      735.02382    
   3263000   310.76178      0.013034914    7.435044       771.00854     -22.658589      748.34995    
   3264000   287.19058      0.013034914    7.281301       712.52773     -23.971549      688.55619    
   3265000   299.89311      0.013034914    6.6463366      744.04307     -23.982642      720.06042    
   3266000   307.90612      0.013034914    7.3279781      763.92358     -24.930703      738.99287    
   3267000   303.85269      0.013034914    7.5771153      753.86689     -23.100616      730.76628    
   3268000   292.24337      0.013034914    7.0783727      725.06385     -20.055555      705.00829    
   3269000   289.86695      0.013034914    6.8267797      719.1679      -18.338253      700.82964    
   3270000   310.97449      0.013034914    8.958398       771.53627     -13.954571      757.5817     
   3271000   301.93324      0.013034914    6.2029302      749.10469     -19.487945      729.61675    
   3272000   307.85154      0.013034914    4.1817642      763.78816     -26.163338      737.62483    
   3273000   292.03471      0.013034914    9.8461829      724.54617     -20.863181      703.68299    
   3274000   311.37885      0.013034914    9.7236664      772.53951     -19.876751      752.66276    
   3275000   302.01339      0.013034914    5.7621609      749.30356     -16.742687      732.56087    
   3276000   296.02763      0.013034914    12.432491      734.4527      -17.178143      717.27456    
   3277000   304.5331       0.013034914    6.3948887      755.55502     -14.048152      741.50687    
   3278000   296.68518      0.013034914    6.704901       736.08411     -19.16352       716.92059    
   3279000   317.17161      0.013034914    10.316553      786.91151     -21.855771      765.05574    
   3280000   309.40778      0.013034914    7.4504885      767.64923     -22.25677       745.39246    
   3281000   287.28047      0.013034914    6.5254577      712.75077     -25.081808      687.66896    
   3282000   280.77939      0.013034914    6.2034326      696.62141     -25.768036      670.85337    
   3283000   305.35338      0.013034914    7.7680529      757.59015     -21.879766      735.71038    
   3284000   307.68338      0.013034914    7.5088628      763.37094     -19.375195      743.99575    
   3285000   291.33191      0.013034914    5.9784735      722.80251     -21.17623       701.62628    
   3286000   286.15101      0.013034914    4.3410283      709.94854     -20.906783      689.04176    
   3287000   291.56046      0.013034914    10.698327      723.36955     -19.885006      703.48454    
   3288000   310.58858      0.013034914    7.555331       770.57883     -21.531359      749.04747    
   3289000   305.02261      0.013034914    7.591586       756.7695      -22.953718      733.81578    
   3290000   297.79699      0.013034914    2.7450562      738.84254     -23.366667      715.47587    
   3291000   301.33666      0.013034914   -1.5943595      747.62455     -23.486602      724.13795    
   3292000   295.67931      0.013034914    7.2127453      733.58853     -25.126698      708.46183    
   3293000   307.86789      0.013034914    8.4146802      763.82871     -24.162226      739.66649    
   3294000   297.9509       0.013034914    6.1040176      739.2244      -25.912045      713.31236    
   3295000   285.84644      0.013034914    4.0706553      709.1929      -29.273104      679.91979    
   3296000   300.90931      0.013034914    10.234461      746.5643      -24.05403       722.51027    
   3297000   297.14346      0.013034914    9.3770707      737.22112     -25.642893      711.57823    
   3298000   300.0902       0.013034914    7.0296742      744.53206     -25.624294      718.90777    
   3299000   301.48136      0.013034914    8.1417223      747.98356     -22.300835      725.68273    
   3300000   303.72007      0.013034914    7.3658425      753.53788     -27.266888      726.27099    
   3301000   309.93776      0.013034914    6.7483389      768.96412     -27.346385      741.61774    
   3302000   300.73759      0.013034914    6.4665737      746.13826     -24.740911      721.39735    
   3303000   295.70144      0.013034914    6.3887309      733.64343     -24.668617      708.97481    
   3304000   316.82518      0.013034914    7.971488       786.052       -23.369314      762.68268    
   3305000   301.00153      0.013034914    7.6401175      746.7931      -24.724087      722.06901    
   3306000   300.07876      0.013034914    8.4420341      744.50367     -23.566874      720.9368     
   3307000   295.94778      0.013034914    6.5180684      734.25459     -27.624659      706.62993    
   3308000   312.85818      0.013034914    8.5074062      776.20977     -27.306395      748.90338    
   3309000   307.90659      0.013034914    6.833628       763.92473     -30.353157      733.57157    
   3310000   302.47579      0.013034914    7.4177085      750.45078     -25.703277      724.7475     
   3311000   299.92272      0.013034914    6.4331703      744.11654     -31.350217      712.76632    
   3312000   291.56356      0.013034914    7.1770297      723.37723     -27.797147      695.58008    
   3313000   287.45526      0.013034914    10.205548      713.18444     -28.304346      684.88009    
   3314000   296.54434      0.013034914    7.6595053      735.73468     -25.798744      709.93594    
   3315000   298.11074      0.013034914    3.4041851      739.62097     -26.537102      713.08387    
   3316000   296.85894      0.013034914    7.2074161      736.5152      -27.0772        709.438      
   3317000   300.61595      0.013034914    6.9044917      745.83646     -28.367329      717.46913    
   3318000   301.79823      0.013034914    8.3442455      748.76973     -26.617328      722.1524     
   3319000   304.40597      0.013034914    7.729196       755.23959     -22.951171      732.28842    
   3320000   300.00937      0.013034914    6.9557952      744.33153     -20.812181      723.51934    
   3321000   299.15424      0.013034914    6.7187257      742.20993     -17.060178      725.14975    
   3322000   298.72         0.013034914    7.5541489      741.13256     -17.609262      723.5233     
   3323000   301.29812      0.013034914    6.4862336      747.52893     -20.695633      726.8333     
   3324000   297.41942      0.013034914    6.7529642      737.90577     -20.155587      717.75019    
   3325000   305.73278      0.013034914    4.6090974      758.53145     -17.256037      741.27541    
   3326000   298.06408      0.013034914    15.53329       739.50519     -18.257931      721.24726    
   3327000   289.36627      0.013034914    6.0513992      717.9257      -19.101186      698.82451    
   3328000   308.12445      0.013034914    6.6271369      764.46526     -23.191238      741.27402    
   3329000   299.85119      0.013034914    10.662514      743.93906     -21.273493      722.66557    
   3330000   292.46411      0.013034914    1.4905819      725.61152     -19.273549      706.33797    
   3331000   319.20602      0.013034914    6.9157714      791.95893     -22.060854      769.89808    
   3332000   305.80361      0.013034914    10.245248      758.70718     -18.115538      740.59164    
   3333000   289.69143      0.013034914    7.2560061      718.73242     -21.905355      696.82707    
   3334000   315.09781      0.013034914    4.6439374      781.76634     -22.102546      759.6638     
   3335000   304.3935       0.013034914    7.4045368      755.20867     -20.718732      734.48993    
   3336000   300.1324       0.013034914    7.1964482      744.63677     -19.818204      724.81856    
   3337000   292.09155      0.013034914    6.9104705      724.6872      -16.628838      708.05836    
   3338000   310.20943      0.013034914    6.764112       769.63814     -20.471154      749.16699    
   3339000   303.56933      0.013034914    9.3892818      753.16388     -21.032284      732.1316     
   3340000   289.08113      0.013034914    6.4062121      717.21826     -22.797823      694.42043    
   3341000   299.5029       0.013034914    6.9366537      743.07495     -22.438338      720.63661    
   3342000   311.05646      0.013034914    6.1878104      771.73966     -23.494453      748.24521    
   3343000   304.66487      0.013034914    11.046834      755.88194     -26.316809      729.56514    
   3344000   287.65934      0.013034914    7.1682666      713.69075     -27.601436      686.08932    
   3345000   294.81149      0.013034914    3.8652096      731.43543     -24.986286      706.44915    
   3346000   310.73891      0.013034914    6.6507447      770.9518      -24.579924      746.37188    
   3347000   294.60275      0.013034914    7.7369897      730.91755     -24.867368      706.05018    
   3348000   292.5573       0.013034914    4.3461532      725.84272     -22.14869       703.69403    
   3349000   317.35034      0.013034914    6.5492215      787.35493     -19.901439      767.45349    
   3350000   287.0694       0.013034914    17.601665      712.2271      -21.248091      690.979      
   3351000   288.68707      0.013034914    2.493448       716.24057     -17.612098      698.62847    
   3352000   315.57649      0.013034914    7.8029754      782.95397     -22.25109       760.70287    
   3353000   299.96332      0.013034914    7.9285009      744.21726     -20.289706      723.92756    
   3354000   273.85736      0.013034914    9.3707449      679.44766     -26.650918      652.79674    
   3355000   289.89962      0.013034914    8.5018988      719.24894     -22.477817      696.77112    
   3356000   296.52282      0.013034914    2.3263938      735.68128     -24.289857      711.39142    
   3357000   299.78091      0.013034914    7.1343012      743.76471     -24.399475      719.36523    
   3358000   305.4047       0.013034914    9.3120483      757.71748     -19.913079      737.8044     
   3359000   285.55809      0.013034914    6.8812049      708.47748     -20.784773      687.69271    
   3360000   308.08283      0.013034914    6.2423936      764.362       -16.152286      748.20971    
   3361000   305.84131      0.013034914    7.4232074      758.80071     -22.562884      736.23783    
   3362000   303.41714      0.013034914    9.1554962      752.7863      -25.802177      726.98412    
   3363000   286.22531      0.013034914    6.5608226      710.13289     -25.771001      684.36189    
   3364000   298.05368      0.013034914    6.6186272      739.47939     -23.641983      715.83741    
   3365000   311.47076      0.013034914    4.8426305      772.76753     -21.299369      751.46816    
   3366000   307.34996      0.013034914    11.645462      762.54372     -20.763675      741.78004    
   3367000   295.29875      0.013034914    6.2932043      732.64434     -23.38543       709.25891    
   3368000   302.3446       0.013034914    6.2398959      750.12529     -17.516065      732.60922    
   3369000   311.69673      0.013034914    7.4533708      773.32819     -20.517852      752.81033    
   3370000   290.69773      0.013034914    7.2628787      721.22907     -21.774192      699.45488    
   3371000   295.99844      0.013034914    6.8818012      734.38028     -22.73786       711.64242    
   3372000   313.36841      0.013034914    8.5878667      777.47567     -18.985338      758.49033    
   3373000   301.93011      0.013034914    6.9640299      749.09694     -25.160261      723.93668    
   3374000   295.06388      0.013034914    5.8234306      732.06162     -24.028519      708.0331     
   3375000   293.09419      0.013034914    6.975335       727.17476     -24.394145      702.78062    
   3376000   295.52759      0.013034914    4.7934469      733.21209     -22.422603      710.78948    
   3377000   301.2159       0.013034914    6.8873841      747.32494     -17.189013      730.13593    
   3378000   299.98661      0.013034914    7.8912495      744.27504     -17.114524      727.16052    
   3379000   290.80798      0.013034914    6.5137547      721.50262     -19.369495      702.13312    
   3380000   304.7098       0.013034914    5.1758307      755.99342     -17.480464      738.51295    
   3381000   305.71981      0.013034914    6.830843       758.49927     -19.301462      739.19781    
   3382000   282.94117      0.013034914    7.0483745      701.98485     -22.030701      679.95415    
   3383000   301.76823      0.013034914    7.897724       748.69529     -24.530896      724.16439    
   3384000   307.36307      0.013034914    7.0437305      762.57625     -23.853457      738.72279    
   3385000   311.83387      0.013034914    9.5037823      773.66843     -19.146938      754.52149    
   3386000   287.15507      0.013034914    6.898472       712.43963     -19.533396      692.90624    
   3387000   298.99385      0.013034914    7.7352693      741.81199     -20.692979      721.11901    
   3388000   309.92154      0.013034914    9.1130056      768.92389     -19.468157      749.45573    
   3389000   317.42535      0.013034914    4.0011999      787.54105     -17.593875      769.94718    
   3390000   290.61541      0.013034914    6.2175551      721.02483     -17.116024      703.90881    
   3391000   301.36874      0.013034914    9.4612805      747.70414     -19.63743       728.06671    
   3392000   316.48067      0.013034914    7.7726766      785.19727     -16.560501      768.63676    
   3393000   304.19499      0.013034914    3.4880164      754.71616     -19.876952      734.83921    
   3394000   283.75454      0.013034914    12.863843      704.00284     -16.19316       687.80968    
   3395000   306.00546      0.013034914    8.755066       759.20798     -20.140074      739.06791    
   3396000   304.12252      0.013034914    1.6390155      754.53635     -21.211289      733.32506    
   3397000   296.29925      0.013034914   -2.3953549      735.1266      -18.721155      716.40544    
   3398000   285.11602      0.013034914    4.6827788      707.38071     -15.506763      691.87395    
   3399000   292.42417      0.013034914    9.2000942      725.51242     -15.181222      710.3312     
   3400000   314.07153      0.013034914    8.8423236      779.22013     -16.349815      762.87032    
   3401000   297.43711      0.013034914    7.7184693      737.94967     -17.700086      720.24958    
   3402000   297.45391      0.013034914    6.8015821      737.99134     -19.988096      718.00324    
   3403000   306.0356       0.013034914    6.9134892      759.28275     -21.716886      737.56586    
   3404000   306.2487       0.013034914    6.8628742      759.81147     -22.231128      737.58034    
   3405000   297.80874      0.013034914    7.4386574      738.87169     -25.442533      713.42915    
   3406000   310.21025      0.013034914    7.1635641      769.64019     -25.46581       744.17438    
   3407000   296.91349      0.013034914    6.428923       736.65056     -24.687277      711.96329    
   3408000   289.92347      0.013034914    7.1387844      719.30813     -24.098829      695.2093     
   3409000   308.04587      0.013034914    7.3921969      764.2703      -23.056269      741.21403    
   3410000   297.31479      0.013034914    6.9770083      737.64619     -19.845267      717.80092    
   3411000   295.28763      0.013034914    8.0985724      732.61675     -23.875382      708.74137    
   3412000   310.42041      0.013034914    8.0606454      770.1616      -23.557986      746.60362    
   3413000   302.74613      0.013034914    6.0649218      751.12149     -19.37746       731.74403    
   3414000   274.61438      0.013034914    7.0171619      681.32585     -18.66474       662.66111    
   3415000   299.21887      0.013034914    6.1061536      742.37027     -24.249736      718.12053    
   3416000   316.87263      0.013034914    9.1027178      786.16973     -22.253398      763.91633    
   3417000   304.60924      0.013034914    7.5728455      755.74392     -23.375187      732.36873    
   3418000   304.4061       0.013034914    5.4144727      755.23993     -19.415101      735.82483    
   3419000   302.90706      0.013034914    7.0354994      751.52076     -20.534423      730.98633    
   3420000   294.73774      0.013034914    9.3474304      731.25246     -22.073547      709.17892    
   3421000   296.95173      0.013034914    6.1877161      736.74543     -24.137853      712.60758    
   3422000   313.68677      0.013034914    10.271315      778.26551     -27.626461      750.63905    
   3423000   298.3398       0.013034914    7.5816702      740.18926     -28.565555      711.6237     
   3424000   283.85368      0.013034914    3.6040162      704.24882     -27.064175      677.18464    
   3425000   311.93726      0.013034914    7.0186288      773.92495     -23.657215      750.26773    
   3426000   296.55782      0.013034914    8.3030352      735.76812     -24.313616      711.45451    
   3427000   292.82326      0.013034914    6.0407043      726.50258     -19.58024       706.92234    
   3428000   310.09205      0.013034914    6.3462631      769.34692     -19.650573      749.69635    
   3429000   307.81545      0.013034914    7.6388468      763.69862     -20.359881      743.33874    
   3430000   297.77307      0.013034914    7.7248291      738.78318     -24.518016      714.26517    
   3431000   284.77655      0.013034914    7.2485237      706.53846     -25.435553      681.10291    
   3432000   304.34382      0.013034914    7.2774023      755.08541     -21.533816      733.5516     
   3433000   310.46704      0.013034914    7.6670137      770.27728     -22.282639      747.99464    
   3434000   293.77051      0.013034914    7.4331594      728.85274     -23.539733      705.31301    
   3435000   291.33788      0.013034914    7.1169427      722.81732     -19.948794      702.86853    
   3436000   293.02025      0.013034914    6.2083419      726.99132     -24.489468      702.50185    
   3437000   313.52157      0.013034914    6.803539       777.85566     -25.697044      752.15862    
   3438000   302.59198      0.013034914    7.124837       750.73904     -23.563215      727.17582    
   3439000   296.16043      0.013034914    7.0303665      734.78218     -24.832095      709.95008    
   3440000   300.81385      0.013034914    6.7104213      746.32745     -23.448069      722.87938    
   3441000   299.39489      0.013034914    8.4673792      742.80697     -18.639033      724.16793    
   3442000   305.12584      0.013034914    7.3105336      757.02562     -19.400896      737.62472    
   3443000   288.7646       0.013034914    6.5704274      716.43294     -22.540066      693.89287    
   3444000   306.25028      0.013034914    5.9035066      759.81537     -22.279933      737.53544    
   3445000   311.36612      0.013034914    4.6057898      772.50794     -24.714628      747.79331    
   3446000   300.65572      0.013034914    7.5637106      745.93513     -27.348463      718.58667    
   3447000   298.39854      0.013034914    7.2071698      740.335       -25.891805      714.44319    
   3448000   296.35612      0.013034914    6.9127524      735.26771     -29.493308      705.7744     
   3449000   309.74786      0.013034914    7.1859589      768.49298     -23.970724      744.52226    
   3450000   294.74506      0.013034914    6.5538178      731.27061     -25.771224      705.49939    
   3451000   299.07767      0.013034914    7.6135521      742.01995     -22.182043      719.83791    
   3452000   303.03542      0.013034914    6.7094642      751.83923     -22.742998      729.09623    
   3453000   306.39014      0.013034914    4.867036       760.16239     -23.397101      736.76528    
   3454000   303.33529      0.013034914    7.1379622      752.58322     -24.809442      727.77377    
   3455000   294.97202      0.013034914    7.0206417      731.83372     -21.985972      709.84775    
   3456000   305.44962      0.013034914    7.943412       757.82893     -26.729762      731.09916    
   3457000   311.23827      0.013034914    7.3722632      772.19073     -27.585813      744.60492    
   3458000   296.84227      0.013034914    7.144418       736.47386     -28.01676       708.4571     
   3459000   289.33697      0.013034914    7.0731821      717.853       -28.833257      689.01974    
   3460000   304.05874      0.013034914    10.629255      754.37812     -25.967424      728.4107     
   3461000   303.02785      0.013034914    9.5223886      751.82045     -27.342178      724.47827    
   3462000   298.97956      0.013034914    4.2843638      741.77653     -22.256327      719.5202     
   3463000   298.3651       0.013034914    9.6768444      740.25204     -22.117077      718.13496    
   3464000   316.68841      0.013034914    9.4204278      785.71267     -24.157976      761.55469    
   3465000   298.70867      0.013034914    5.6061986      741.10444     -22.088213      719.01623    
   3466000   287.37586      0.013034914    6.0444529      712.98742     -27.276311      685.71111    
   3467000   301.9645       0.013034914    7.899713       749.18224     -23.03327       726.14897    
   3468000   304.69411      0.013034914    7.2858641      755.95448     -23.963475      731.991      
   3469000   291.32157      0.013034914    6.2137868      722.77683     -23.117859      699.65897    
   3470000   291.74423      0.013034914    8.6118631      723.82547     -26.403637      697.42183    
   3471000   305.45555      0.013034914    6.8822659      757.84364     -26.386125      731.45751    
   3472000   296.28488      0.013034914    6.0895185      735.09094     -29.165359      705.92558    
   3473000   292.25149      0.013034914    6.9511319      725.084       -28.941145      696.14286    
   3474000   308.41171      0.013034914    8.2270443      765.17794     -24.980454      740.19749    
   3475000   305.57737      0.013034914    6.4009664      758.14588     -27.685851      730.46003    
   3476000   305.28542      0.013034914    6.2710432      757.42155     -24.617934      732.80362    
   3477000   294.93257      0.013034914    7.1359477      731.73584     -25.713821      706.02202    
   3478000   299.6863       0.013034914    8.526562       743.52997     -22.928341      720.60162    
   3479000   297.72504      0.013034914    6.694095       738.66404     -23.403189      715.26085    
   3480000   303.26752      0.013034914    5.3821858      752.41508     -22.558646      729.85644    
   3481000   296.9373       0.013034914    7.4946881      736.70964     -21.503444      715.20619    
   3482000   311.68496      0.013034914    7.488777       773.29898     -21.645932      751.65304    
   3483000   302.76808      0.013034914    6.8428135      751.17596     -23.683506      727.49245    
   3484000   284.84466      0.013034914    6.3753122      706.70745     -21.0655        685.64195    
   3485000   300.9573       0.013034914    6.4720315      746.68335     -22.391612      724.29173    
   3486000   316.66142      0.013034914    7.6147438      785.64571     -23.777871      761.86783    
   3487000   294.64326      0.013034914    6.3970745      731.01805     -22.50664       708.51141    
   3488000   291.84631      0.013034914    9.4865981      724.07873     -19.63591       704.44282    
   3489000   291.05574      0.013034914    9.8208027      722.1173      -23.618978      698.49833    
   3490000   308.20534      0.013034914    6.7297078      764.66595     -20.779113      743.88683    
   3491000   307.60099      0.013034914    5.2485796      763.16653     -20.861692      742.30484    
   3492000   284.49752      0.013034914    8.3707382      705.84618     -18.96345       686.88273    
   3493000   302.91009      0.013034914    7.6131043      751.52827     -21.406747      730.12152    
   3494000   314.80921      0.013034914    7.9275033      781.05032     -24.040616      757.00971    
   3495000   294.04222      0.013034914    8.0921133      729.52685     -23.150752      706.3761     
   3496000   283.86487      0.013034914    5.5573266      704.27657     -22.194894      682.08168    
   3497000   310.32054      0.013034914    4.8247004      769.91381     -21.520461      748.39335    
   3498000   304.21797      0.013034914    7.7535738      754.77318     -21.5868        733.18638    
   3499000   278.31721      0.013034914    6.5970538      690.51267     -24.476986      666.03569    
   3500000   301.70853      0.013034914    6.2587257      748.54717     -26.212061      722.33511    
   3501000   311.77018      0.013034914    6.9310006      773.51042     -23.918993      749.59143    
   3502000   299.5864       0.013034914    9.2866394      743.28212     -21.50025       721.78188    
   3503000   292.45978      0.013034914    9.9910466      725.60077     -20.459681      705.14109    
   3504000   289.14454      0.013034914    5.8525297      717.37558     -20.688068      696.68751    
   3505000   293.82966      0.013034914    6.7388201      728.99949     -21.09126       707.90822    
   3506000   304.3091       0.013034914    6.8746528      754.99927     -21.614991      733.38428    
   3507000   300.10818      0.013034914    7.1882843      744.57667     -23.895366      720.68131    
   3508000   285.8783       0.013034914    4.1041576      709.27194     -27.913042      681.3589     
   3509000   301.35541      0.013034914    1.8884286      747.67108     -31.599813      716.07127    
   3510000   306.53088      0.013034914    7.1185909      760.51157     -27.263536      733.24803    
   3511000   308.30563      0.013034914    8.3632732      764.91476     -25.557005      739.35775    
   3512000   299.60641      0.013034914    7.2168571      743.33175     -27.249671      716.08208    
   3513000   302.42968      0.013034914    5.8778988      750.33636     -26.374026      723.96234    
   3514000   300.25712      0.013034914    6.888568       744.94619     -25.817285      719.1289     
   3515000   302.12851      0.013034914    8.2606166      749.58917     -27.671213      721.91795    
   3516000   300.75416      0.013034914    6.6982284      746.17935     -30.271953      715.9074     
   3517000   297.1006       0.013034914    7.9476843      737.11479     -26.041534      711.07325    
   3518000   300.42196      0.013034914    7.2186424      745.35515     -28.603576      716.75158    
   3519000   304.28913      0.013034914    6.7611687      754.94973     -27.19112       727.75861    
   3520000   306.2611       0.013034914    3.5885934      759.84224     -28.404301      731.43794    
   3521000   294.40948      0.013034914    6.9639314      730.43804     -23.785331      706.6527     
   3522000   302.41098      0.013034914    8.2887478      750.28997     -24.145982      726.14399    
   3523000   288.28001      0.013034914    8.7737275      715.23065     -25.981274      689.24938    
   3524000   298.88594      0.013034914    4.4966475      741.54425     -25.208213      716.33603    
   3525000   295.63872      0.013034914    4.0756655      733.48783     -18.943695      714.54413    
   3526000   301.3729       0.013034914    9.3962889      747.71447     -17.329241      730.38523    
   3527000   291.26973      0.013034914    5.2017063      722.64822     -27.821652      694.82656    
   3528000   309.22619      0.013034914    6.9190987      767.19871     -24.223226      742.97549    
   3529000   306.0325       0.013034914    7.7632599      759.27506     -30.059111      729.21595    
   3530000   292.52155      0.013034914    7.8230262      725.75402     -25.31603       700.43799    
   3531000   295.76386      0.013034914    7.1385165      733.7983      -27.951571      705.84672    
   3532000   309.27672      0.013034914    6.7496262      767.32406     -26.017638      741.30642    
   3533000   304.42456      0.013034914    7.1106001      755.28574     -25.298362      729.98737    
   3534000   291.4423       0.013034914    6.3909845      723.07638     -29.099566      693.97682    
   3535000   307.46827      0.013034914    7.6164937      762.83725     -29.598343      733.2389     
   3536000   301.50837      0.013034914    7.2704449      748.05059     -25.837533      722.21305    
   3537000   284.5365       0.013034914    7.4652976      705.94291     -24.26036       681.68255    
   3538000   302.65802      0.013034914    4.9693704      750.90289     -22.11946       728.78343    
   3539000   311.84313      0.013034914    7.1165918      773.6914      -22.844705      750.8467     
   3540000   300.29033      0.013034914    8.0531201      745.02858     -24.854528      720.17405    
   3541000   286.82116      0.013034914    6.6162908      711.61121     -26.657991      684.95322    
   3542000   302.67826      0.013034914    7.4065657      750.95311     -25.828643      725.12447    
   3543000   313.50551      0.013034914    6.6779295      777.81581     -24.447022      753.36879    
   3544000   294.7043       0.013034914    5.0806276      731.1695      -25.568767      705.60073    
   3545000   282.59179      0.013034914    5.425177       701.11802     -21.646517      679.47151    
   3546000   297.41713      0.013034914    10.601519      737.9001      -16.989639      720.91046    
   3547000   301.01594      0.013034914    7.6191352      746.82885     -19.306268      727.52258    
   3548000   290.70195      0.013034914    4.0255116      721.23954     -17.207978      704.03156    
   3549000   297.65516      0.013034914    4.8975278      738.49065     -20.82912       717.66153    
   3550000   307.5486       0.013034914    8.9035495      763.03655     -18.239606      744.79694    
   3551000   291.95954      0.013034914    7.9094887      724.35966     -21.606425      702.75323    
   3552000   292.97775      0.013034914    8.6365141      726.88586     -20.904001      705.98186    
   3553000   280.24799      0.013034914    6.7950344      695.30299     -18.968899      676.33409    
   3554000   297.56187      0.013034914    5.8597541      738.2592      -16.989164      721.27004    
   3555000   306.48622      0.013034914    7.0308079      760.40076     -18.128966      742.27179    
   3556000   313.27247      0.013034914    7.6097323      777.23763     -16.681278      760.55635    
   3557000   299.92744      0.013034914    6.9676823      744.12824     -21.364386      722.76385    
   3558000   295.13612      0.013034914    6.6596533      732.24085     -20.105474      712.13537    
   3559000   309.52668      0.013034914    7.3595764      767.94421     -19.69097       748.25324    
   3560000   296.10926      0.013034914    7.6565171      734.65525     -20.73179       713.92346    
   3561000   293.44362      0.013034914    6.1424922      728.0417      -19.793781      708.24792    
   3562000   302.28033      0.013034914    6.3807048      749.96584     -22.648707      727.31713    
   3563000   289.49132      0.013034914    7.7195831      718.23594     -23.473689      694.76225    
   3564000   293.25617      0.013034914    7.0761332      727.57664     -18.447738      709.1289     
   3565000   310.58136      0.013034914    3.9540757      770.56092     -15.789718      754.7712     
   3566000   302.32685      0.013034914    2.2162473      750.08124     -18.002219      732.07902    
   3567000   299.63732      0.013034914    16.577232      743.40845     -17.073378      726.33507    
   3568000   299.71103      0.013034914    5.9650452      743.59132     -17.415178      726.17614    
   3569000   308.15115      0.013034914   -4.598805       764.53149     -18.665178      745.86631    
   3570000   294.72998      0.013034914    10.870924      731.2332      -18.525093      712.70811    
   3571000   294.54487      0.013034914    10.735431      730.77395     -19.142636      711.63131    
   3572000   292.55774      0.013034914    10.13184       725.84383     -16.739626      709.1042     
   3573000   307.01876      0.013034914    3.7532435      761.72202     -19.173903      742.54811    
   3574000   304.20819      0.013034914    3.2543364      754.7489      -21.82073       732.92817    
   3575000   296.62846      0.013034914    8.1288127      735.94338     -23.15505       712.78833    
   3576000   283.77107      0.013034914    21.214708      704.04385     -17.991555      686.05229    
   3577000   300.57378      0.013034914    4.6020687      745.73184     -23.016674      722.71517    
   3578000   294.10925      0.013034914    6.8137987      729.69315     -25.942822      703.75033    
   3579000   292.65549      0.013034914    12.639635      726.08633     -22.012349      704.07398    
   3580000   305.09348      0.013034914    4.4713527      756.94533     -20.974381      735.97095    
   3581000   316.16697      0.013034914    11.18164       784.41898     -22.101188      762.31779    
   3582000   285.56685      0.013034914    11.21418       708.49923     -19.390007      689.10922    
   3583000   299.78233      0.013034914    0.58732768     743.76822     -23.415426      720.35279    
   3584000   314.40759      0.013034914    5.3401912      780.0539      -23.43712       756.61678    
   3585000   297.52555      0.013034914    10.445259      738.16908     -23.006232      715.16285    
   3586000   290.6413       0.013034914    7.4476957      721.08907     -21.288208      699.80086    
   3587000   305.24394      0.013034914    3.9448569      757.31863     -25.552685      731.76595    
   3588000   307.26716      0.013034914    10.407675      762.3383      -22.486397      739.8519     
   3589000   288.75295      0.013034914    7.3822859      716.40403     -24.22686       692.17717    
   3590000   299.11115      0.013034914    5.8975826      742.103       -23.677393      718.42561    
   3591000   308.25974      0.013034914    2.0923598      764.80091     -23.833712      740.9672     
   3592000   292.25387      0.013034914    8.7849544      725.08991     -21.527871      703.56204    
   3593000   292.46387      0.013034914    8.2991231      725.61093     -22.588551      703.02238    
   3594000   308.38905      0.013034914    5.415237       765.12173     -23.245123      741.87661    
   3595000   322.88756      0.013034914    9.3855744      801.09293     -26.574865      774.51807    
   3596000   312.89608      0.013034914    4.8267541      776.3038      -24.306166      751.99764    
   3597000   301.42153      0.013034914    8.1307906      747.83513     -20.359113      727.47602    
   3598000   303.73776      0.013034914    7.4487633      753.58175     -18.107545      735.47421    
   3599000   294.69222      0.013034914    5.8787272      731.13952     -16.430145      714.70938    
   3600000   301.5729       0.013034914    6.9623824      748.21067     -16.935917      731.27476    
   3601000   299.48285      0.013034914    7.9440821      743.0252      -19.289645      723.73556    
   3602000   297.11344      0.013034914    6.5316653      737.14663     -19.189379      717.95726    
   3603000   321.69909      0.013034914    6.6085901      798.14432     -23.305489      774.83883    
   3604000   303.30259      0.013034914    7.1296059      752.50209     -20.735228      731.76686    
   3605000   285.63517      0.013034914    8.3594988      708.66874     -20.210027      688.45871    
   3606000   287.77241      0.013034914    4.7432509      713.97129     -21.155866      692.81543    
   3607000   304.1559       0.013034914    6.2780341      754.61918     -18.233298      736.38588    
   3608000   299.80556      0.013034914    10.416859      743.82586     -20.04661       723.77925    
   3609000   296.53346      0.013034914    5.624275       735.70768     -19.324375      716.3833     
   3610000   302.78992      0.013034914    6.1231672      751.23013     -21.71322       729.51691    
   3611000   301.44559      0.013034914    11.592282      747.89482     -25.422922      722.4719     
   3612000   298.82855      0.013034914    7.4390403      741.40187     -23.25872       718.14315    
   3613000   309.0533       0.013034914    5.8228061      766.76976     -22.115781      744.65398    
   3614000   293.94333      0.013034914    7.4277724      729.28149     -22.770733      706.51076    
   3615000   299.02087      0.013034914    6.132289       741.87902     -23.813926      718.0651     
   3616000   298.38489      0.013034914    6.3811378      740.30113     -19.98443       720.3167     
   3617000   299.22679      0.013034914    8.8973006      742.38992     -23.247162      719.14276    
   3618000   307.40947      0.013034914    8.6095621      762.69137     -20.1722        742.51917    
   3619000   295.81691      0.013034914    6.3756735      733.92992     -23.503491      710.42643    
   3620000   302.70153      0.013034914    7.7897187      751.01085     -16.95237       734.05848    
   3621000   314.08307      0.013034914    6.8241598      779.24875     -21.023925      758.22482    
   3622000   294.60755      0.013034914    4.8597712      730.92946     -21.057473      709.87199    
   3623000   291.91986      0.013034914    4.5749527      724.26122     -21.482928      702.77829    
   3624000   306.80117      0.013034914    16.146672      761.18215     -21.7251        739.45705    
   3625000   314.3356       0.013034914    7.6667135      779.87529     -18.969201      760.90609    
   3626000   296.50215      0.013034914    3.2980836      735.63        -16.955524      718.67448    
   3627000   295.42742      0.013034914   -1.2018705      732.96357     -17.748462      715.21511    
   3628000   309.0527       0.013034914    9.7234656      766.76826     -20.44768       746.32058    
   3629000   302.16897      0.013034914    7.1807776      749.68954     -22.007894      727.68164    
   3630000   285.49683      0.013034914    3.4027927      708.32551     -22.014554      686.31096    
   3631000   294.99372      0.013034914    1.5639158      731.88754     -21.748071      710.13947    
   3632000   291.47257      0.013034914    14.562796      723.15148     -22.989528      700.16195    
   3633000   307.37421      0.013034914    7.7560039      762.6039      -23.599512      739.00439    
   3634000   296.39251      0.013034914    3.8871812      735.35799     -19.789524      715.56846    
   3635000   302.90885      0.013034914    9.2715532      751.52522     -19.935223      731.58999    
   3636000   309.78934      0.013034914    15.56569       768.59589     -18.22268       750.37321    
   3637000   291.98427      0.013034914    1.1240208      724.42102     -15.595166      708.82585    
   3638000   294.43766      0.013034914    12.176755      730.50794     -16.64835       713.85959    
   3639000   312.79792      0.013034914    14.266003      776.06025     -18.091255      757.969      
   3640000   303.31843      0.013034914    4.7578121      752.54139     -18.33892       734.20247    
   3641000   291.43854      0.013034914    3.2695813      723.06706     -21.690385      701.37667    
   3642000   291.60221      0.013034914    9.2421928      723.47313     -24.283963      699.18917    
   3643000   311.41253      0.013034914    8.9291021      772.62307     -24.458126      748.16494    
   3644000   300.21108      0.013034914    0.55335764     744.83196     -25.191684      719.64027    
   3645000   298.52592      0.013034914    7.6666927      740.65103     -25.207331      715.44369    
   3646000   307.4327       0.013034914    10.60863       762.749       -25.386908      737.36209    
   3647000   294.30647      0.013034914    5.5503205      730.18246     -24.686427      705.49603    
   3648000   278.72517      0.013034914    6.7198205      691.52484     -28.434668      663.09017    
   3649000   301.20646      0.013034914    7.080107       747.30153     -25.913531      721.38799    
   3650000   301.40939      0.013034914    8.1901284      747.80501     -24.557618      723.24739    
   3651000   304.85617      0.013034914    7.4025955      756.35655     -21.77314       734.58341    
   3652000   305.44631      0.013034914    7.0822526      757.82071     -19.927648      737.89306    
   3653000   306.41419      0.013034914    6.4300944      760.22204     -20.147652      740.07439    
   3654000   299.64528      0.013034914    7.0665327      743.42819     -20.342822      723.08537    
   3655000   298.27497      0.013034914    5.7597347      740.02841     -21.016688      719.01173    
   3656000   303.03619      0.013034914    7.5305197      751.84115     -21.691674      730.14948    
   3657000   287.53506      0.013034914    8.1654455      713.38242     -27.400472      685.98195    
   3658000   296.8334       0.013034914    6.0943174      736.45184     -26.120255      710.33158    
   3659000   302.28972      0.013034914    6.3239791      749.98913     -28.718295      721.27083    
   3660000   298.39412      0.013034914    6.0390381      740.32404     -25.100974      715.22307    
   3661000   306.59107      0.013034914    6.871539       760.66089     -24.632681      736.02821    
   3662000   293.74454      0.013034914    8.4062678      728.7883      -30.019603      698.7687     
   3663000   304.81269      0.013034914    8.5970273      756.2487      -27.971358      728.27734    
   3664000   310.35752      0.013034914    7.1495949      770.00557     -27.154651      742.85092    
   3665000   307.63117      0.013034914    1.5024362      763.24141     -28.073824      735.16759    
   3666000   292.24116      0.013034914    5.6741535      725.05836     -27.862091      697.19627    
   3667000   298.64281      0.013034914    8.5260089      740.94105     -29.199934      711.74112    
   3668000   303.34393      0.013034914    4.3528276      752.60465     -26.264675      726.33997    
   3669000   306.16262      0.013034914    6.7692884      759.59789     -24.66902       734.92887    
   3670000   290.06332      0.013034914    9.3208995      719.65509     -25.659908      693.99518    
   3671000   298.32056      0.013034914    7.1375328      740.14153     -28.147143      711.99439    
   3672000   292.01675      0.013034914    3.7746416      724.50161     -22.555281      701.94633    
   3673000   295.41384      0.013034914    5.5815106      732.92987     -24.340813      708.58906    
   3674000   308.38262      0.013034914    9.1387352      765.10578     -19.857009      745.24877    
   3675000   309.55651      0.013034914    6.6123215      768.01823     -22.439445      745.57878    
   3676000   291.68133      0.013034914    5.719768       723.66942     -19.169788      704.49963    
   3677000   294.24248      0.013034914    6.5692293      730.0237      -21.681923      708.34178    
   3678000   309.5543       0.013034914    9.5381495      768.01275     -21.297025      746.71573    
   3679000   299.8052       0.013034914    7.5788226      743.82497     -24.844083      718.98089    
   3680000   292.57261      0.013034914    4.1565083      725.88072     -21.393051      704.48766    
   3681000   288.85355      0.013034914    11.950618      716.65361     -23.948127      692.70548    
   3682000   317.66889      0.013034914    11.361928      788.14528     -23.777129      764.36815    
   3683000   307.79854      0.013034914    5.3351651      763.65667     -25.163277      738.49339    
   3684000   316.51167      0.013034914    3.4902767      785.27417     -28.863541      756.41063    
   3685000   287.96957      0.013034914    6.2675217      714.46043     -27.863572      686.59686    
   3686000   295.84484      0.013034914    10.613616      733.9992      -25.342915      708.65629    
   3687000   303.85261      0.013034914    5.7100049      753.8667      -24.187831      729.67887    
   3688000   302.72411      0.013034914    7.6587955      751.06687     -22.284928      728.78194    
   3689000   307.12357      0.013034914    8.3451153      761.98204     -18.203419      743.77862    
   3690000   302.56962      0.013034914    6.6886167      750.68356     -22.616358      728.0672     
   3691000   300.18976      0.013034914    8.1631666      744.77907     -21.617441      723.16162    
   3692000   298.37688      0.013034914    7.3724532      740.28127     -23.694895      716.58637    
   3693000   307.51495      0.013034914    6.9877151      762.95307     -25.037545      737.91552    
   3694000   309.5923       0.013034914    7.7062778      768.10704     -22.839029      745.26801    
   3695000   293.24151      0.013034914    7.1906913      727.54026     -20.750954      706.78931    
   3696000   296.43687      0.013034914    7.313176       735.46805     -24.406198      711.06185    
   3697000   299.42381      0.013034914    5.8142356      742.87872     -24.707997      718.17072    
   3698000   292.41312      0.013034914    7.19417        725.485       -27.316032      698.16897    
   3699000   308.25019      0.013034914    10.635322      764.77721     -25.552539      739.22467    
   3700000   300.00513      0.013034914    7.3995926      744.321       -25.749484      718.57152    
   3701000   299.78175      0.013034914    6.5879756      743.76678     -22.837382      720.9294     
   3702000   301.90046      0.013034914    6.3352672      749.02336     -23.74978       725.27358    
   3703000   301.20221      0.013034914    6.7886027      747.29098     -26.655522      720.63545    
   3704000   296.83369      0.013034914    4.6765126      736.45257     -23.273607      713.17896    
   3705000   292.72446      0.013034914    6.6296556      726.25747     -28.870848      697.38662    
   3706000   300.02397      0.013034914    9.0890246      744.36775     -29.255686      715.11206    
   3707000   296.17772      0.013034914   -0.17984667     734.82509     -27.249018      707.57607    
   3708000   294.8508       0.013034914    6.9640483      731.53297     -25.795189      705.73778    
   3709000   309.38554      0.013034914    7.4864913      767.59406     -23.383348      744.21072    
   3710000   299.34947      0.013034914    7.5403836      742.69428     -21.822759      720.87152    
   3711000   296.21026      0.013034914    10.079543      734.90583     -17.73304       717.17279    
   3712000   295.23922      0.013034914    6.4433067      732.49664     -17.910636      714.58601    
   3713000   298.9542       0.013034914    7.0481247      741.71361     -18.686005      723.0276     
   3714000   294.81307      0.013034914    6.1926537      731.43935     -13.272612      718.16674    
   3715000   301.19323      0.013034914    7.0581228      747.2687      -22.579254      724.68945    
   3716000   303.48034      0.013034914    7.4248722      752.9431      -20.205749      732.73735    
   3717000   296.75777      0.013034914    6.4228733      736.2642      -20.56548       715.69872    
   3718000   306.42152      0.013034914    7.5655347      760.24023     -19.85138       740.38885    
   3719000   305.37712      0.013034914    6.8519687      757.64906     -20.342666      737.30639    
   3720000   296.83158      0.013034914    8.101212       736.44734     -21.698067      714.74928    
   3721000   304.97981      0.013034914    11.234058      756.66331     -19.017236      737.64607    
   3722000   307.6905       0.013034914    5.9919547      763.38861     -24.258442      739.13016    
   3723000   291.03715      0.013034914    3.7447019      722.0712      -24.073438      697.99776    
   3724000   295.78782      0.013034914    8.5153561      733.85774     -29.608808      704.24893    
   3725000   305.68951      0.013034914    4.94829        758.4241      -26.841477      731.58263    
   3726000   302.88195      0.013034914    6.4118542      751.45845     -24.141045      727.31741    
   3727000   302.92289      0.013034914    7.4151541      751.56004     -26.602988      724.95705    
   3728000   305.81729      0.013034914    6.1640295      758.74112     -26.011678      732.72944    
   3729000   304.58968      0.013034914    6.4227119      755.6954      -28.6621        727.0333     
   3730000   301.93566      0.013034914    8.4939714      749.11068     -28.422168      720.68852    
   3731000   300.83542      0.013034914    7.2465636      746.38097     -31.645866      714.73511    
   3732000   304.44334      0.013034914    7.2378976      755.33232     -26.539159      728.79316    
   3733000   296.68677      0.013034914    8.0060646      736.08804     -24.871882      711.21616    
   3734000   299.90313      0.013034914    7.8467437      744.06793     -22.458042      721.60989    
   3735000   314.04106      0.013034914    5.2910321      779.14453     -25.495902      753.64863    
   3736000   300.25708      0.013034914    6.1528733      744.9461      -29.48205       715.46405    
   3737000   301.67775      0.013034914    7.3718348      748.47081     -24.771772      723.69904    
   3738000   310.63191      0.013034914    7.2684166      770.68632     -26.504988      744.18133    
   3739000   292.89929      0.013034914    5.4013692      726.6912      -24.381129      702.31007    
   3740000   300.29331      0.013034914    6.9369139      745.03598     -25.158583      719.8774     
   3741000   309.95063      0.013034914    7.8091803      768.99607     -24.692605      744.30346    
   3742000   305.67865      0.013034914    6.953421       758.39715     -28.072931      730.32422    
   3743000   303.85411      0.013034914    7.2066078      753.87041     -22.787377      731.08304    
   3744000   302.70749      0.013034914    6.6959812      751.02562     -25.603205      725.42241    
   3745000   297.54886      0.013034914    5.2474121      738.22692     -26.734539      711.49238    
   3746000   303.31269      0.013034914    7.4187136      752.52714     -25.100934      727.4262     
   3747000   294.67139      0.013034914    7.7099528      731.08785     -30.329288      700.75856    
   3748000   298.63527      0.013034914    7.233552       740.92233     -28.23978       712.68255    
   3749000   292.6916       0.013034914    7.3568073      726.17592     -28.210516      697.96541    
   3750000   302.87384      0.013034914    7.7486095      751.43836     -30.577203      720.86115    
   3751000   304.32233      0.013034914    7.0446791      755.03209     -29.185297      725.8468     
   3752000   304.9322       0.013034914    8.4435167      756.54519     -23.900817      732.64437    
   3753000   310.53507      0.013034914    7.0421444      770.44606     -22.425963      748.0201     
   3754000   280.75113      0.013034914    5.6378873      696.55128     -19.708263      676.84302    
   3755000   301.7506       0.013034914    7.8119628      748.65155     -24.115233      724.53632    
   3756000   309.82381      0.013034914    7.4235416      768.68142     -24.195892      744.48552    
   3757000   296.07639      0.013034914    8.0417336      734.57367     -23.398371      711.1753     
   3758000   285.43895      0.013034914    6.9394562      708.1819      -22.879205      685.30269    
   3759000   300.98718      0.013034914    6.5562934      746.75749     -24.250317      722.50718    
   3760000   310.31822      0.013034914    6.8745473      769.90805     -23.249442      746.6586     
   3761000   298.25563      0.013034914    8.8817886      739.98044     -23.843464      716.13698    
   3762000   290.89285      0.013034914    6.608098       721.71317     -26.439904      695.27327    
   3763000   301.7882       0.013034914    6.5440171      748.74484     -24.656821      724.08802    
   3764000   304.28376      0.013034914    9.9752948      754.93639     -20.006165      734.93022    
   3765000   302.22433      0.013034914    5.3183381      749.82688     -24.043796      725.78309    
   3766000   308.87177      0.013034914    6.7579076      766.31939     -20.75164       745.56775    
   3767000   297.98446      0.013034914    1.9926044      739.30766     -19.322388      719.98527    
   3768000   299.76871      0.013034914    7.2567296      743.73443     -21.576302      722.15812    
   3769000   298.6599       0.013034914    7.2670523      740.98343     -22.439276      718.54416    
   3770000   284.17671      0.013034914    6.2900002      705.05025     -21.119735      683.93051    
   3771000   297.69908      0.013034914    7.6246416      738.59962     -25.87685       712.72277    
   3772000   304.12252      0.013034914    7.3868517      754.53635     -22.466443      732.0699     
   3773000   303.36873      0.013034914    6.5726983      752.66619     -23.758388      728.9078     
   3774000   288.74864      0.013034914    6.6952309      716.39335     -22.344513      694.04883    
   3775000   301.12144      0.013034914    5.7632101      747.09059     -20.641992      726.4486     
   3776000   308.21731      0.013034914    4.7854928      764.69564     -20.858842      743.83679    
   3777000   303.58585      0.013034914    7.4599083      753.20487     -19.960694      733.24417    
   3778000   298.57061      0.013034914    11.369659      740.76192     -20.604034      720.15788    
   3779000   302.29305      0.013034914    10.671965      749.9974      -23.697727      726.29967    
   3780000   296.51282      0.013034914    3.0232784      735.65647     -28.902003      706.75447    
   3781000   299.38081      0.013034914    4.6878999      742.77203     -24.130707      718.64132    
   3782000   302.5274       0.013034914    7.7021513      750.57881     -26.991061      723.58775    
   3783000   303.63235      0.013034914    13.288741      753.32023     -26.939649      726.38058    
   3784000   290.65742      0.013034914    8.6280619      721.12907     -26.767954      694.36112    
   3785000   298.07087      0.013034914    0.74241401     739.52204     -25.580816      713.94122    
   3786000   299.74359      0.013034914    8.7500234      743.67212     -26.882747      716.78937    
   3787000   295.5887       0.013034914    10.435228      733.36372     -22.7018        710.66192    
   3788000   305.63397      0.013034914    4.0928122      758.28629     -25.619373      732.66692    
   3789000   305.62158      0.013034914    5.6277393      758.25556     -25.158455      733.0971     
   3790000   304.86642      0.013034914    12.06329       756.382       -26.485699      729.8963     
   3791000   293.62183      0.013034914    12.630348      728.48386     -23.227501      705.25636    
   3792000   294.29627      0.013034914    6.699528       730.15715     -22.112397      708.04475    
   3793000   301.53514      0.013034914    2.6797212      748.117       -22.067582      726.04942    
   3794000   304.91519      0.013034914    6.3889525      756.503       -23.561302      732.9417     
   3795000   311.7227       0.013034914    7.5543499      773.39262     -22.584695      750.80793    
   3796000   288.86997      0.013034914    5.7966651      716.69437     -26.853439      689.84093    
   3797000   310.14191      0.013034914    9.7071803      769.47063     -22.903888      746.56674    
   3798000   306.76099      0.013034914    6.9490809      761.08246     -22.75617       738.32629    
   3799000   297.95393      0.013034914    7.9792857      739.23192     -22.042382      717.18954    
   3800000   300.60901      0.013034914    6.9590258      745.81924     -25.495419      720.32382    
   3801000   304.01202      0.013034914    5.9780595      754.2622      -29.383265      724.87893    
   3802000   307.53349      0.013034914    6.8631134      762.99906     -27.743669      735.25539    
   3803000   297.44553      0.013034914    8.0830021      737.97055     -29.361212      708.60934    
   3804000   302.04249      0.013034914    11.761908      749.37573     -25.487075      723.88866    
   3805000   300.71578      0.013034914    6.6217647      746.08415     -30.111543      715.9726     
   3806000   288.03879      0.013034914    5.8482064      714.63217     -23.555166      691.07701    
   3807000   300.37223      0.013034914   -0.78759954     745.23179     -22.44889       722.7829     
   3808000   306.28797      0.013034914    7.9547895      759.9089      -22.267086      737.64182    
   3809000   294.16976      0.013034914    7.8082388      729.84327     -19.245699      710.59757    
   3810000   293.19543      0.013034914    4.6385415      727.42593     -16.812174      710.61376    
   3811000   296.02494      0.013034914    7.6820194      734.44604     -16.970313      717.47573    
   3812000   304.03539      0.013034914    6.6207454      754.32019     -18.752472      735.56772    
   3813000   294.76683      0.013034914    9.5964118      731.32463     -20.78429       710.54034    
   3814000   300.86029      0.013034914    5.9985812      746.44268     -19.571346      726.87133    
   3815000   301.44098      0.013034914    5.8768357      747.88338     -25.315791      722.56759    
   3816000   304.52685      0.013034914    7.14139        755.53952     -26.449666      729.08985    
   3817000   293.06609      0.013034914    6.4333933      727.10505     -25.539407      701.56564    
   3818000   306.18413      0.013034914    7.2328917      759.65126     -20.074633      739.57662    
   3819000   311.57672      0.013034914    7.1426904      773.03044     -21.303767      751.72667    
   3820000   296.39605      0.013034914    6.5062252      735.36678     -22.33232       713.03446    
   3821000   286.95203      0.013034914    7.1348641      711.93589     -20.863647      691.07224    
   3822000   297.08903      0.013034914    6.7377202      737.08608     -21.061092      716.02499    
   3823000   312.70554      0.013034914    7.4848258      775.83106     -20.28461       755.54645    
   3824000   311.24572      0.013034914    8.48749        772.2092      -27.310262      744.89894    
   3825000   298.73737      0.013034914    6.4224389      741.17566     -22.411215      718.76444    
   3826000   290.44469      0.013034914    6.2551921      720.60127     -19.03534       701.56593    
   3827000   292.12855      0.013034914    8.5201323      724.77899     -18.777237      706.00175    
   3828000   316.20607      0.013034914    7.1619593      784.51598     -16.764781      767.7512     
   3829000   300.21015      0.013034914    6.1768538      744.82966     -22.217703      722.61196    
   3830000   282.702        0.013034914    8.3430109      701.39146     -23.475887      677.91558    
   3831000   299.01375      0.013034914    7.8907008      741.86135     -18.196118      723.66524    
   3832000   304.73838      0.013034914    7.1226896      756.06431     -20.894872      735.16944    
   3833000   295.33586      0.013034914    6.6628862      732.7364      -21.066246      711.67016    
   3834000   297.58511      0.013034914    6.9848815      738.31685     -21.104472      717.21238    
   3835000   315.65119      0.013034914    8.7736686      783.13931     -19.723734      763.41557    
   3836000   304.94331      0.013034914    5.5201828      756.57276     -20.780781      735.79198    
   3837000   296.33174      0.013034914    5.4679252      735.20722     -20.75019       714.45703    
   3838000   295.02595      0.013034914    7.9906643      731.96753     -22.877527      709.09       
   3839000   313.40557      0.013034914    11.956328      777.56786     -21.36597       756.20189    
   3840000   310.27849      0.013034914    6.8158425      769.80949     -22.152919      747.65657    
   3841000   298.94752      0.013034914    4.2337334      741.69705     -20.797661      720.89939    
   3842000   288.54494      0.013034914    2.1049159      715.88795     -22.125718      693.76223    
   3843000   303.00081      0.013034914    8.1809671      751.75337     -21.080481      730.67288    
   3844000   307.72187      0.013034914    7.5564289      763.46643     -24.861125      738.60531    
   3845000   297.55801      0.013034914    2.6125603      738.24962     -26.2267        712.02292    
   3846000   290.2971       0.013034914    7.120957       720.2351      -27.398594      692.8365     
   3847000   292.46196      0.013034914    11.160546      725.60618     -24.14506       701.46113    
   3848000   311.80037      0.013034914    9.6823971      773.58532     -22.064607      751.52071    
   3849000   306.49524      0.013034914    1.4766292      760.42315     -24.630836      735.79231    
   3850000   287.80666      0.013034914    0.75590573     714.05625     -26.031118      688.02513    
   3851000   300.96448      0.013034914    4.3319932      746.70117     -24.599767      722.1014     
   3852000   299.63103      0.013034914    9.8457551      743.39285     -23.843889      719.54896    
   3853000   298.08503      0.013034914    13.101223      739.55719     -25.930334      713.62685    
   3854000   304.48943      0.013034914   -6.733972       755.44667     -23.546822      731.89984    
   3855000   296.68855      0.013034914    10.523254      736.09248     -21.593523      714.49896    
   3856000   321.30931      0.013034914    21.166842      797.17726     -26.408042      770.76922    
   3857000   303.90924      0.013034914    5.4882106      754.00719     -22.133386      731.8738     
   3858000   287.7068       0.013034914    4.2819274      713.80851     -26.387115      687.42139    
   3859000   281.26175      0.013034914    11.883934      697.81816     -26.804288      671.01387    
   3860000   304.24494      0.013034914    7.5846667      754.84009     -27.102361      727.73773    
   3861000   315.26172      0.013034914    8.6367487      782.17302     -21.858516      760.3145     
   3862000   299.22481      0.013034914    4.823434       742.38499     -25.783192      716.6018     
   3863000   295.45183      0.013034914    4.8449038      733.02412     -22.705387      710.31874    
   3864000   300.35938      0.013034914    10.532427      745.1999      -18.395721      726.80418    
   3865000   305.25892      0.013034914    17.289034      757.35581     -20.179386      737.17642    
   3866000   294.19585      0.013034914    0.58062177     729.90802     -22.587646      707.32038    
   3867000   297.21763      0.013034914    13.531465      737.40512     -26.360039      711.04508    
   3868000   312.20093      0.013034914    10.106848      774.5791      -29.275839      745.30326    
   3869000   313.88724      0.013034914    0.34699939     778.76289     -24.319263      754.44362    
   3870000   290.88174      0.013034914    5.5456627      721.68562     -22.868616      698.81701    
   3871000   308.32386      0.013034914    14.811554      764.96        -26.164811      738.79519    
   3872000   310.86463      0.013034914    7.110183       771.26373     -25.005174      746.25855    
   3873000   297.5951       0.013034914    4.4793349      738.34165     -27.407163      710.93449    
   3874000   284.01094      0.013034914    6.4186488      704.63898     -19.503155      685.13582    
   3875000   307.28956      0.013034914    10.085403      762.39387     -23.865093      738.52877    
   3876000   308.02202      0.013034914    5.7685358      764.21113     -21.733106      742.47803    
   3877000   282.87168      0.013034914    3.2142362      701.81245     -22.23484       679.57761    
   3878000   294.94835      0.013034914    11.896495      731.77498     -24.566755      707.20822    
   3879000   317.85293      0.013034914    7.8441104      788.60187     -22.453117      766.14875    
   3880000   305.9644       0.013034914    0.8927576      759.1061      -28.745246      730.36086    
   3881000   295.04831      0.013034914    6.6664434      732.02298     -31.023006      700.99998    
   3882000   300.74087      0.013034914    6.1331583      746.14639     -29.130703      717.01568    
   3883000   303.27304      0.013034914    7.7801608      752.42878     -25.672242      726.75654    
   3884000   289.90944      0.013034914    6.4755236      719.27332     -26.763044      692.51028    
   3885000   284.21933      0.013034914    6.1362235      705.15599     -25.49989       679.6561     
   3886000   301.01793      0.013034914    6.8652343      746.83379     -27.812785      719.021      
   3887000   311.10004      0.013034914    7.6442157      771.84778     -27.34487       744.50291    
   3888000   298.23222      0.013034914    5.015086       739.92236     -25.441537      714.48083    
   3889000   293.64798      0.013034914    6.5666117      728.54873     -26.456636      702.09209    
   3890000   292.50212      0.013034914    6.7794252      725.70583     -25.987289      699.71854    
   3891000   304.99443      0.013034914    4.8864978      756.6996      -26.147278      730.55232    
   3892000   313.86098      0.013034914    5.149642       778.69775     -26.163543      752.5342     
   3893000   290.81427      0.013034914    8.4118241      721.51822     -25.856447      695.66177    
   3894000   290.78523      0.013034914    7.7790359      721.44616     -22.897553      698.54861    
   3895000   295.96603      0.013034914    4.8552966      734.29987     -20.53942       713.76045    
   3896000   310.30612      0.013034914    7.1559967      769.87805     -21.334753      748.54329    
   3897000   307.04205      0.013034914    5.0442463      761.77978     -19.091404      742.68838    
   3898000   291.78434      0.013034914    7.1951027      723.925       -24.588048      699.33695    
   3899000   306.42548      0.013034914    8.6001339      760.25006     -22.750719      737.49935    
   3900000   310.55443      0.013034914    6.9393784      770.4941      -21.538556      748.95555    
   3901000   302.28576      0.013034914    6.9039479      749.9793      -20.776816      729.20248    
   3902000   293.94893      0.013034914    6.5553553      729.29539     -23.268378      706.02702    
   3903000   290.59569      0.013034914    6.9011101      720.97592     -20.634887      700.34104    
   3904000   316.00085      0.013034914    8.7499269      784.00682     -18.825945      765.18087    
   3905000   308.50037      0.013034914    7.3715083      765.39793     -20.359001      745.03893    
   3906000   280.16975      0.013034914    6.6486006      695.10886     -22.577569      672.53129    
   3907000   293.34093      0.013034914    7.4861054      727.78692     -20.508022      707.2789     
   3908000   303.42279      0.013034914    6.6337272      752.80031     -22.036292      730.76401    
   3909000   305.99842      0.013034914    8.2486026      759.19052     -22.653199      736.53732    
   3910000   287.73327      0.013034914    7.0305374      713.87417     -23.682882      690.19129    
   3911000   296.02043      0.013034914    6.6774262      734.43486     -25.952105      708.48275    
   3912000   309.47924      0.013034914    7.3297818      767.82652     -23.949112      743.87741    
   3913000   309.5736       0.013034914    7.8472878      768.06064     -21.396695      746.66395    
   3914000   304.95958      0.013034914    7.028341       756.61313     -20.064398      736.54873    
   3915000   311.59635      0.013034914    5.7091018      773.07913     -22.749488      750.32965    
   3916000   298.88549      0.013034914    6.6898198      741.54314     -20.702632      720.8405     
   3917000   309.78136      0.013034914    11.009452      768.57609     -21.602711      746.97338    
   3918000   294.38528      0.013034914    6.3527284      730.37799     -22.148259      708.22973    
   3919000   295.10685      0.013034914    6.573737       732.16823     -22.449826      709.71841    
   3920000   306.19967      0.013034914    5.8447355      759.68982     -23.130406      736.55941    
   3921000   301.8775       0.013034914    7.5599394      748.96639     -25.125135      723.84125    
   3922000   291.26936      0.013034914    6.9861361      722.64732     -28.652978      693.99434    
   3923000   292.44347      0.013034914    7.1516721      725.56032     -22.188491      703.37183    
   3924000   315.19911      0.013034914    5.3246323      782.01767     -22.448145      759.56953    
   3925000   308.33805      0.013034914    7.5917956      764.99519     -17.545895      747.4493     
   3926000   306.70467      0.013034914    9.3470568      760.94275     -20.74816       740.19459    
   3927000   286.21594      0.013034914    6.628398       710.10963     -22.855872      687.25376    
   3928000   306.81965      0.013034914    8.481155       761.22802     -22.312519      738.9155     
   3929000   306.44845      0.013034914    10.860942      760.30705     -20.703317      739.60374    
   3930000   299.04842      0.013034914    6.8242864      741.94738     -21.653614      720.29376    
   3931000   296.40924      0.013034914    4.231826       735.39951     -22.884694      712.51481    
   3932000   302.5256       0.013034914    7.8522394      750.57434     -20.7927        729.78164    
   3933000   309.05443      0.013034914    7.6785195      766.77256     -19.737657      747.0349     
   3934000   288.67751      0.013034914    6.7888179      716.21685     -19.925122      696.29173    
   3935000   293.25834      0.013034914    7.1924372      727.58202     -23.234041      704.34798    
   3936000   320.85293      0.013034914    7.7519237      796.04496     -18.571244      777.47372    
   3937000   294.0577       0.013034914    7.4267074      729.56525     -20.282075      709.28317    
   3938000   282.36303      0.013034914    6.3740237      700.55045     -18.615488      681.93496    
   3939000   301.38421      0.013034914    7.4892084      747.74254     -20.82253       726.92001    
   3940000   308.43392      0.013034914    5.1546503      765.23306     -19.180646      746.05242    
   3941000   289.17199      0.013034914    7.0027635      717.44368     -17.180721      700.26296    
   3942000   283.55998      0.013034914    5.3106865      703.52012     -20.787961      682.73216    
   3943000   317.16603      0.013034914    4.1260606      786.89766     -17.856985      769.04067    
   3944000   305.19603      0.013034914    9.7713747      757.19976     -20.070153      737.12961    
   3945000   291.64455      0.013034914    5.7025138      723.57817     -21.3897        702.18847    
   3946000   303.17952      0.013034914    4.8673934      752.19674     -17.385327      734.81142    
   3947000   305.55886      0.013034914    9.3512327      758.09996     -16.923458      741.17651    
   3948000   301.66628      0.013034914    11.348423      748.44234     -20.719926      727.72242    
   3949000   294.6149       0.013034914    9.100878       730.94768     -20.361524      710.58615    
   3950000   304.06547      0.013034914    2.578003       754.39482     -20.902487      733.49233    
   3951000   307.85223      0.013034914    8.3012637      763.78986     -22.600552      741.18931    
   3952000   303.88403      0.013034914    8.3232337      753.94464     -20.361629      733.58301    
   3953000   305.55944      0.013034914    8.8386527      758.1014      -20.403747      737.69765    
   3954000   286.85639      0.013034914    7.0366182      711.69862     -19.794337      691.90428    
   3955000   301.83152      0.013034914    6.3043747      748.85231     -21.080952      727.77136    
   3956000   315.89641      0.013034914    7.4379126      783.74769     -25.455238      758.29245    
   3957000   303.07394      0.013034914    11.650616      751.93479     -18.09637       733.83842    
   3958000   296.26836      0.013034914    7.7667265      735.04997     -20.552815      714.49715    
   3959000   288.39599      0.013034914   -1.6964449      715.5184      -20.444777      695.07363    
   3960000   311.40231      0.013034914    12.901127      772.59771     -18.550847      754.04686    
   3961000   297.95696      0.013034914    9.1972628      739.23943     -22.427145      716.81229    
   3962000   294.83632      0.013034914    2.1261492      731.49704     -24.031863      707.46518    
   3963000   305.75556      0.013034914    4.2169593      758.58798     -28.164967      730.42301    
   3964000   308.32422      0.013034914    11.968329      764.9609      -25.298486      739.66241    
   3965000   303.70601      0.013034914    12.962895      753.50297     -18.831272      734.6717     
   3966000   294.20115      0.013034914    3.361216       729.92117     -21.984624      707.93654    
   3967000   303.34002      0.013034914    4.0191018      752.59496     -21.93629       730.65867    
   3968000   312.35545      0.013034914    15.329369      774.96249     -20.536271      754.42622    
   3969000   294.63505      0.013034914    8.4386362      730.99768     -20.407298      710.59038    
   3970000   299.14754      0.013034914    4.7513098      742.19329     -22.517853      719.67544    
   3971000   307.53012      0.013034914    7.8267618      762.9907      -27.108064      735.88264    
   3972000   299.67498      0.013034914    10.42563       743.50188     -22.844763      720.65711    
   3973000   298.96463      0.013034914    2.1742579      741.73949     -22.581682      719.1578     
   3974000   311.10381      0.013034914    6.1205168      771.85712     -20.85691       751.00021    
   3975000   297.90267      0.013034914    8.416019       739.10473     -20.090534      719.0142     
   3976000   297.43299      0.013034914    9.8894242      737.93944     -20.303762      717.63568    
   3977000   301.95886      0.013034914    8.0037088      749.16825     -18.787701      730.38055    
   3978000   293.37623      0.013034914    4.8153629      727.87451     -20.520105      707.3544     
   3979000   311.33967      0.013034914    6.3979733      772.44231     -21.203417      751.23889    
   3980000   297.30705      0.013034914    10.312601      737.627       -18.977669      718.64933    
   3981000   291.34814      0.013034914    1.8249991      722.84278     -21.521765      701.32101    
   3982000   310.17041      0.013034914   -0.7344331      769.54133     -20.9296        748.61173    
   3983000   296.17496      0.013034914    12.408526      734.81823     -21.331334      713.4869     
   3984000   289.70101      0.013034914    7.2219739      718.75618     -24.198409      694.55777    
   3985000   300.26772      0.013034914    1.0908717      744.97248     -22.384578      722.5879     
   3986000   318.04496      0.013034914    7.1561293      789.07832     -16.935585      772.14274    
   3987000   303.56465      0.013034914    10.76349       753.15227     -19.424193      733.72808    
   3988000   298.15411      0.013034914    13.171184      739.72855     -18.447882      721.28067    
   3989000   297.92678      0.013034914    5.7045009      739.16456     -16.662052      722.50251    
   3990000   304.77172      0.013034914    0.45776078     756.14704     -19.255758      736.89129    
   3991000   306.22133      0.013034914    8.8329962      759.74355     -18.348756      741.3948     
   3992000   299.79675      0.013034914    9.1888812      743.80399     -16.141598      727.66239    
   3993000   304.75002      0.013034914    9.4721602      756.09319     -16.138916      739.95428    
   3994000   296.2867       0.013034914    5.4871847      735.09546     -17.900934      717.19452    
   3995000   284.87815      0.013034914    6.0819652      706.79053     -17.398855      689.39168    
   3996000   296.86532      0.013034914    7.3165863      736.53105     -15.86239       720.66866    
   3997000   311.86329      0.013034914    7.8733253      773.74141     -19.325906      754.4155     
   3998000   292.67788      0.013034914    5.3386588      726.14188     -21.068534      705.07335    
   3999000   303.60221      0.013034914    8.7270113      753.24545     -20.995769      732.24968    
   4000000   291.94855      0.013034914    7.1589852      724.3324      -18.753001      705.5794     
Loop time of 7942.31 on 1 procs for 4000000 steps with 1500 atoms

Performance: 10.878 ns/day, 2.206 hours/ns, 503.632 timesteps/s, 755.447 katom-step/s
100.0% CPU use with 1 MPI tasks x 1 OpenMP threads

MPI task timing breakdown:
Section |  min time  |  avg time  |  max time  |%varavg| %total
---------------------------------------------------------------
Pair    | 802.31     | 802.31     | 802.31     |   0.0 | 10.10
Bond    | 92.796     | 92.796     | 92.796     |   0.0 |  1.17
Kspace  | 6518.1     | 6518.1     | 6518.1     |   0.0 | 82.07
Neigh   | 0.02854    | 0.02854    | 0.02854    |   0.0 |  0.00
Comm    | 20.593     | 20.593     | 20.593     |   0.0 |  0.26
Output  | 0.089574   | 0.089574   | 0.089574   |   0.0 |  0.00
Modify  | 494.83     | 494.83     | 494.83     |   0.0 |  6.23
Other   |            | 13.61      |            |       |  0.17

Nlocal:           1500 ave        1500 max        1500 min
Histogram: 1 0 0 0 0 0 0 0 0 0
Nghost:            973 ave         973 max         973 min
Histogram: 1 0 0 0 0 0 0 0 0 0
Neighs:              0 ave           0 max           0 min
Histogram: 1 0 0 0 0 0 0 0 0 0

Total # of neighbors = 0
Ave neighs/atom = 0
Ave special neighs/atom = 2
Neighbor list builds = 16519
Dangerous builds = 0
write_data	last_conf.data pair ij
System init for write_data ...
PPPM initialization ...
  using 12-bit tables for long-range coulomb (src/kspace.cpp:342)
  G vector (1/distance) = 0.16590657
  grid = 30 30 30
  stencil order = 5
  estimated absolute RMS force accuracy = 0.029187338
  estimated relative force accuracy = 8.7896802e-05
  using double precision FFTW3
  3d grid and FFT values/proc = 42875 27000
Generated 1 of 1 mixed pair_coeff terms from arithmetic mixing rule
Total wall time: 2:12:22
