LAMMPS (29 Aug 2024 - Update 1)
  using 1 OpenMP thread(s) per MPI task
package gpu 1 gpuID 0
# GCMC for CO2 molecular fluid, rigid/small/nvt dynamics
# Rigid CO2 TraPPE model
# [Potoff and J.I. Siepmann, Vapor-liquid equilibria of
# mixtures containing alkanes, carbon dioxide and
# nitrogen AIChE J., 47,1676-1682 (2001)].

# global model settings

units           real
atom_style      full
boundary        p p p
pair_style      lj/cut/coul/long  12
pair_modify     mix arithmetic shift yes
kspace_style    pppm 1.0e-4
bond_style      harmonic
angle_style     harmonic
neigh_modify    one 4000

# box, start molecules on simple cubic lattice
region          mbox block 0 ${lbox} 0 ${lbox} 0 ${lbox} units box
region          mbox block 0 159 0 ${lbox} 0 ${lbox} units box
region          mbox block 0 159 0 159 0 ${lbox} units box
region          mbox block 0 159 0 159 0 159 units box
create_box      2 mbox                                       bond/types 1                                angle/types 1                               extra/bond/per/atom 2                       extra/angle/per/atom 1                      extra/special/per/atom 2
Created orthogonal box = (0 0 0) to (159 159 159)
  1 by 1 by 1 MPI processor grid
molecule        co2mol ../CO2.txt
Read molecule template co2mol:
# CO2 molecule file. TraPPE model.
  1 molecules
  0 fragments
  3 atoms with max type 2
  2 bonds with max type 1
  1 angles with max type 1
  0 dihedrals with max type 0
  0 impropers with max type 0
create_atoms   	0 random ${nmols} 34578 mbox mol co2mol 464563 overlap 1.2
create_atoms   	0 random 500 34578 mbox mol co2mol 464563 overlap 1.2
Created 1500 atoms
  using lattice units in orthogonal box = (0 0 0) to (159 159 159)
  create_atoms CPU = 0.007 seconds

# rigid CO2 TraPPE model

pair_coeff      1   1  0.053649   2.800
pair_coeff      2   2  0.156973   3.050
bond_coeff      1       0       1.16
angle_coeff     1       0       180

# masses

mass 1 12.0107
mass 2 15.9994

write_data init_conf.data  pair ij
System init for write_data ...
PPPM initialization ...
  using 12-bit tables for long-range coulomb (src/kspace.cpp:342)
  G vector (1/distance) = 0.15623461
  grid = 30 30 30
  stencil order = 5
  estimated absolute RMS force accuracy = 0.038174764
  estimated relative force accuracy = 0.00011496217
  using double precision FFTW3
  3d grid and FFT values/proc = 42875 27000
Generated 1 of 1 mixed pair_coeff terms from arithmetic mixing rule

# MD settings

group           co2 type 1 2
1500 atoms in group co2
velocity       	all create 300 54654
timestep        0.25

# rigid constraints with thermostat
fix             myrigidnvt co2 rigid/nvt molecule temp 300 300 $(100*dt)
fix             myrigidnvt co2 rigid/nvt molecule temp 300 300 25
  500 rigid bodies with 1500 atoms

thermo 1000
thermo_style custom step temp density press ke pe etotal


variable    mvol equal vol
variable    mden equal density
variable	mtmp equal temp
variable    mpre equal press

fix mydat all ave/time 1 4000 4000 v_mtmp v_mden v_mpre file statistics.dat ## every 1ps

run 4000000 ## 1ns

CITE-CITE-CITE-CITE-CITE-CITE-CITE-CITE-CITE-CITE-CITE-CITE-CITE

Your simulation uses code contributions which should be cited:

- GPU package (short-range, long-range and three-body potentials): doi:10.1016/j.cpc.2010.12.021, doi:10.1016/j.cpc.2011.10.012, doi:10.1016/j.cpc.2013.08.002, doi:10.1016/j.commatsci.2014.10.068, doi:10.1016/j.cpc.2016.10.020, doi:10.3233/APC200086

@Article{Brown11,
 author = {W. M. Brown and P. Wang and S. J. Plimpton and A. N. Tharrington},
 title = {Implementing Molecular Dynamics on Hybrid High Performance Computers---Short Range Forces},
 journal = {Comput.\ Phys.\ Commun.},
 year =    2011,
 volume =  182,
 pages =   {898--911},
 doi =     {10.1016/j.cpc.2010.12.021}
}

@Article{Brown12,
 author = {W. M. Brown and A. Kohlmeyer and S. J. Plimpton and A. N. Tharrington},
 title = {Implementing Molecular Dynamics on Hybrid High Performance Computers - Particle-Particle Particle-Mesh},
 journal = {Comput.\ Phys.\ Commun.},
 year =    2012,
 volume =  183,
 doi =     {10.1016/j.cpc.2011.10.012},
 pages =   {449--459}
}

@Article{Brown13,
 author = {W. M. Brown and Y. Masako},
 title = {Implementing Molecular Dynamics on Hybrid High Performance Computers---Three-Body Potentials},
 journal = {Comput.\ Phys.\ Commun.},
 year =    2013,
 volume =  184,
 pages =   {2785--2793},
 doi =     {10.1016/j.cpc.2013.08.002},
}

@Article{Trung15,
 author = {T. D. Nguyen and S. J. Plimpton},
 title = {Accelerating Dissipative Particle Dynamics Simulations for Soft Matter Systems},
 journal = {Comput.\ Mater.\ Sci.},
 year =    2015,
 doi =     {10.1016/j.commatsci.2014.10.068},
 volume =  100,
 pages =   {173--180}
}

@Article{Trung17,
 author = {T. D. Nguyen},
 title = {{GPU}-Accelerated {T}ersoff Potentials for Massively Parallel
    Molecular Dynamics Simulations},
 journal = {Comput.\ Phys.\ Commun.},
 year =    2017,
 doi =     {10.1016/j.cpc.2016.10.020},
 volume =  212,
 pages =   {113--122}
}

@inproceedings{Nikolskiy19,
 author = {V. Nikolskiy and V. Stegailov},
 title = {{GPU} Acceleration of Four-Site Water Models in {LAMMPS}},
 booktitle = {Proceedings of the International Conference on Parallel
    Computing (ParCo 2019), Prague, Czech Republic},
 doi =     {10.3233/APC200086},
 year =    2019
}

CITE-CITE-CITE-CITE-CITE-CITE-CITE-CITE-CITE-CITE-CITE-CITE-CITE

PPPM initialization ...
  using 12-bit tables for long-range coulomb (src/kspace.cpp:342)
  G vector (1/distance) = 0.15623461
  grid = 30 30 30
  stencil order = 5
  estimated absolute RMS force accuracy = 0.038174764
  estimated relative force accuracy = 0.00011496217
  using double precision FFTW3
  3d grid and FFT values/proc = 42875 27000
Generated 1 of 1 mixed pair_coeff terms from arithmetic mixing rule
Per MPI rank memory allocation (min/avg/max) = 11.37 | 11.37 | 11.37 Mbytes
   Step          Temp         Density         Press          KinEng         PotEng         TotEng    
         0   307.69091      0.0090902144   66.18133       763.38962      34074.911      34838.301    
      1000   306.49488      0.0090902144   7.5938464      760.42224     -11.756308      748.66593    
      2000   305.22673      0.0090902144   4.2674631      757.27594     -15.66225       741.61369    
      3000   304.84865      0.0090902144   5.0087991      756.33791     -16.740587      739.59733    
      4000   293.13264      0.0090902144   4.9849467      727.27017     -17.958049      709.31212    
      5000   297.10055      0.0090902144   4.3249179      737.11464     -21.768384      715.34626    
      6000   309.29097      0.0090902144   6.5749563      767.35943     -24.055284      743.30414    
      7000   301.12694      0.0090902144   3.2995744      747.10424     -25.846186      721.25805    
      8000   293.88851      0.0090902144   5.6169686      729.14549     -30.589246      698.55624    
      9000   318.91305      0.0090902144   11.646303      791.23206     -29.288635      761.94342    
     10000   305.43695      0.0090902144   5.8032612      757.7975      -23.384992      734.4125     
     11000   290.14454      0.0090902144   4.3093955      719.85659     -33.703891      686.1527     
     12000   293.18703      0.0090902144   6.6312685      727.40511     -35.4611        691.94401    
     13000   299.69352      0.0090902144   9.3203129      743.54789     -34.799959      708.74793    
     14000   304.40213      0.0090902144   5.1357132      755.23007     -35.810717      719.41935    
     15000   302.63172      0.0090902144   4.6114232      750.83763     -46.210723      704.62691    
     16000   307.12155      0.0090902144   5.4097223      761.97703     -46.75195       715.22508    
     17000   292.57223      0.0090902144   4.15785        725.87978     -43.170157      682.70962    
     18000   295.33459      0.0090902144   3.7163816      732.73325     -43.366118      689.36713    
     19000   301.17009      0.0090902144   7.0176271      747.21129     -42.800851      704.41044    
     20000   301.14786      0.0090902144  -2.3913123      747.15613     -45.625099      701.53103    
     21000   293.90114      0.0090902144   5.2287351      729.17683     -48.07691       681.09993    
     22000   306.4288       0.0090902144   4.4937134      760.25829     -50.446315      709.81198    
     23000   311.39388      0.0090902144   3.918661       772.57681     -56.527948      716.04886    
     24000   299.88667      0.0090902144   5.3138005      744.0271      -54.42174       689.60536    
     25000   307.22446      0.0090902144   3.0989697      762.23236     -54.811816      707.42054    
     26000   301.09062      0.0090902144   2.70772        747.01413     -52.842498      694.17163    
     27000   297.03021      0.0090902144   8.9907362      736.94013     -56.07786       680.86227    
     28000   306.55783      0.0090902144   6.1864485      760.57842     -55.971236      704.60719    
     29000   302.91012      0.0090902144   5.208644       751.52836     -57.289165      694.2392     
     30000   295.81831      0.0090902144   4.5760468      733.93337     -62.158288      671.77508    
     31000   292.41574      0.0090902144   5.7300439      725.49152     -62.063028      663.4285     
     32000   314.10122      0.0090902144   0.23038834     779.29378     -62.914438      716.37934    
     33000   295.28747      0.0090902144   8.2075591      732.61636     -59.753652      672.86271    
     34000   297.37957      0.0090902144   4.6941273      737.8069      -63.532356      674.27454    
     35000   299.72689      0.0090902144   2.4473573      743.63069     -60.759931      682.87075    
     36000   299.24129      0.0090902144   5.9127226      742.4259      -61.931361      680.49453    
     37000   294.69467      0.0090902144   5.0946945      731.1456      -65.321203      665.82439    
     38000   308.98877      0.0090902144   3.8408806      766.60966     -63.894182      702.71548    
     39000   309.0522       0.0090902144   4.7453047      766.76703     -74.425963      692.34107    
     40000   302.78224      0.0090902144   0.90511905     751.21109     -72.435754      678.77533    
     41000   308.38755      0.0090902144   3.8609802      765.11801     -72.736657      692.38135    
     42000   295.2527       0.0090902144   4.0888554      732.53008     -75.07193       657.45815    
     43000   288.75158      0.0090902144   5.082018       716.40062     -70.398861      646.00176    
     44000   297.84861      0.0090902144   6.3908575      738.9706      -72.044775      666.92582    
     45000   308.69125      0.0090902144   2.0883374      765.87151     -76.770587      689.10092    
     46000   300.85789      0.0090902144   4.2747338      746.43671     -78.811202      667.6255     
     47000   298.49074      0.0090902144   8.7747189      740.56376     -77.075886      663.48787    
     48000   300.89872      0.0090902144   5.4919855      746.53802     -79.251863      667.28615    
     49000   290.14392      0.0090902144   4.5330861      719.85506     -78.209423      641.64564    
     50000   284.48125      0.0090902144   4.5152195      705.80582     -76.137836      629.66798    
     51000   305.91051      0.0090902144   4.93067        758.9724      -76.828671      682.14373    
     52000   311.01004      0.0090902144   4.7248172      771.62447     -78.173251      693.45122    
     53000   295.85093      0.0090902144   3.9609195      734.0143      -83.891409      650.12289    
     54000   286.08938      0.0090902144   7.8293814      709.79564     -76.6274        633.16824    
     55000   299.62508      0.0090902144   4.7445012      743.37809     -73.603751      669.77434    
     56000   308.27938      0.0090902144   4.6574178      764.84965     -76.384683      688.46496    
     57000   307.76528      0.0090902144   2.4906828      763.57413     -72.810299      690.76383    
     58000   282.61569      0.0090902144   7.8144843      701.17732     -76.879253      624.29807    
     59000   295.02635      0.0090902144   8.151456       731.96852     -75.718654      656.24986    
     60000   321.52007      0.0090902144   2.8348083      797.70016     -74.622626      723.07754    
     61000   299.94943      0.0090902144   3.5106808      744.18281     -77.372121      666.81069    
     62000   288.18077      0.0090902144   6.7876949      714.98444     -76.445183      638.53925    
     63000   292.63832      0.0090902144   3.0706649      726.04373     -75.545897      650.49783    
     64000   302.0409       0.0090902144   4.2798921      749.3718      -76.539677      672.83212    
     65000   311.77208      0.0090902144   5.2495164      773.51512     -76.056819      697.4583     
     66000   301.31986      0.0090902144   5.2405246      747.58287     -73.421344      674.16153    
     67000   296.90101      0.0090902144   7.1644021      736.61959     -85.783504      650.83608    
     68000   313.33306      0.0090902144   10.697823      777.38796     -86.178042      691.20992    
     69000   297.4125       0.0090902144   1.4811212      737.8886      -83.916339      653.97226    
     70000   301.02113      0.0090902144   3.6438285      746.84173     -85.779387      661.06234    
     71000   298.49819      0.0090902144   8.5736567      740.58223     -88.487987      652.09424    
     72000   309.48249      0.0090902144   2.1080283      767.83458     -83.025245      684.80933    
     73000   290.24099      0.0090902144   4.1489095      720.09589     -82.310948      637.78494    
     74000   294.02337      0.0090902144   3.0856726      729.4801      -83.658683      645.82141    
     75000   302.97852      0.0090902144   9.7259825      751.69806     -85.051496      666.64656    
     76000   297.38512      0.0090902144   2.5584833      737.82069     -86.975327      650.84536    
     77000   304.83507      0.0090902144   3.7826721      756.30422     -79.008093      677.29612    
     78000   305.79722      0.0090902144   7.4150052      758.69134     -84.514928      674.17642    
     79000   284.64729      0.0090902144   4.5633587      706.21778     -81.023582      625.1942     
     80000   295.53612      0.0090902144   5.0462683      733.23325     -79.116435      654.11682    
     81000   298.87797      0.0090902144   4.5485996      741.52449     -81.175673      660.34881    
     82000   302.36433      0.0090902144   5.570793       750.17424     -85.788227      664.38601    
     83000   312.0724       0.0090902144   5.3487208      774.26024     -87.423371      686.83687    
     84000   296.78416      0.0090902144   6.2874337      736.32968     -87.283298      649.04638    
     85000   286.44524      0.0090902144   3.3307537      710.67854     -86.787853      623.89069    
     86000   296.01462      0.0090902144   4.0945724      734.42043     -88.562503      645.85793    
     87000   301.76628      0.0090902144   4.6921368      748.69046     -89.203755      659.48671    
     88000   312.62937      0.0090902144   1.8089609      775.64209     -90.314373      685.32771    
     89000   309.79858      0.0090902144   6.2752966      768.61882     -88.25661       680.36221    
     90000   299.66177      0.0090902144   6.1384622      743.46911     -88.956911      654.5122     
     91000   285.77872      0.0090902144  -0.11937354     709.02489     -89.802771      619.22212    
     92000   318.40113      0.0090902144   2.0899619      789.96197     -88.049581      701.91239    
     93000   299.94851      0.0090902144   6.4787932      744.18052     -85.841855      658.33866    
     94000   295.05052      0.0090902144   0.37663483     732.02848     -88.251554      643.77692    
     95000   296.6225       0.0090902144   3.6998237      735.92859     -88.941296      646.9873     
     96000   282.15289      0.0090902144   11.958034      700.0291      -88.5702        611.4589     
     97000   293.68019      0.0090902144   5.630294       728.62864     -94.503527      634.12511    
     98000   305.96445      0.0090902144   3.6495521      759.10625     -95.235425      663.87082    
     99000   296.62503      0.0090902144   4.1905666      735.93488     -92.855035      643.07985    
    100000   301.1805       0.0090902144   8.352279       747.23712     -88.335714      658.9014     
    101000   289.93506      0.0090902144   4.7096638      719.33687     -88.251431      631.08544    
    102000   298.10721      0.0090902144   3.1444936      739.61221     -91.146015      648.46619    
    103000   304.96294      0.0090902144   2.2389377      756.62146     -91.193254      665.42821    
    104000   300.45098      0.0090902144   4.9744923      745.42716     -95.323386      650.10378    
    105000   303.35186      0.0090902144   7.1963786      752.62432     -94.380275      658.24405    
    106000   296.43687      0.0090902144   5.4257043      735.46803     -91.720684      643.74735    
    107000   292.91238      0.0090902144   3.8972064      726.72369     -93.469663      633.25403    
    108000   312.81312      0.0090902144   8.6832503      776.09796     -92.732433      683.36553    
    109000   305.27081      0.0090902144   4.5625725      757.38529     -96.681701      660.70359    
    110000   312.81083      0.0090902144   7.0882035      776.0923      -95.763306      680.32899    
    111000   297.86327      0.0090902144   6.532345       739.00699     -96.306463      642.70053    
    112000   294.80933      0.0090902144   4.6693241      731.43006     -97.00098       634.42908    
    113000   303.47577      0.0090902144   4.8512918      752.93176     -93.052472      659.87929    
    114000   301.23398      0.0090902144   2.8142117      747.36982     -92.651672      654.71814    
    115000   298.11397      0.0090902144   3.3057656      739.62897     -97.72529       641.90368    
    116000   291.461        0.0090902144   7.3189746      723.12278     -97.776361      625.34641    
    117000   299.28862      0.0090902144   7.1782695      742.54331     -93.233199      649.31011    
    118000   307.07192      0.0090902144  -2.3016766      761.8539      -104.76588      657.08802    
    119000   295.81027      0.0090902144   2.8157411      733.91344     -102.36613      631.5473     
    120000   293.96641      0.0090902144   8.4847996      729.33878     -97.503596      631.83518    
    121000   293.6976       0.0090902144   3.8429621      728.67183     -95.602251      633.06958    
    122000   303.70149      0.0090902144  -1.2372184      753.49177     -94.522564      658.96921    
    123000   298.67568      0.0090902144   6.803238       741.0226      -95.201672      645.82092    
    124000   281.74928      0.0090902144   9.5304078      699.02773     -100.30568      598.72205    
    125000   303.87455      0.0090902144   12.2831        753.92114     -103.24026      650.68088    
    126000   296.22876      0.0090902144   3.9481317      734.95173     -96.479768      638.47196    
    127000   299.01284      0.0090902144   5.7205345      741.85911     -94.707105      647.15201    
    128000   310.75237      0.0090902144   5.0643659      770.9852      -93.899423      677.08578    
    129000   300.16671      0.0090902144   5.1421177      744.72189     -94.160939      650.56095    
    130000   300.81042      0.0090902144   4.3937052      746.31895     -100.71175      645.60721    
    131000   302.11035      0.0090902144   3.8906013      749.54411     -100.68676      648.85735    
    132000   276.39831      0.0090902144   5.7336476      685.75183     -97.58344       588.16839    
    133000   311.81488      0.0090902144   5.2388718      773.62131     -90.646028      682.97528    
    134000   297.29896      0.0090902144   4.6182059      737.60691     -94.677229      642.92968    
    135000   299.48692      0.0090902144   3.7909246      743.03529     -95.675732      647.35956    
    136000   303.45358      0.0090902144   5.5073902      752.87669     -98.481832      654.39486    
    137000   305.06403      0.0090902144   6.287084       756.87227     -97.558469      659.3138     
    138000   302.93562      0.0090902144   3.0968163      751.59163     -96.631058      654.96057    
    139000   287.99934      0.0090902144   4.9795098      714.53429     -99.495312      615.03898    
    140000   300.38692      0.0090902144   6.3762522      745.26822     -98.075422      647.1928     
    141000   297.09517      0.0090902144   10.626043      737.1013      -102.10498      634.99632    
    142000   303.24693      0.0090902144   2.543752       752.36399     -101.80447      650.55951    
    143000   297.02699      0.0090902144   1.8379634      736.93215     -106.19052      630.74163    
    144000   301.95071      0.0090902144   4.8561961      749.14804     -104.05111      645.09692    
    145000   306.52221      0.0090902144   6.4916299      760.49005     -108.8683       651.62175    
    146000   304.77913      0.0090902144   4.7697392      756.16543     -108.36756      647.79787    
    147000   294.16965      0.0090902144   3.6811698      729.84301     -102.45696      627.38605    
    148000   276.61742      0.0090902144   5.5003254      686.29543     -89.568297      596.72714    
    149000   286.25497      0.0090902144   5.8427875      710.20647     -107.04314      603.16334    
    150000   302.75729      0.0090902144   9.9603012      751.14919     -114.91955      636.22964    
    151000   301.57777      0.0090902144   2.4943694      748.22276     -111.46316      636.7596     
    152000   294.29009      0.0090902144   3.7404992      730.14183     -108.37801      621.76382    
    153000   296.417        0.0090902144   3.8477796      735.41875     -106.57712      628.84163    
    154000   288.11013      0.0090902144   3.2275227      714.80918     -104.64667      610.16251    
    155000   306.87622      0.0090902144   4.7626535      761.36836     -106.48468      654.88368    
    156000   322.24168      0.0090902144   8.6659018      799.49048     -100.11283      699.37765    
    157000   282.48521      0.0090902144   5.0009234      700.8536      -106.71714      594.13646    
    158000   295.95973      0.0090902144   5.4707347      734.28424     -102.66641      631.61783    
    159000   317.39032      0.0090902144   5.6237732      787.45414     -103.38576      684.06838    
    160000   302.55738      0.0090902144   4.0549652      750.65321     -98.415374      652.23783    
    161000   291.70324      0.0090902144   3.6175244      723.72378     -101.61657      622.10721    
    162000   305.26918      0.0090902144   9.8325407      757.38124     -104.03906      653.34217    
    163000   307.11618      0.0090902144   5.1520542      761.96371     -106.40421      655.5595     
    164000   299.66018      0.0090902144   5.0225772      743.46518     -108.69652      634.76865    
    165000   293.73907      0.0090902144   4.2814424      728.77473     -108.3742       620.40053    
    166000   280.12819      0.0090902144   4.0925802      695.00575     -109.27987      585.72589    
    167000   304.67188      0.0090902144   0.086392187    755.89933     -106.33294      649.5664     
    168000   308.6661       0.0090902144   10.528266      765.80909     -108.75972      657.04937    
    169000   303.1202       0.0090902144   8.3148722      752.04958     -106.20909      645.84048    
    170000   294.48083      0.0090902144   3.917438       730.61505     -107.57995      623.0351     
    171000   300.32626      0.0090902144   1.0107127      745.11772     -106.81014      638.30759    
    172000   305.74316      0.0090902144   4.2076719      758.55721     -101.85976      656.69745    
    173000   305.42413      0.0090902144   6.493871       757.76568     -108.30007      649.46561    
    174000   304.19241      0.0090902144  -2.0051592      754.70975     -108.48069      646.22906    
    175000   294.58879      0.0090902144   2.4724868      730.88292     -104.12763      626.75529    
    176000   305.45238      0.0090902144   6.1714194      757.83576     -105.2377       652.59807    
    177000   310.98338      0.0090902144   5.755641       771.55833     -106.31944      665.23889    
    178000   299.91751      0.0090902144   8.1280046      744.1036      -107.25931      636.84429    
    179000   293.43755      0.0090902144   5.2351813      728.02664     -104.03906      623.98758    
    180000   294.74226      0.0090902144   5.4152403      731.26368     -102.22626      629.03742    
    181000   299.99941      0.0090902144   0.93251472     744.3068      -102.99882      641.30798    
    182000   310.23642      0.0090902144   5.5604767      769.7051      -104.00534      665.69977    
    183000   291.96106      0.0090902144   5.6247209      724.36344     -106.66943      617.69401    
    184000   291.07427      0.0090902144   4.5367231      722.1633      -107.43367      614.72963    
    185000   300.3857       0.0090902144   3.4582735      745.26521     -108.81401      636.4512     
    186000   308.64103      0.0090902144   5.7441943      765.74691     -104.79048      660.95643    
    187000   289.95823      0.0090902144   5.6954051      719.39435     -106.87046      612.5239     
    188000   292.16241      0.0090902144   4.1491354      724.86299     -98.625339      626.23765    
    189000   307.76575      0.0090902144   2.4131482      763.5753      -100.51013      663.06517    
    190000   322.67896      0.0090902144   4.832787       800.57538     -105.42384      695.15154    
    191000   298.40139      0.0090902144   3.2623293      740.34208     -104.27844      636.06365    
    192000   287.14732      0.0090902144   4.3747375      712.42041     -103.89606      608.52435    
    193000   312.62779      0.0090902144   4.7721787      775.63817     -108.1516       667.48657    
    194000   301.81393      0.0090902144   8.5043446      748.80869     -109.53328      639.27541    
    195000   293.88484      0.0090902144   5.2835643      729.13639     -109.42692      619.70947    
    196000   301.23396      0.0090902144   4.5298763      747.36977     -106.35448      641.01528    
    197000   305.76705      0.0090902144   1.3723642      758.61648     -104.81238      653.8041     
    198000   304.86756      0.0090902144   6.6098026      756.38482     -107.68927      648.69556    
    199000   292.00391      0.0090902144   7.4364996      724.46975     -109.82426      614.6455     
    200000   290.12439      0.0090902144   3.4099829      719.80661     -103.95391      615.8527     
    201000   304.93784      0.0090902144   0.4775843      756.55918     -102.98042      653.57876    
    202000   297.40388      0.0090902144   5.4068296      737.86721     -105.08137      632.78585    
    203000   292.24615      0.0090902144   7.5161228      725.07074     -102.8041       622.26664    
    204000   295.20589      0.0090902144   5.54049        732.41395     -102.80096      629.61299    
    205000   295.10057      0.0090902144   1.9449212      732.15264     -99.786889      632.36575    
    206000   307.10071      0.0090902144   3.6821638      761.92533     -100.1489       661.77643    
    207000   293.38518      0.0090902144   6.7236119      727.89672     -97.391511      630.50521    
    208000   290.04398      0.0090902144   1.9484197      719.60711     -100.34953      619.25758    
    209000   307.39915      0.0090902144   3.5555203      762.66578     -95.553639      667.11214    
    210000   303.35981      0.0090902144   7.2501755      752.64405     -94.442423      658.20162    
    211000   292.47602      0.0090902144   3.4624145      725.64107     -95.293832      630.34723    
    212000   312.66667      0.0090902144   3.6171344      775.73463     -94.069859      681.66477    
    213000   295.65619      0.0090902144   5.6146672      733.53116     -100.00335      633.52781    
    214000   291.68367      0.0090902144   5.6997752      723.67524     -95.643415      628.03182    
    215000   309.95799      0.0090902144   2.9411441      769.01432     -103.47895      665.53537    
    216000   311.86468      0.0090902144   5.5919869      773.74488     -109.57023      664.17465    
    217000   312.09415      0.0090902144   10.323894      774.31419     -103.60871      670.70548    
    218000   295.73712      0.0090902144   6.3463838      733.73195     -98.412396      635.31956    
    219000   304.44065      0.0090902144   4.3025319      755.32564     -105.47529      649.85035    
    220000   296.11627      0.0090902144   4.2349679      734.67264     -102.98741      631.68523    
    221000   305.65613      0.0090902144   3.9137097      758.34128     -98.709927      659.63135    
    222000   319.9851       0.0090902144   4.6609007      793.89185     -99.704691      694.18716    
    223000   295.9184       0.0090902144   6.9727209      734.18171     -105.1174       629.0643     
    224000   292.29035      0.0090902144   2.5771611      725.18041     -98.772025      626.40839    
    225000   305.99989      0.0090902144   4.6912138      759.19416     -96.419599      662.77456    
    226000   297.27504      0.0090902144   4.9490871      737.54756     -96.749607      640.79795    
    227000   296.84172      0.0090902144   3.1677254      736.47248     -98.227797      638.24468    
    228000   301.74777      0.0090902144   5.1433853      748.64454     -98.142898      650.50164    
    229000   300.7969       0.0090902144   4.5074849      746.2854      -97.171605      649.1138     
    230000   297.08917      0.0090902144   4.7807403      737.08643     -95.896544      641.18989    
    231000   296.33604      0.0090902144   4.7206413      735.21789     -97.019568      638.19833    
    232000   303.27123      0.0090902144   5.7910553      752.42428     -98.080919      654.34336    
    233000   298.24211      0.0090902144   4.8019078      739.9469      -99.001983      640.94492    
    234000   286.69057      0.0090902144   4.4264264      711.2872      -96.571205      614.71599    
    235000   294.29926      0.0090902144   4.6373421      730.16459     -98.385068      631.77952    
    236000   315.11165      0.0090902144   4.9981583      781.80068     -94.782274      687.0184     
    237000   306.93343      0.0090902144   2.8169145      761.51029     -99.127587      662.3827     
    238000   292.9528       0.0090902144   4.8170121      726.82398     -99.891962      626.93201    
    239000   306.64418      0.0090902144   5.2514008      760.79267     -96.213786      664.57888    
    240000   310.54961      0.0090902144   4.5287455      770.48213     -98.740167      671.74197    
    241000   293.51137      0.0090902144   4.203832       728.2098      -105.98347      622.22633    
    242000   305.33342      0.0090902144   4.8226644      757.54064     -102.90632      654.63432    
    243000   309.30824      0.0090902144   4.7096117      767.40228     -101.41928      665.98299    
    244000   310.65822      0.0090902144   5.9733488      770.75161     -102.78401      667.9676     
    245000   293.86869      0.0090902144   8.3667881      729.09632     -95.607903      633.48842    
    246000   287.96368      0.0090902144  -0.37421267     714.44582     -100.06949      614.37633    
    247000   310.53876      0.0090902144  -3.2222421      770.45523     -100.92307      669.53216    
    248000   310.80347      0.0090902144   7.6089231      771.11198     -97.525305      673.58667    
    249000   288.22373      0.0090902144   11.954575      715.09101     -97.464838      617.62618    
    250000   293.77964      0.0090902144  -1.6214801      728.87538     -99.327162      629.54822    
    251000   310.72325      0.0090902144   2.560282       770.91295     -94.048918      676.86403    
    252000   304.85478      0.0090902144   15.828548      756.3531      -96.430714      659.92239    
    253000   295.62783      0.0090902144   6.6213701      733.46079     -93.720044      639.74074    
    254000   293.04469      0.0090902144  -6.9026323      727.05194     -96.862395      630.18955    
    255000   307.22246      0.0090902144   6.0555381      762.22739     -91.669527      670.55787    
    256000   312.58367      0.0090902144   8.1713074      775.5287      -89.718592      685.8101     
    257000   307.95331      0.0090902144   9.5293978      764.04065     -93.298356      670.7423     
    258000   285.56304      0.0090902144   4.8819922      708.48978     -92.950814      615.53897    
    259000   305.56649      0.0090902144   4.013552       758.11888     -91.462401      666.65648    
    260000   306.25847      0.0090902144   6.7342842      759.8357      -89.989244      669.84646    
    261000   293.11944      0.0090902144   6.0516584      727.2374      -95.078745      632.15866    
    262000   292.56895      0.0090902144   3.5645784      725.87164     -92.367175      633.50446    
    263000   307.61551      0.0090902144   0.46654069     763.20257     -91.974855      671.22771    
    264000   302.84031      0.0090902144   4.0937741      751.35516     -90.637929      660.71723    
    265000   298.13466      0.0090902144   11.597364      739.68031     -97.559851      642.12046    
    266000   298.14358      0.0090902144   5.418901       739.70244     -98.021116      641.68132    
    267000   308.01298      0.0090902144   1.0890057      764.18868     -92.56564       671.62304    
    268000   304.13947      0.0090902144  -0.071535814    754.57842     -85.603767      668.97465    
    269000   303.59607      0.0090902144   5.1383429      753.23021     -94.652025      658.57819    
    270000   305.23099      0.0090902144   8.8444506      757.2865      -93.215234      664.07127    
    271000   288.65948      0.0090902144   1.0171854      716.17212     -94.919555      621.25256    
    272000   303.13839      0.0090902144  -1.0111693      752.09469     -90.966351      661.12834    
    273000   310.832        0.0090902144   5.7045054      771.18276     -92.488956      678.6938     
    274000   300.65535      0.0090902144   5.3599207      745.93422     -94.434337      651.49988    
    275000   294.78992      0.0090902144   9.4315342      731.38191     -94.375145      637.00677    
    276000   300.7863       0.0090902144   3.5673565      746.2591      -97.08316       649.17594    
    277000   303.85215      0.0090902144  -0.29225588     753.86555     -100.77804      653.08751    
    278000   297.39207      0.0090902144   5.2309979      737.83793     -98.614024      639.22391    
    279000   288.63425      0.0090902144   4.6344382      716.10954     -98.355133      617.75441    
    280000   312.03587      0.0090902144   4.9428927      774.1696      -101.55862      672.61099    
    281000   304.22972      0.0090902144   5.1097347      754.80231     -100.85791      653.9444     
    282000   303.79609      0.0090902144   3.8494856      753.72647     -94.12818       659.59829    
    283000   302.81872      0.0090902144   4.490341       751.30159     -92.544298      658.75729    
    284000   283.58114      0.0090902144   4.1539138      703.57264     -87.145986      616.42665    
    285000   293.65585      0.0090902144   3.854034       728.56826     -89.020095      639.54817    
    286000   310.3677       0.0090902144   5.2039119      770.03082     -90.798011      679.23281    
    287000   291.25517      0.0090902144   5.7054106      722.61211     -96.551913      626.0602     
    288000   285.01358      0.0090902144   4.6249237      707.12656     -93.281526      613.84503    
    289000   311.55592      0.0090902144   4.8040424      772.97882     -89.257982      683.72084    
    290000   300.89069      0.0090902144   3.7147066      746.51811     -93.9224        652.59571    
    291000   294.39254      0.0090902144   4.4747155      730.39602     -91.65197       638.74405    
    292000   305.41595      0.0090902144   5.7586153      757.74539     -84.325122      673.42026    
    293000   305.85642      0.0090902144   4.3163165      758.83821     -89.225133      669.61307    
    294000   292.12936      0.0090902144   2.4168514      724.781       -90.456164      634.32483    
    295000   290.9719       0.0090902144   7.2835261      721.90932     -93.590938      628.31838    
    296000   313.02011      0.0090902144   5.4344368      776.61153     -82.868956      693.74258    
    297000   298.96764      0.0090902144   4.3017333      741.74697     -86.193949      655.55302    
    298000   290.69707      0.0090902144   4.050284       721.22744     -87.082984      634.14445    
    299000   295.92926      0.0090902144   5.5173066      734.20865     -84.292141      649.91651    
    300000   318.32111      0.0090902144   2.0925939      789.76345     -84.621835      705.14162    
    301000   293.89218      0.0090902144   3.0770396      729.15461     -81.849391      647.30522    
    302000   294.77929      0.0090902144   8.906805       731.35554     -81.654712      649.70083    
    303000   328.53041      0.0090902144   7.1920771      815.093       -79.565513      735.52748    
    304000   313.40271      0.0090902144   1.3543566      777.56077     -78.616984      698.94379    
    305000   296.7268       0.0090902144   0.86221109     736.18738     -77.156533      659.03084    
    306000   282.22405      0.0090902144   9.1098475      700.20565     -82.69952       617.50613    
    307000   315.83878      0.0090902144   10.331354      783.60472     -81.023694      702.58103    
    308000   303.47301      0.0090902144  -3.065261       752.92489     -81.754184      671.17071    
    309000   287.8103       0.0090902144  -3.8968101      714.06528     -82.602227      631.46305    
    310000   298.29378      0.0090902144   8.0514482      740.0751      -86.034753      654.04035    
    311000   316.16233      0.0090902144   4.8328096      784.40745     -77.069538      707.33791    
    312000   298.98345      0.0090902144  -1.1588386      741.78619     -79.300572      662.48562    
    313000   288.29873      0.0090902144   3.0984742      715.2771      -77.23969       638.03741    
    314000   291.12446      0.0090902144   6.0075205      722.2878      -75.858173      646.42963    
    315000   311.73481      0.0090902144   6.305315       773.42266     -76.242943      697.17972    
    316000   294.64271      0.0090902144   3.5155681      731.01669     -74.827212      656.18948    
    317000   287.59126      0.0090902144   3.3464145      713.52185     -81.526591      631.99526    
    318000   295.08401      0.0090902144   6.4269951      732.11157     -80.622509      651.48907    
    319000   311.39736      0.0090902144   4.900815       772.58544     -83.147476      689.43796    
    320000   286.04404      0.0090902144   3.0971267      709.68315     -83.802482      625.88067    
    321000   298.81314      0.0090902144   5.4088595      741.36363     -85.591684      655.77195    
    322000   314.32304      0.0090902144   4.7403606      779.84413     -91.66999       688.17414    
    323000   284.17295      0.0090902144   5.1694812      705.04093     -89.066341      615.97459    
    324000   296.96046      0.0090902144   4.641178       736.76708     -86.889239      649.87784    
    325000   313.04088      0.0090902144   3.7956702      776.66305     -82.415899      694.24715    
    326000   307.10476      0.0090902144   7.5645343      761.93538     -80.561686      681.3737     
    327000   299.47082      0.0090902144   6.5861714      742.99537     -76.23264       666.76273    
    328000   297.53622      0.0090902144   3.5839378      738.19555     -82.595163      655.60039    
    329000   303.24474      0.0090902144   3.2723407      752.35857     -80.145107      672.21346    
    330000   299.34288      0.0090902144   4.9045194      742.67795     -73.098876      669.57907    
    331000   293.70828      0.0090902144   5.7032798      728.69833     -74.399997      654.29834    
    332000   284.18043      0.0090902144   3.1390924      705.05949     -77.285573      627.77391    
    333000   288.98435      0.0090902144   8.0384456      716.97814     -75.970257      641.00788    
    334000   294.20203      0.0090902144   3.6922995      729.92333     -75.806316      654.11702    
    335000   304.45057      0.0090902144   3.4082164      755.35025     -78.758031      676.59222    
    336000   307.50981      0.0090902144   5.4810708      762.94033     -79.464495      683.47583    
    337000   301.09537      0.0090902144   4.5110394      747.02591     -79.55835       667.46756    
    338000   290.80789      0.0090902144   4.8571353      721.50239     -78.186346      643.31604    
    339000   311.68144      0.0090902144   4.8865337      773.29024     -75.937269      697.35298    
    340000   299.60878      0.0090902144   4.3226516      743.33763     -78.989567      664.34807    
    341000   287.67607      0.0090902144   3.7602591      713.73226     -75.000679      638.73158    
    342000   290.2777       0.0090902144   3.8898081      720.18697     -76.627554      643.55942    
    343000   308.24231      0.0090902144   6.5788224      764.75766     -77.579211      687.17845    
    344000   298.44048      0.0090902144   4.4760035      740.43907     -76.520406      663.91866    
    345000   295.80786      0.0090902144   1.1864698      733.90746     -76.286815      657.62064    
    346000   300.02453      0.0090902144   3.4915888      744.36914     -76.023403      668.34574    
    347000   301.09782      0.0090902144   5.4970697      747.03198     -73.246441      673.78554    
    348000   306.51403      0.0090902144   20.571281      760.46975     -76.773931      683.69582    
    349000   308.99883      0.0090902144   6.7849887      766.63462     -77.45416       689.18046    
    350000   301.06628      0.0090902144   2.0078545      746.95373     -72.614455      674.33927    
    351000   300.28492      0.0090902144   8.9380525      745.01516     -76.77574       668.23942    
    352000   300.04186      0.0090902144   8.4264216      744.41213     -75.41954       668.99259    
    353000   300.05861      0.0090902144   1.0053922      744.45368     -71.795961      672.65772    
    354000   305.89028      0.0090902144   9.2157823      758.92223     -74.777959      684.14427    
    355000   300.5802       0.0090902144   11.783592      745.74775     -71.572824      674.17493    
    356000   300.54634      0.0090902144  -1.3177446      745.66376     -71.888093      673.77567    
    357000   287.85268      0.0090902144   5.1645758      714.17042     -70.93972       643.2307     
    358000   303.18183      0.0090902144   6.7646795      752.20248     -71.594848      680.60763    
    359000   325.64823      0.0090902144   5.458761       807.94224     -69.110357      738.83188    
    360000   297.03298      0.0090902144   6.3528799      736.94702     -73.679646      663.26737    
    361000   293.77871      0.0090902144   5.2577156      728.87308     -72.979645      655.89344    
    362000   301.4437       0.0090902144   2.8539163      747.89014     -69.897847      677.99229    
    363000   305.57054      0.0090902144   3.0021286      758.12894     -70.967484      687.16145    
    364000   302.04358      0.0090902144   1.9229712      749.37845     -70.043567      679.33489    
    365000   299.44583      0.0090902144   7.4727239      742.93337     -73.237138      669.69623    
    366000   291.19919      0.0090902144   6.6420531      722.47321     -70.107906      652.36531    
    367000   285.56625      0.0090902144   6.69286        708.49773     -71.560707      636.93703    
    368000   303.75789      0.0090902144   1.013205       753.63169     -72.64054       680.99115    
    369000   312.72274      0.0090902144   5.551732       775.87375     -70.537774      705.33597    
    370000   292.12525      0.0090902144   5.6788716      724.7708      -68.169596      656.6012     
    371000   297.70383      0.0090902144   4.1397497      738.6114      -65.928971      672.68243    
    372000   299.89279      0.0090902144   4.9395869      744.04227     -68.291532      675.75074    
    373000   290.90921      0.0090902144   10.580952      721.75378     -68.910066      652.84371    
    374000   295.37442      0.0090902144   3.8025791      732.83209     -67.994242      664.83785    
    375000   304.84101      0.0090902144   4.601712       756.31896     -67.477477      688.84148    
    376000   292.76818      0.0090902144   7.4135881      726.36593     -68.403291      657.96264    
    377000   300.0342       0.0090902144   5.9228083      744.39313     -70.454354      673.93878    
    378000   298.27622      0.0090902144  -2.6198876      740.03151     -71.747146      668.28437    
    379000   309.34549      0.0090902144   3.903437       767.49469     -65.589819      701.90487    
    380000   310.10748      0.0090902144   8.9369598      769.3852      -70.476154      698.90904    
    381000   302.40541      0.0090902144   6.5695388      750.27617     -70.353304      679.92286    
    382000   285.36924      0.0090902144   4.3992374      708.00895     -68.351568      639.65739    
    383000   301.32363      0.0090902144  -1.5324359      747.59224     -68.36407       679.22817    
    384000   302.4182       0.0090902144   10.215542      750.30788     -65.840095      684.46779    
    385000   296.73118      0.0090902144   6.7938027      736.19823     -67.592642      668.60559    
    386000   291.01696      0.0090902144   2.2909212      722.02109     -69.07152       652.94957    
    387000   308.33796      0.0090902144   4.5636949      764.99498     -66.308443      698.68654    
    388000   306.02572      0.0090902144   9.1861549      759.25824     -67.117103      692.14114    
    389000   292.3906       0.0090902144   9.4754488      725.42913     -65.434038      659.99509    
    390000   296.87644      0.0090902144   2.9154557      736.55862     -67.451234      669.10738    
    391000   316.41849      0.0090902144   9.9832419      785.04299     -72.369488      712.6735     
    392000   306.92454      0.0090902144   16.994793      761.48824     -63.18097       698.30727    
    393000   282.35079      0.0090902144   5.357129       700.52009     -69.300151      631.21994    
    394000   301.21938      0.0090902144  -5.2045473      747.33357     -66.130664      681.20291    
    395000   303.86384      0.0090902144   5.9495699      753.89457     -65.6964        688.19817    
    396000   289.97573      0.0090902144   3.1904514      719.43779     -66.39547       653.04232    
    397000   267.83176      0.0090902144   0.30115679     664.49798     -63.336501      601.16148    
    398000   298.49373      0.0090902144  -2.6685718      740.57117     -64.964801      675.60637    
    399000   313.22044      0.0090902144   2.3452954      777.10854     -65.708181      711.40036    
    400000   306.46136      0.0090902144   9.3249503      760.33909     -64.961428      695.37766    
    401000   288.82882      0.0090902144   5.4952953      716.59226     -68.450661      648.14159    
    402000   288.8177       0.0090902144   2.8804327      716.56468     -71.614641      644.95004    
    403000   314.18239      0.0090902144   3.5336232      779.49516     -71.933302      707.56186    
    404000   301.94035      0.0090902144   5.9689966      749.12234     -67.702203      681.42013    
    405000   293.24708      0.0090902144   5.6294218      727.55408     -70.61911       656.93497    
    406000   294.17271      0.0090902144   5.2133146      729.85061     -67.578958      662.27165    
    407000   318.30312      0.0090902144   2.9470255      789.71882     -65.44001       724.27881    
    408000   312.1809       0.0090902144   7.923628       774.52941     -63.214845      711.31457    
    409000   299.81549      0.0090902144   11.143163      743.85049     -64.84342       679.00707    
    410000   286.24254      0.0090902144   3.5977325      710.17563     -66.897298      643.27833    
    411000   305.78593      0.0090902144   2.174125       758.66333     -65.226524      693.4368     
    412000   308.25901      0.0090902144   3.3505156      764.79911     -68.015334      696.78378    
    413000   297.59875      0.0090902144   5.1923475      738.3507      -62.371266      675.97944    
    414000   308.20603      0.0090902144   4.9933745      764.66765     -60.526205      704.14145    
    415000   298.20464      0.0090902144   4.2541357      739.85393     -64.916013      674.93791    
    416000   299.87849      0.0090902144   5.2637168      744.0068      -61.260397      682.7464     
    417000   310.54855      0.0090902144   4.8124545      770.47951     -71.807917      698.67159    
    418000   304.63198      0.0090902144   5.0502137      755.80035     -65.747615      690.05273    
    419000   298.62572      0.0090902144   4.6308394      740.89863     -69.535028      671.3636     
    420000   297.30786      0.0090902144   2.7315221      737.629       -67.953534      669.67547    
    421000   305.63993      0.0090902144   4.5269112      758.30109     -69.168077      689.13302    
    422000   308.92964      0.0090902144   6.6805296      766.46294     -65.792414      700.67053    
    423000   293.33175      0.0090902144   3.8084324      727.76415     -64.735062      663.02908    
    424000   307.89238      0.0090902144   3.1981667      763.88949     -64.022412      699.86707    
    425000   304.04561      0.0090902144   5.5788321      754.34554     -67.921715      686.42383    
    426000   281.06876      0.0090902144   2.6009822      697.33934     -65.132536      632.2068     
    427000   299.70542      0.0090902144   4.189143       743.57742     -67.267317      676.3101     
    428000   307.01944      0.0090902144   4.6471259      761.7237      -72.430903      689.29279    
    429000   298.92949      0.0090902144   2.7950331      741.6523      -69.624374      672.02793    
    430000   299.3456       0.0090902144   4.0304473      742.68468     -72.042221      670.64246    
    431000   300.63938      0.0090902144   9.8059501      745.8946      -69.74056       676.15404    
    432000   310.06959      0.0090902144   4.7794043      769.29121     -69.939261      699.35195    
    433000   301.53524      0.0090902144   3.2748108      748.11723     -63.78173       684.3355     
    434000   291.28496      0.0090902144   4.7929084      722.68601     -67.204107      655.4819     
    435000   307.77677      0.0090902144   3.8323666      763.60265     -68.659341      694.94331    
    436000   304.46248      0.0090902144   6.2693119      755.37981     -68.200291      687.17952    
    437000   303.56625      0.0090902144   4.8095733      753.15623     -65.022456      688.13378    
    438000   300.80696      0.0090902144   5.0868227      746.31036     -61.201552      685.10881    
    439000   307.11946      0.0090902144   4.4091022      761.97184     -62.263378      699.70846    
    440000   305.06832      0.0090902144   4.8633128      756.88291     -60.679252      696.20366    
    441000   291.95684      0.0090902144   4.4745801      724.35297     -61.241932      663.11104    
    442000   288.99358      0.0090902144   4.3117266      717.00104     -64.183426      652.81761    
    443000   305.47823      0.0090902144   5.232662       757.89991     -67.725199      690.17471    
    444000   304.35237      0.0090902144   5.1030499      755.10663     -70.863863      684.24276    
    445000   299.20739      0.0090902144   4.8002749      742.34179     -67.399745      674.94204    
    446000   307.89679      0.0090902144   3.9828037      763.90042     -69.437533      694.46289    
    447000   303.6746       0.0090902144   5.2268955      753.42505     -67.043075      686.38198    
    448000   287.96944      0.0090902144   4.8289161      714.46011     -64.178507      650.2816     
    449000   298.46617      0.0090902144   4.2572676      740.50279     -66.014556      674.48824    
    450000   306.62071      0.0090902144   4.6696988      760.73445     -67.243667      693.49078    
    451000   301.09515      0.0090902144   7.1231335      747.02537     -67.54816       679.47721    
    452000   288.69822      0.0090902144   4.6942854      716.26825     -68.060398      648.20785    
    453000   312.13894      0.0090902144   3.4639281      774.42532     -64.857343      709.56797    
    454000   316.09299      0.0090902144   4.8010167      784.23543     -69.167421      715.06801    
    455000   295.41006      0.0090902144   5.6498205      732.92051     -67.132885      665.78762    
    456000   285.39996      0.0090902144   4.4303559      708.08517     -65.929175      642.15599    
    457000   298.87394      0.0090902144   4.7676625      741.51448     -67.837737      673.67674    
    458000   302.43331      0.0090902144   3.8960176      750.34539     -65.342503      685.00289    
    459000   295.93255      0.0090902144   2.6570676      734.21682     -64.137399      670.07943    
    460000   295.04049      0.0090902144   5.2909596      732.00358     -59.980256      672.02332    
    461000   298.61888      0.0090902144   6.3727233      740.88167     -63.986281      676.89538    
    462000   305.77778      0.0090902144   4.6966634      758.64311     -62.646974      695.99613    
    463000   304.14416      0.0090902144   3.8683912      754.59004     -58.742279      695.84776    
    464000   292.36255      0.0090902144   4.8723923      725.35955     -58.66457       666.69498    
    465000   294.58651      0.0090902144   4.4934497      730.87724     -60.663345      670.2139     
    466000   305.27815      0.0090902144   5.0794831      757.40351     -63.195987      694.20752    
    467000   310.06991      0.0090902144   5.1506504      769.29199     -59.015904      710.27609    
    468000   284.06748      0.0090902144   4.4024822      704.77926     -60.220767      644.55849    
    469000   292.11891      0.0090902144   4.3595441      724.75506     -57.639886      667.11518    
    470000   303.90886      0.0090902144   1.9494433      754.00627     -59.845824      694.16045    
    471000   310.49238      0.0090902144   8.1850561      770.34016     -65.525699      704.81446    
    472000   288.54701      0.0090902144   5.9498955      715.8931      -64.844521      651.04858    
    473000   285.91633      0.0090902144   2.1439526      709.3663      -61.319047      648.04725    
    474000   310.05971      0.0090902144   3.766951       769.26669     -57.662564      711.60413    
    475000   309.71119      0.0090902144   6.1675886      768.402       -59.320946      709.08105    
    476000   295.75394      0.0090902144   5.4917097      733.77367     -56.986398      676.78728    
    477000   296.9229       0.0090902144   4.6050465      736.6739      -58.40516       678.26874    
    478000   296.87138      0.0090902144   4.9459813      736.54609     -51.413421      685.13266    
    479000   303.48663      0.0090902144   4.8053319      752.95869     -55.506219      697.45247    
    480000   300.46302      0.0090902144   5.1193047      745.45704     -57.458127      687.99891    
    481000   284.39157      0.0090902144   4.8164628      705.58333     -55.617984      649.96534    
    482000   303.42673      0.0090902144   4.6240226      752.81009     -56.498598      696.31149    
    483000   308.98452      0.0090902144   3.0148993      766.59912     -59.077498      707.52162    
    484000   306.67306      0.0090902144   4.2070957      760.86431     -56.709025      704.15528    
    485000   301.55022      0.0090902144   5.4373197      748.15441     -57.209806      690.9446     
    486000   293.09408      0.0090902144   4.6626334      727.17449     -54.786072      672.38841    
    487000   303.25515      0.0090902144   2.468154       752.38439     -53.539902      698.84448    
    488000   307.3572       0.0090902144   4.6808224      762.56167     -53.411529      709.15015    
    489000   317.04743      0.0090902144   5.5955086      786.60341     -50.210454      736.39296    
    490000   295.76124      0.0090902144   5.3747204      733.79179     -49.345299      684.44649    
    491000   296.56319      0.0090902144   4.6459019      735.78144     -57.785784      677.99566    
    492000   318.0672       0.0090902144   4.5377855      789.13349     -59.209652      729.92384    
    493000   299.20627      0.0090902144   4.7055045      742.33901     -61.660244      680.67877    
    494000   293.49424      0.0090902144   4.2671221      728.1673      -54.865769      673.30153    
    495000   310.53298      0.0090902144   4.5666923      770.44088     -54.635662      715.80522    
    496000   295.95448      0.0090902144   3.0790269      734.27123     -61.029324      673.2419     
    497000   302.34677      0.0090902144   3.3136735      750.13067     -60.023147      690.10752    
    498000   291.53708      0.0090902144   4.9703563      723.31152     -55.299611      668.01191    
    499000   307.88517      0.0090902144   4.4625823      763.87159     -55.82018       708.05141    
    500000   302.5409       0.0090902144   4.1616127      750.61231     -54.49297       696.11934    
    501000   296.31508      0.0090902144   6.7229503      735.16588     -52.933722      682.23215    
    502000   302.25837      0.0090902144   7.9470693      749.91135     -49.963267      699.94808    
    503000   307.37711      0.0090902144   3.137712       762.61108     -50.784228      711.82686    
    504000   288.16299      0.0090902144   4.9146088      714.94033     -52.743541      662.19679    
    505000   294.82918      0.0090902144   6.9748287      731.47932     -49.583489      681.89583    
    506000   308.38696      0.0090902144   2.4045329      765.11655     -52.324595      712.79196    
    507000   291.7948       0.0090902144   4.0186729      723.95095     -49.911104      674.03985    
    508000   301.17708      0.0090902144   7.0384202      747.22865     -49.766517      697.46213    
    509000   293.87031      0.0090902144   10.489351      729.10034     -48.717124      680.38322    
    510000   300.97962      0.0090902144   4.4745165      746.73874     -49.997051      696.74168    
    511000   313.0901       0.0090902144   2.3674601      776.78518     -51.968583      724.8166     
    512000   285.78133      0.0090902144   3.2487603      709.03136     -50.075076      658.95629    
    513000   289.36867      0.0090902144   5.6147829      717.93165     -49.757919      668.17374    
    514000   302.33051      0.0090902144   6.6618558      750.09033     -53.037976      697.05235    
    515000   326.4291       0.0090902144   3.2475055      809.87958     -50.224204      759.65538    
    516000   310.1024       0.0090902144  -0.35823268     769.37259     -52.371663      717.00093    
    517000   292.3099       0.0090902144   4.5659387      725.22893     -51.760953      673.46798    
    518000   300.41006      0.0090902144   9.3563135      745.32563     -48.489903      696.83573    
    519000   307.06766      0.0090902144   4.248967       761.84332     -49.278803      712.56452    
    520000   284.39239      0.0090902144   5.0216781      705.58536     -44.735223      660.85014    
    521000   293.05777      0.0090902144   6.9250378      727.08441     -46.516528      680.56788    
    522000   310.85556      0.0090902144   6.0190727      771.24121     -45.287936      725.95327    
    523000   312.46292      0.0090902144   3.820068       775.22912     -42.15834       733.07078    
    524000   289.70387      0.0090902144   5.2248941      718.76329     -47.693906      671.06938    
    525000   292.59753      0.0090902144   5.5332741      725.94255     -47.440288      678.50226    
    526000   292.95719      0.0090902144   6.9138957      726.83485     -44.995986      681.83887    
    527000   317.2272       0.0090902144   5.8496166      787.04943     -38.359955      748.68948    
    528000   309.82774      0.0090902144   0.66695472     768.69116     -42.219049      726.47211    
    529000   295.37419      0.0090902144   2.3670265      732.8315      -40.33955       692.49195    
    530000   299.94573      0.0090902144   4.7876407      744.17363     -41.793521      702.38011    
    531000   305.45794      0.0090902144   5.3257501      757.84958     -43.143574      714.706      
    532000   298.6798       0.0090902144   4.7545682      741.03282     -44.47011       696.56271    
    533000   291.33296      0.0090902144   3.0800117      722.8051      -46.757521      676.04758    
    534000   307.05262      0.0090902144   5.6174939      761.80602     -46.328263      715.47776    
    535000   290.54635      0.0090902144   5.6856462      720.85351     -43.265837      677.58767    
    536000   301.36782      0.0090902144   4.9064851      747.70186     -44.355397      703.34647    
    537000   304.49438      0.0090902144   3.7985503      755.45896     -44.988271      710.47069    
    538000   303.78637      0.0090902144   3.3991284      753.70236     -46.207437      707.49492    
    539000   303.46384      0.0090902144   6.1177492      752.90214     -45.167599      707.73454    
    540000   300.05197      0.0090902144   5.286542       744.43721     -38.396783      706.04042    
    541000   310.4059       0.0090902144   3.2727897      770.12559     -40.482599      729.64299    
    542000   295.25137      0.0090902144   2.4524236      732.52679     -39.017023      693.50977    
    543000   300.24849      0.0090902144   5.3643184      744.92478     -40.005735      704.91904    
    544000   308.88431      0.0090902144   5.4010469      766.35048     -43.280889      723.06959    
    545000   301.78208      0.0090902144   5.0202392      748.72967     -43.930738      704.79893    
    546000   305.25627      0.0090902144   3.817462       757.34923     -43.797888      713.55134    
    547000   296.85731      0.0090902144  -0.43122318     736.51117     -41.724972      694.78619    
    548000   291.55468      0.0090902144   4.9707646      723.35519     -40.682255      682.67294    
    549000   296.70272      0.0090902144   7.7984308      736.12762     -37.488045      698.63958    
    550000   309.31952      0.0090902144   6.8403587      767.43026     -36.867411      730.56285    
    551000   294.77851      0.0090902144   1.5193429      731.3536      -36.17642       695.17718    
    552000   290.10136      0.0090902144   4.8948129      719.74946     -32.023979      687.72548    
    553000   308.72185      0.0090902144   8.2960264      765.94742     -33.522344      732.42508    
    554000   313.14266      0.0090902144   4.5402519      776.91558     -36.793186      740.1224     
    555000   293.66393      0.0090902144   4.6824778      728.58832     -33.005329      695.58299    
    556000   292.78763      0.0090902144   4.7335593      726.41419     -36.302351      690.11184    
    557000   300.5604       0.0090902144   6.2208435      745.69863     -35.013123      710.68551    
    558000   317.56907      0.0090902144   8.7328042      787.89761     -34.740029      753.15759    
    559000   300.95165      0.0090902144   3.8667735      746.66934     -37.286099      709.38324    
    560000   274.30768      0.0090902144   4.7136439      680.56492     -41.790858      638.77406    
    561000   300.75908      0.0090902144   6.303708       746.19157     -39.27821       706.91336    
    562000   314.39435      0.0090902144   5.0416207      780.02105     -41.014289      739.00676    
    563000   302.97376      0.0090902144   2.3457748      751.68624     -37.142065      714.54418    
    564000   292.32615      0.0090902144   4.6160093      725.26923     -36.828665      688.44057    
    565000   296.62282      0.0090902144   4.7607596      735.9294      -41.612844      694.31656    
    566000   310.10931      0.0090902144   4.9670729      769.38975     -38.822886      730.56686    
    567000   302.01244      0.0090902144   4.5770144      749.30118     -36.585167      712.71601    
    568000   290.25479      0.0090902144   4.402862       720.13014     -36.359722      683.77041    
    569000   297.21682      0.0090902144   4.6179969      737.40313     -36.887717      700.51541    
    570000   306.77584      0.0090902144   5.3765221      761.11932     -37.294577      723.82475    
    571000   297.3519       0.0090902144   3.3605412      737.73827     -42.240874      695.4974     
    572000   290.52981      0.0090902144   5.1891171      720.81247     -41.024623      679.78784    
    573000   287.59227      0.0090902144   5.3074528      713.52434     -39.947296      673.57705    
    574000   306.78042      0.0090902144   9.079242       761.13067     -40.120322      721.01035    
    575000   297.49805      0.0090902144   3.3182928      738.10087     -41.882448      696.21842    
    576000   282.42747      0.0090902144   5.326779       700.71035     -44.904022      655.80633    
    577000   301.44901      0.0090902144   5.1173832      747.9033      -42.019005      705.8843     
    578000   311.63152      0.0090902144   3.6026299      773.16639     -38.328501      734.83789    
    579000   304.22085      0.0090902144   4.3714957      754.78032     -37.515893      717.26443    
    580000   291.44522      0.0090902144   7.4413593      723.08362     -38.840817      684.2428     
    581000   302.44834      0.0090902144   6.6225347      750.38266     -39.380478      711.00219    
    582000   314.33525      0.0090902144   1.4767172      779.87441     -38.696217      741.17819    
    583000   282.11799      0.0090902144   0.96182152     699.94252     -36.480879      663.46164    
    584000   293.01824      0.0090902144   5.7500104      726.98634     -35.174602      691.81174    
    585000   303.87401      0.0090902144   4.9122072      753.91978     -36.18054       717.73924    
    586000   307.5246       0.0090902144   4.5314891      762.977       -38.121365      724.85563    
    587000   294.68531      0.0090902144   4.5197007      731.12239     -34.614035      696.50835    
    588000   284.84067      0.0090902144   2.0888221      706.69755     -36.361388      670.33616    
    589000   298.79636      0.0090902144   4.4928866      741.32201     -36.084545      705.23746    
    590000   304.19309      0.0090902144   5.0602965      754.71143     -34.283935      720.4275     
    591000   306.43489      0.0090902144   6.8866151      760.2734      -35.863261      724.41014    
    592000   289.17194      0.0090902144   5.2159052      717.44357     -35.216532      682.22703    
    593000   299.06153      0.0090902144   3.7323454      741.9799      -37.214777      704.76512    
    594000   306.33299      0.0090902144   4.0389121      760.0206      -36.857907      723.16269    
    595000   308.59473      0.0090902144   7.347975       765.63202     -33.844734      731.78729    
    596000   291.59214      0.0090902144   5.0344339      723.44813     -36.017666      687.43047    
    597000   285.52651      0.0090902144   4.3095978      708.39914     -37.085733      671.31341    
    598000   309.75561      0.0090902144   4.1480178      768.5122      -39.000702      729.5115     
    599000   310.32572      0.0090902144   6.8399501      769.92666     -35.936413      733.99025    
    600000   294.83631      0.0090902144   5.058746       731.49702     -37.897447      693.59957    
    601000   304.52001      0.0090902144   4.4809652      755.52253     -39.323732      716.1988     
    602000   303.86814      0.0090902144   5.3671847      753.90523     -42.478397      711.42684    
    603000   291.53881      0.0090902144   4.9978678      723.31583     -41.570374      681.74546    
    604000   287.79778      0.0090902144   4.1730575      714.03422     -38.206443      675.82778    
    605000   300.00161      0.0090902144   5.8310226      744.31227     -38.836243      705.47602    
    606000   306.95943      0.0090902144   5.7927455      761.5748      -36.431788      725.14301    
    607000   296.81872      0.0090902144   0.16652688     736.41543     -36.476116      699.93931    
    608000   293.87944      0.0090902144   5.4337523      729.123       -38.408482      690.71452    
    609000   305.74492      0.0090902144   5.2903434      758.56157     -37.078506      721.48306    
    610000   292.54966      0.0090902144  -0.46323956     725.82378     -39.298158      686.52562    
    611000   296.31109      0.0090902144   6.8251193      735.15599     -37.670471      697.48552    
    612000   296.45698      0.0090902144   10.208385      735.51794     -38.139931      697.378      
    613000   298.90024      0.0090902144   4.6117401      741.57974     -35.598797      705.98094    
    614000   306.26152      0.0090902144   2.342612       759.84327     -34.063761      725.77951    
    615000   284.80463      0.0090902144   4.544418       706.60815     -36.805141      669.80301    
    616000   288.40482      0.0090902144   7.6520115      715.54031     -34.613734      680.92658    
    617000   304.91945      0.0090902144   4.8855922      756.51355     -39.466031      717.04752    
    618000   309.15959      0.0090902144   2.7061635      767.03347     -33.628645      733.40483    
    619000   285.08533      0.0090902144   4.7043072      707.30456     -35.680205      671.62436    
    620000   309.39598      0.0090902144   6.164186       767.61995     -36.713424      730.90653    
    621000   305.92826      0.0090902144   3.3144428      759.01644     -33.659427      725.35701    
    622000   305.83504      0.0090902144   2.2859524      758.78516     -37.803711      720.98144    
    623000   293.91173      0.0090902144   5.4361664      729.20311     -34.619944      694.58317    
    624000   297.81267      0.0090902144   8.9823225      738.88144     -34.820325      704.06111    
    625000   301.04225      0.0090902144   5.3027965      746.89412     -35.047156      711.84697    
    626000   305.79567      0.0090902144   3.6357785      758.68749     -32.128976      726.55852    
    627000   299.07395      0.0090902144   2.0275905      742.01071     -30.399721      711.61099    
    628000   287.62502      0.0090902144   5.5142718      713.60559     -32.230461      681.37513    
    629000   311.60622      0.0090902144   8.0716763      773.10362     -34.727755      738.37587    
    630000   308.47604      0.0090902144   2.196829       765.33755     -34.181644      731.1559     
    631000   289.7576       0.0090902144   4.5774557      718.89658     -36.012105      682.88448    
    632000   306.45609      0.0090902144   6.2282002      760.326       -38.616468      721.70953    
    633000   313.22523      0.0090902144   3.6272768      777.12043     -38.932094      738.18833    
    634000   295.01488      0.0090902144   3.9289549      731.94004     -38.99523       692.94481    
    635000   299.0136       0.0090902144   5.8106311      741.86098     -34.875763      706.98522    
    636000   310.79286      0.0090902144   4.9231409      771.08566     -33.135164      737.9505     
    637000   301.99135      0.0090902144   5.3619724      749.24888     -32.594268      716.65461    
    638000   283.25714      0.0090902144   5.0444374      702.76876     -34.486139      668.28262    
    639000   296.32278      0.0090902144   4.620351       735.18498     -29.216822      705.96816    
    640000   308.07046      0.0090902144   3.7591758      764.33131     -32.103294      732.22802    
    641000   308.64354      0.0090902144   5.511801       765.75312     -34.277325      731.47579    
    642000   293.73153      0.0090902144   5.0219057      728.75603     -33.772598      694.98343    
    643000   287.6696       0.0090902144   1.4369237      713.71622     -35.41247       678.30375    
    644000   304.42475      0.0090902144   4.7338125      755.2862      -34.720173      720.56602    
    645000   313.21235      0.0090902144   11.658246      777.08848     -31.543644      745.54484    
    646000   299.27707      0.0090902144   10.435528      742.51466     -31.775977      710.73868    
    647000   291.62232      0.0090902144  -2.8002059      723.523       -32.45612       691.06688    
    648000   305.43983      0.0090902144   6.0538522      757.80463     -29.654671      728.14996    
    649000   307.12886      0.0090902144   6.5015508      761.99517     -28.235972      733.75919    
    650000   292.45483      0.0090902144   1.3808836      725.5885      -30.092629      695.49587    
    651000   298.95771      0.0090902144   3.6351914      741.72232     -29.646078      712.07624    
    652000   311.73767      0.0090902144   4.9986242      773.42976     -30.603616      742.82614    
    653000   317.82766      0.0090902144   6.037502       788.53917     -28.994009      759.54516    
    654000   287.17333      0.0090902144   5.2246084      712.48495     -31.122822      681.36213    
    655000   286.86902      0.0090902144   2.1800651      711.72995     -29.161335      682.56861    
    656000   302.71211      0.0090902144   5.3055917      751.0371      -28.048545      722.98855    
    657000   307.99585      0.0090902144   5.29123        764.14621     -30.152518      733.99369    
    658000   297.81108      0.0090902144   4.1743495      738.87751     -30.66389       708.21362    
    659000   294.80296      0.0090902144   2.8912794      731.41427     -32.958859      698.45541    
    660000   309.83576      0.0090902144   5.4292526      768.71106     -27.83561       740.87545    
    661000   299.24508      0.0090902144   5.2739557      742.43528     -27.027934      715.40735    
    662000   301.15145      0.0090902144   5.2557356      747.16504     -30.218944      716.9461     
    663000   297.95646      0.0090902144   4.588902       739.2382      -29.480418      709.75778    
    664000   307.46161      0.0090902144   5.440847       762.82072     -27.922429      734.89829    
    665000   297.39198      0.0090902144   4.7704426      737.83769     -28.684449      709.15324    
    666000   295.05184      0.0090902144   5.5465878      732.03176     -29.089413      702.94235    
    667000   303.68397      0.0090902144   5.827683       753.4483      -33.365253      720.08305    
    668000   301.38232      0.0090902144   4.5557023      747.73784     -31.28599       716.45185    
    669000   285.08349      0.0090902144   4.9115663      707.3         -29.157138      678.14286    
    670000   294.06221      0.0090902144   5.0221379      729.57644     -31.864443      697.712      
    671000   313.80956      0.0090902144   5.804476       778.57017     -34.112266      744.45791    
    672000   299.72417      0.0090902144   4.348114       743.62393     -29.190042      714.43388    
    673000   304.22366      0.0090902144   7.3266887      754.7873      -36.65708       718.13021    
    674000   300.03889      0.0090902144   7.3328983      744.40476     -37.289954      707.11481    
    675000   310.40079      0.0090902144   4.7606757      770.11292     -35.465343      734.64757    
    676000   298.65976      0.0090902144   4.0863215      740.9831      -31.679575      709.30353    
    677000   301.22243      0.0090902144   4.8230248      747.34116     -34.210018      713.13114    
    678000   299.14903      0.0090902144   4.615732       742.19698     -33.051732      709.14525    
    679000   311.98784      0.0090902144   5.517462       774.05043     -30.746267      743.30416    
    680000   297.15603      0.0090902144   5.2794464      737.25231     -30.628374      706.62393    
    681000   290.79926      0.0090902144   3.1900465      721.48098     -27.795158      693.68582    
    682000   298.22166      0.0090902144   3.8851794      739.89616     -27.190398      712.70576    
    683000   306.82925      0.0090902144   7.7538593      761.25184     -24.55388       736.69796    
    684000   296.89289      0.0090902144   5.1636334      736.59944     -25.519195      711.08024    
    685000   301.94208      0.0090902144   3.4739147      749.12663     -29.024825      720.1018     
    686000   300.68657      0.0090902144   5.1730139      746.01167     -25.630917      720.38075    
    687000   304.96514      0.0090902144   6.2573067      756.62693     -29.507752      727.11917    
    688000   300.35505      0.0090902144   4.3301173      745.18916     -31.428205      713.76095    
    689000   305.30797      0.0090902144   5.1554966      757.47749     -22.745914      734.73157    
    690000   313.64277      0.0090902144   5.7076701      778.15637     -27.627384      750.52898    
    691000   286.44311      0.0090902144   4.5606212      710.67325     -22.803559      687.8697     
    692000   291.81277      0.0090902144   5.0445415      723.99554     -28.347689      695.64785    
    693000   309.67668      0.0090902144   5.9896307      768.31638     -26.243292      742.07309    
    694000   315.89879      0.0090902144   4.988789       783.75361     -26.239717      757.51389    
    695000   296.98811      0.0090902144   4.2245418      736.83568     -29.334737      707.50094    
    696000   287.09189      0.0090902144   3.7740556      712.2829      -28.099559      684.18334    
    697000   301.18558      0.0090902144   5.1358595      747.24973     -23.380145      723.86958    
    698000   321.5323       0.0090902144   5.3077535      797.7305      -20.367104      777.36339    
    699000   311.23119      0.0090902144   5.2291972      772.17316     -19.028114      753.14504    
    700000   282.74871      0.0090902144   4.9710635      701.50733     -21.613592      679.89374    
    701000   290.97328      0.0090902144   4.6783932      721.91273     -17.434626      704.4781     
    702000   313.47685      0.0090902144   3.4294635      777.7447      -19.768348      757.97635    
    703000   300.5042       0.0090902144   5.8613787      745.55921     -18.945238      726.61397    
    704000   301.44177      0.0090902144   6.2484692      747.88535     -21.047788      726.83756    
    705000   298.1908       0.0090902144   5.0396119      739.81959     -23.483492      716.3361     
    706000   294.45967      0.0090902144   4.7651518      730.56255     -22.051947      708.5106     
    707000   306.47432      0.0090902144   5.1516826      760.37123     -22.553081      737.81815    
    708000   310.291        0.0090902144   5.3996967      769.84053     -19.420875      750.41966    
    709000   292.38165      0.0090902144   4.2793056      725.40694     -17.689737      707.7172     
    710000   291.64142      0.0090902144   4.5991755      723.57041     -20.093464      703.47694    
    711000   306.44828      0.0090902144   5.0078384      760.30663     -24.859626      735.447      
    712000   302.50229      0.0090902144   5.2589293      750.51652     -21.4499        729.06662    
    713000   300.49934      0.0090902144   6.0169254      745.54715     -26.44174       719.10541    
    714000   285.07482      0.0090902144   3.8692579      707.27848     -25.559536      681.71894    
    715000   303.9108       0.0090902144   2.5340077      754.01108     -26.063514      727.94756    
    716000   309.60915      0.0090902144   5.7205026      768.14884     -21.908914      746.23993    
    717000   295.69057      0.0090902144   5.9517746      733.61647     -20.977096      712.63937    
    718000   285.69084      0.0090902144   1.5559374      708.80685     -20.819562      687.98729    
    719000   299.98424      0.0090902144   3.789667       744.26918     -20.460595      723.80858    
    720000   304.61244      0.0090902144   13.77682       755.75186     -22.361653      733.39021    
    721000   302.27599      0.0090902144   3.1964853      749.95506     -21.950783      728.00427    
    722000   309.6134       0.0090902144   5.3048793      768.15938     -22.882162      745.27722    
    723000   303.38964      0.0090902144   5.7820436      752.71807     -23.823622      728.89444    
    724000   296.85467      0.0090902144   4.6274461      736.50463     -23.783153      712.72147    
    725000   319.67783      0.0090902144   5.5632701      793.1295      -25.70407       767.42543    
    726000   302.89411      0.0090902144   5.2790141      751.48864     -24.292467      727.19618    
    727000   293.55829      0.0090902144   6.5124356      728.32622     -26.54116       701.78506    
    728000   297.01632      0.0090902144   0.85336207     736.90567     -25.318157      711.58751    
    729000   315.98584      0.0090902144   2.0828264      783.96958     -27.603549      756.36603    
    730000   307.08854      0.0090902144   4.9913714      761.89512     -22.578317      739.31681    
    731000   297.93457      0.0090902144   7.7634923      739.18387     -20.750411      718.43346    
    732000   289.34952      0.0090902144  -1.190132       717.88414     -20.653482      697.23066    
    733000   301.68153      0.0090902144   2.7315467      748.48018     -21.951028      726.52915    
    734000   315.34477      0.0090902144   9.9376719      782.37907     -21.756749      760.62232    
    735000   292.72983      0.0090902144   5.8016697      726.27077     -20.153108      706.11767    
    736000   297.58469      0.0090902144   4.3457374      738.31582     -22.367731      715.94809    
    737000   305.62541      0.0090902144   5.2159742      758.26507     -20.318818      737.94625    
    738000   311.83681      0.0090902144   6.7176674      773.67573     -23.812086      749.86365    
    739000   295.23619      0.0090902144   5.9056187      732.48912     -22.433709      710.05541    
    740000   288.90873      0.0090902144   5.5596066      716.79053     -23.214606      693.57592    
    741000   298.36884      0.0090902144   2.0449148      740.26132     -21.300299      718.96103    
    742000   321.32506      0.0090902144   4.3516135      797.21633     -21.65566       775.56067    
    743000   304.04758      0.0090902144   6.619058       754.35043     -21.805358      732.54507    
    744000   293.92621      0.0090902144   6.4980478      729.23903     -21.704829      707.5342     
    745000   300.44017      0.0090902144   5.2535272      745.40035     -21.3412        724.05915    
    746000   303.33866      0.0090902144   4.2222685      752.59157     -22.117455      730.47412    
    747000   299.89078      0.0090902144   4.489168       744.03728     -22.437392      721.59989    
    748000   302.62617      0.0090902144   4.9023159      750.82387     -25.828926      724.99495    
    749000   299.8389       0.0090902144   6.0124452      743.90858     -26.162906      717.74568    
    750000   296.4922       0.0090902144   4.4785478      735.60533     -28.324055      707.28127    
    751000   312.88983      0.0090902144   5.8593163      776.28829     -29.56429       746.724      
    752000   302.71897      0.0090902144   7.2733382      751.0541      -29.600016      721.45409    
    753000   283.90267      0.0090902144   6.2462         704.37036     -26.622828      677.74753    
    754000   305.58848      0.0090902144   2.5188038      758.17345     -26.110859      732.06259    
    755000   304.57655      0.0090902144   2.1616852      755.66282     -26.326619      729.33621    
    756000   292.62166      0.0090902144   16.076622      726.00242     -24.828212      701.1742     
    757000   296.95716      0.0090902144   8.0052872      736.7589      -24.894003      711.8649     
    758000   300.06597      0.0090902144   2.7040564      744.47194     -24.047908      720.42403    
    759000   302.30916      0.0090902144   3.2906919      750.03736     -24.013787      726.02358    
    760000   301.19978      0.0090902144   5.0056951      747.28495     -24.823837      722.46111    
    761000   296.07772      0.0090902144   5.5857611      734.57697     -27.377792      707.19918    
    762000   292.72684      0.0090902144   6.2116162      726.26335     -27.056567      699.20678    
    763000   292.37066      0.0090902144   4.4037761      725.37968     -25.68103       699.69865    
    764000   321.15698      0.0090902144   4.7953551      796.79932     -20.514712      776.28461    
    765000   307.46735      0.0090902144   6.5405776      762.83498     -18.543782      744.2912     
    766000   298.75187      0.0090902144   6.8561544      741.21164     -17.102773      724.10886    
    767000   293.1141       0.0090902144   2.1093588      727.22417     -17.262032      709.96213    
    768000   304.51582      0.0090902144   5.1858552      755.51214     -17.761877      737.75026    
    769000   307.96829      0.0090902144   5.5723237      764.07781     -17.514497      746.56331    
    770000   288.36896      0.0090902144   4.7006014      715.45133     -20.540752      694.91058    
    771000   305.10203      0.0090902144   5.4313964      756.96653     -19.207127      737.75941    
    772000   298.93623      0.0090902144   4.9114219      741.66902     -21.4842        720.18482    
    773000   304.1411       0.0090902144   4.596093       754.58246     -20.729146      733.85332    
    774000   295.10393      0.0090902144   5.0427961      732.16099     -19.715537      712.44546    
    775000   293.71571      0.0090902144   5.327795       728.71676     -19.110446      709.60632    
    776000   307.27056      0.0090902144   4.172905       762.34672     -19.026966      743.31976    
    777000   301.51528      0.0090902144   2.6881968      748.06772     -21.72196       726.34576    
    778000   284.57188      0.0090902144   6.3311745      706.03067     -22.848638      683.18203    
    779000   295.13995      0.0090902144   10.068277      732.25034     -22.628547      709.6218     
    780000   319.53205      0.0090902144   5.6716439      792.76782     -27.635103      765.13272    
    781000   292.3458       0.0090902144   0.31662973     725.31799     -25.383602      699.93439    
    782000   295.7607       0.0090902144   8.572658       733.79046     -26.141518      707.64894    
    783000   309.27115      0.0090902144   8.3030209      767.31024     -24.262172      743.04807    
    784000   311.42579      0.0090902144   0.81833472     772.65596     -20.040503      752.61546    
    785000   298.15973      0.0090902144   1.8262421      739.74251     -18.286185      721.45633    
    786000   289.91838      0.0090902144   16.399719      719.2955      -18.725449      700.57005    
    787000   297.56191      0.0090902144   2.0007634      738.25931     -20.616018      717.64329    
    788000   299.53635      0.0090902144   2.1248056      743.15793     -18.376563      724.78137    
    789000   301.67838      0.0090902144   5.6549436      748.47238     -18.864183      729.6082     
    790000   293.53051      0.0090902144   7.6931877      728.25729     -22.481913      705.77538    
    791000   303.15584      0.0090902144   4.4882176      752.13799     -22.892895      729.2451     
    792000   306.87264      0.0090902144   4.3943916      761.35947     -24.625128      736.73434    
    793000   302.09912      0.0090902144   3.2287282      749.51624     -26.534528      722.98172    
    794000   288.55371      0.0090902144   10.246398      715.90971     -25.470177      690.43953    
    795000   308.66928      0.0090902144   9.828007       765.81699     -23.229251      742.58774    
    796000   311.16861      0.0090902144  -4.8741687      772.0179      -22.085947      749.93195    
    797000   301.53759      0.0090902144   0.93775314     748.12307     -20.284822      727.83825    
    798000   275.27996      0.0090902144   9.0037592      682.97717     -21.833348      661.14382    
    799000   306.02423      0.0090902144   14.531621      759.25455     -18.458598      740.79595    
    800000   305.84433      0.0090902144   2.7347108      758.8082      -18.705825      740.10238    
    801000   295.49238      0.0090902144   0.43022767     733.12474     -21.46004       711.6647     
    802000   295.46525      0.0090902144   2.5356125      733.05743     -17.99261       715.06482    
    803000   304.62523      0.0090902144   9.8294987      755.7836      -20.145896      735.6377     
    804000   291.17937      0.0090902144   15.867857      722.42403     -21.609483      700.81455    
    805000   301.48063      0.0090902144   10.42921       747.98175     -19.849943      728.1318     
    806000   303.43246      0.0090902144  -3.6209056      752.82431     -20.375267      732.44904    
    807000   293.2746       0.0090902144   10.321903      727.62237     -25.34594       702.27643    
    808000   304.77734      0.0090902144   7.4506676      756.16099     -22.219335      733.94165    
    809000   298.24337      0.0090902144   2.8550534      739.95002     -26.805993      713.14403    
    810000   280.63552      0.0090902144   6.5663867      696.26445     -23.269392      672.99506    
    811000   301.54701      0.0090902144   18.001461      748.14644     -20.380977      727.76546    
    812000   310.86894      0.0090902144   1.9312914      771.27441     -20.212963      751.06144    
    813000   291.04461      0.0090902144  -5.3887328      722.08971     -22.062398      700.02731    
    814000   287.7728       0.0090902144   3.0088984      713.97225     -23.797371      690.17487    
    815000   304.95522      0.0090902144   6.8891776      756.6023      -26.828922      729.77338    
    816000   303.57332      0.0090902144   13.186859      753.17379     -25.940778      727.23301    
    817000   297.50751      0.0090902144   6.2375565      738.12433     -25.165864      712.95847    
    818000   288.33818      0.0090902144   2.4227727      715.37496     -23.877842      691.49712    
    819000   313.15098      0.0090902144   9.3311834      776.93621     -23.421273      753.51494    
    820000   305.35694      0.0090902144   3.9486094      757.59899     -20.131434      737.46756    
    821000   293.71378      0.0090902144   4.0152129      728.71199     -23.571316      705.14067    
    822000   296.35338      0.0090902144   10.680179      735.2609      -18.677072      716.58383    
    823000   306.5305       0.0090902144   2.9846111      760.51063     -19.484487      741.02614    
    824000   296.3304       0.0090902144   4.6116041      735.20388     -15.569064      719.63482    
    825000   303.19139      0.0090902144   8.5950036      752.2262      -22.21663       730.00957    
    826000   312.12553      0.0090902144   4.7278675      774.39205     -21.277997      753.11405    
    827000   295.14114      0.0090902144   4.9704604      732.25331     -20.118044      712.13527    
    828000   293.21235      0.0090902144   4.9159979      727.46792     -20.845813      706.62211    
    829000   316.0146       0.0090902144   5.0375595      784.04093     -21.392709      762.64822    
    830000   303.31427      0.0090902144   4.857287       752.53107     -20.047957      732.48311    
    831000   298.51859      0.0090902144   5.4235482      740.63285     -19.951526      720.68132    
    832000   304.46664      0.0090902144   4.7187734      755.39013     -19.791047      735.59909    
    833000   294.48654      0.0090902144   5.1570729      730.62922     -14.927228      715.70199    
    834000   299.58186      0.0090902144   6.2949929      743.27086     -17.058979      726.21188    
    835000   309.74202      0.0090902144   4.4735032      768.4785      -18.430717      750.04778    
    836000   295.44077      0.0090902144   5.1699235      732.9967      -18.786145      714.21055    
    837000   285.03393      0.0090902144   5.3551813      707.17704     -24.314856      682.86219    
    838000   300.99044      0.0090902144   5.1851023      746.76558     -21.697512      725.06807    
    839000   310.70043      0.0090902144   4.8291123      770.85633     -25.006083      745.85025    
    840000   298.15743      0.0090902144   5.155448       739.73681     -21.689823      718.04699    
    841000   294.21283      0.0090902144   4.909786       729.95013     -22.474433      707.4757     
    842000   302.01994      0.0090902144   6.0098462      749.31979     -19.823443      729.49635    
    843000   301.26524      0.0090902144   5.0364511      747.44738     -21.678937      725.76844    
    844000   295.45147      0.0090902144  -0.47150757     733.02323     -22.318989      710.70424    
    845000   304.57103      0.0090902144   10.259062      755.64911     -21.237874      734.41124    
    846000   300.56308      0.0090902144   8.5999402      745.70528     -24.883718      720.82157    
    847000   296.7056       0.0090902144  -3.4574395      736.13477     -22.56134       713.57343    
    848000   296.29718      0.0090902144   4.9216844      735.12148     -23.408073      711.71341    
    849000   301.61243      0.0090902144   6.0246712      748.30875     -21.890077      726.41867    
    850000   305.45764      0.0090902144   8.5422761      757.84882     -15.666167      742.18266    
    851000   311.73039      0.0090902144   6.8296592      773.4117      -18.793813      754.61789    
    852000   288.22098      0.0090902144   0.87295327     715.08421     -19.66001       695.4242     
    853000   297.99986      0.0090902144   11.925502      739.34587     -21.986195      717.35968    
    854000   310.54944      0.0090902144   5.8660755      770.48173     -17.576949      752.90478    
    855000   296.36752      0.0090902144   0.94581875     735.29599     -18.621885      716.6741     
    856000   294.29139      0.0090902144   5.9615822      730.14504     -20.071008      710.07403    
    857000   303.38858      0.0090902144   7.6213992      752.71542     -18.826978      733.88844    
    858000   323.55263      0.0090902144   4.6952725      802.743       -17.854866      784.88814    
    859000   285.51968      0.0090902144   4.7046853      708.38219     -17.340458      691.04173    
    860000   294.78603      0.0090902144   5.6283933      731.37226     -17.74022       713.63204    
    861000   310.75681      0.0090902144   5.1840606      770.99622     -18.253925      752.74229    
    862000   294.40952      0.0090902144   5.6376275      730.43815     -16.288587      714.14956    
    863000   295.99441      0.0090902144   4.623122       734.37029     -17.838393      716.5319     
    864000   310.56146      0.0090902144   3.0633384      770.51153     -20.002883      750.50865    
    865000   303.04606      0.0090902144   5.131104       751.86563     -22.17319       729.69244    
    866000   292.96101      0.0090902144   4.8666792      726.84434     -22.279481      704.56486    
    867000   302.88851      0.0090902144   2.559962       751.47474     -26.181053      725.29368    
    868000   296.62618      0.0090902144   5.6113444      735.93772     -21.445137      714.49259    
    869000   305.13629      0.0090902144   5.7227966      757.05154     -19.907026      737.14451    
    870000   296.3274       0.0090902144   3.9531354      735.19645     -24.326163      710.87029    
    871000   303.15251      0.0090902144   4.9358228      752.12973     -19.631866      732.49787    
    872000   312.25996      0.0090902144   6.5544377      774.72557     -21.299098      753.42647    
    873000   298.59936      0.0090902144   5.9529554      740.83325     -21.118938      719.71431    
    874000   289.59533      0.0090902144   2.2406496      718.494       -22.684811      695.80918    
    875000   304.50075      0.0090902144   5.2042795      755.47475     -21.015827      734.45892    
    876000   309.70059      0.0090902144   9.7556144      768.3757      -21.114106      747.26159    
    877000   292.59564      0.0090902144   10.671544      725.93786     -24.564516      701.37334    
    878000   291.10864      0.0090902144   5.7706153      722.24855     -24.183929      698.06462    
    879000   291.24181      0.0090902144   1.4441596      722.57896     -22.690462      699.88849    
    880000   304.70155      0.0090902144   5.819681       755.97295     -22.044769      733.92818    
    881000   287.37918      0.0090902144   9.6327586      712.99567     -22.37233       690.62334    
    882000   295.25002      0.0090902144   9.9940933      732.52344     -21.603017      710.92042    
    883000   288.57713      0.0090902144   2.5966158      715.96781     -23.145702      692.82211    
    884000   297.64412      0.0090902144   2.2950039      738.46326     -21.207098      717.25616    
    885000   314.02465      0.0090902144   9.6452854      779.1038      -19.680923      759.42288    
    886000   297.05341      0.0090902144   9.4312655      736.9977      -22.533944      714.46375    
    887000   295.90418      0.0090902144   2.1534751      734.14642     -25.5013        708.64512    
    888000   299.914        0.0090902144   5.1494054      744.09489     -20.035443      724.05945    
    889000   287.84319      0.0090902144   8.7070483      714.14689     -24.107815      690.03907    
    890000   297.50859      0.0090902144   4.7907229      738.12702     -28.596662      709.53036    
    891000   303.24642      0.0090902144   2.6399549      752.36273     -27.104631      725.2581     
    892000   297.88913      0.0090902144   2.0385117      739.07114     -29.358726      709.71242    
    893000   303.80812      0.0090902144   13.717612      753.75632     -27.071479      726.68484    
    894000   294.16588      0.0090902144   11.228139      729.83367     -29.093819      700.73985    
    895000   300.28345      0.0090902144  -0.066840269    745.01152     -24.267175      720.74435    
    896000   301.09252      0.0090902144  -0.38572081     747.01883     -24.087629      722.9312     
    897000   314.74489      0.0090902144   3.0971142      780.89074     -22.557572      758.33317    
    898000   292.12315      0.0090902144   5.7765669      724.76559     -19.230068      705.53552    
    899000   298.50872      0.0090902144   4.7717445      740.60836     -20.472975      720.13539    
    900000   302.29997      0.0090902144   4.5711895      750.01455     -21.882344      728.13221    
    901000   314.31392      0.0090902144   4.957178       779.82149     -26.059607      753.76189    
    902000   296.62694      0.0090902144   6.3022278      735.93961     -25.061924      710.87769    
    903000   292.40009      0.0090902144   4.8872838      725.45267     -23.964805      701.48787    
    904000   300.39245      0.0090902144   3.8721212      745.28195     -22.382417      722.89953    
    905000   311.80674      0.0090902144   1.0491363      773.60111     -23.844968      749.75614    
    906000   303.51498      0.0090902144   4.776601       753.02904     -21.073219      731.95582    
    907000   297.12928      0.0090902144   5.2411612      737.18593     -22.991066      714.19486    
    908000   293.60933      0.0090902144   4.8514473      728.45285     -27.939039      700.51381    
    909000   306.61359      0.0090902144   2.1996522      760.71678     -25.320361      735.39642    
    910000   305.45704      0.0090902144   10.082376      757.84734     -24.819612      733.02773    
    911000   292.83258      0.0090902144   4.6213076      726.5257      -26.995047      699.53065    
    912000   296.0211       0.0090902144  -8.7116359      734.43651     -22.071847      712.36467    
    913000   307.88951      0.0090902144   2.2991629      763.88237     -22.035053      741.84731    
    914000   300.17421      0.0090902144   9.2038566      744.74049     -22.183739      722.55675    
    915000   290.63488      0.0090902144   8.4180817      721.07316     -23.366704      697.70645    
    916000   287.18383      0.0090902144   4.0851965      712.51099     -24.914001      687.59699    
    917000   304.07136      0.0090902144   2.2801503      754.40943     -23.816181      730.59325    
    918000   314.31178      0.0090902144   4.8711654      779.81618     -22.093925      757.72226    
    919000   305.37512      0.0090902144   6.0463414      757.64409     -27.228952      730.41514    
    920000   294.12945      0.0090902144   6.5476186      729.74327     -26.972176      702.77109    
    921000   301.13777      0.0090902144   4.9826714      747.13112     -22.57909       724.55203    
    922000   311.58197      0.0090902144   4.6419012      773.04345     -24.209808      748.83365    
    923000   302.54363      0.0090902144   4.9569156      750.61908     -22.709797      727.90928    
    924000   295.84058      0.0090902144   5.4587691      733.98864     -22.554651      711.43398    
    925000   306.03158      0.0090902144   4.6477391      759.27279     -26.679494      732.59329    
    926000   291.76034      0.0090902144   4.89622        723.86546     -29.147912      694.71754    
    927000   292.83052      0.0090902144   4.8703596      726.52059     -24.747852      701.77274    
    928000   307.01326      0.0090902144   4.9283388      761.70835     -24.45805       737.2503     
    929000   306.69026      0.0090902144   4.970836       760.907       -25.954505      734.95249    
    930000   298.46972      0.0090902144   5.2345078      740.51159     -22.326246      718.18535    
    931000   290.34826      0.0090902144   5.2284612      720.36204     -18.632536      701.7295     
    932000   306.14476      0.0090902144   5.6368163      759.55358     -20.241416      739.31216    
    933000   305.7423       0.0090902144   5.2829968      758.55508     -18.956453      739.59862    
    934000   295.02512      0.0090902144   4.8613445      731.96544     -20.370722      711.59472    
    935000   290.39772      0.0090902144   5.0233785      720.48476     -24.030596      696.45416    
    936000   310.6888       0.0090902144   5.2889234      770.82748     -20.538903      750.28858    
    937000   306.69258      0.0090902144   5.2175253      760.91274     -21.025651      739.88709    
    938000   300.06169      0.0090902144   3.5685922      744.46132     -20.321568      724.13975    
    939000   300.4452       0.0090902144   0.65997853     745.41282     -19.407595      726.00522    
    940000   295.65758      0.0090902144   5.8934311      733.5346      -22.216564      711.31804    
    941000   306.22645      0.0090902144   10.079662      759.75626     -23.299626      736.45664    
    942000   316.83432      0.0090902144   9.2969477      786.07468     -25.722673      760.352      
    943000   300.05739      0.0090902144   3.8416063      744.45065     -21.570291      722.88036    
    944000   293.03122      0.0090902144   4.3990013      727.01854     -25.218002      701.80054    
    945000   294.80356      0.0090902144   3.2723711      731.41575     -27.573615      703.84214    
    946000   299.39831      0.0090902144   19.422129      742.81546     -29.426128      713.38933    
    947000   312.40658      0.0090902144   11.876134      775.08934     -27.06953       748.01981    
    948000   295.53795      0.0090902144   1.9083731      733.2378      -26.705254      706.53254    
    949000   291.44045      0.0090902144   3.1101025      723.07178     -25.153213      697.91857    
    950000   296.13494      0.0090902144   12.794272      734.71894     -23.642908      711.07603    
    951000   304.58215      0.0090902144   10.36494       755.67671     -21.806642      733.87007    
    952000   311.61247      0.0090902144   4.327595       773.11913     -23.405008      749.71412    
    953000   291.70313      0.0090902144   4.2498185      723.7235      -23.012582      700.71092    
    954000   285.69469      0.0090902144   6.1794915      708.81641     -24.703965      684.11244    
    955000   311.06641      0.0090902144   11.267682      771.76434     -20.668279      751.09606    
    956000   317.56421      0.0090902144   5.9938184      787.88557     -23.318712      764.56685    
    957000   305.55502      0.0090902144  -0.60408757     758.09042     -26.788144      731.30228    
    958000   294.85846      0.0090902144   5.587803       731.55196     -27.190258      704.3617     
    959000   293.3538       0.0090902144   7.4481485      727.81887     -22.903719      704.91515    
    960000   301.76207      0.0090902144   5.0976842      748.68002     -26.934149      721.74587    
    961000   301.05676      0.0090902144   3.9831222      746.93013     -24.141776      722.78835    
    962000   314.83853      0.0090902144   4.8751683      781.12306     -25.926921      755.19614    
    963000   283.64017      0.0090902144   3.9150532      703.71908     -26.520172      677.19891    
    964000   291.22978      0.0090902144   4.0490555      722.54912     -26.365607      696.18351    
    965000   301.11023      0.0090902144   5.8432343      747.06277     -20.254829      726.80794    
    966000   315.02638      0.0090902144   6.1102483      781.58912     -18.930214      762.65891    
    967000   297.24068      0.0090902144   5.0378451      737.46231     -15.892553      721.56976    
    968000   290.76639      0.0090902144   4.6121217      721.39943     -19.301857      702.09758    
    969000   307.29865      0.0090902144   4.3041613      762.41643     -18.091494      744.32493    
    970000   310.42942      0.0090902144   5.4454778      770.18394     -21.4009        748.78304    
    971000   292.62845      0.0090902144   5.3572989      726.01924     -16.986628      709.03262    
    972000   305.14658      0.0090902144   5.1120454      757.07708     -18.17885       738.89823    
    973000   301.17563      0.0090902144   4.6793747      747.22504     -17.589654      729.63538    
    974000   310.54672      0.0090902144   5.8282145      770.47498     -19.247889      751.22709    
    975000   291.00163      0.0090902144   4.8808335      721.98306     -22.576765      699.4063     
    976000   283.43262      0.0090902144   4.5879909      703.20413     -23.296558      679.90758    
    977000   309.06689      0.0090902144   5.6992212      766.80348     -18.326815      748.47666    
    978000   306.94174      0.0090902144   6.9536445      761.53092     -15.954859      745.57606    
    979000   302.52357      0.0090902144   3.8034312      750.56931     -17.046128      733.52318    
    980000   281.92976      0.0090902144   5.1951638      699.47552     -17.578078      681.89744    
    981000   305.90488      0.0090902144   8.1756812      758.95843     -21.656817      737.30161    
    982000   310.51763      0.0090902144   6.6881691      770.40279     -18.137424      752.26537    
    983000   286.80106      0.0090902144   2.342652       711.56134     -23.355512      688.20583    
    984000   301.93503      0.0090902144   4.9145968      749.10913     -21.596603      727.51253    
    985000   312.99364      0.0090902144   12.087602      776.54586     -23.964826      752.58103    
    986000   302.14375      0.0090902144   0.87047208     749.62697     -24.316083      725.31088    
    987000   289.87839      0.0090902144   1.8084539      719.19627     -22.084332      697.11193    
    988000   309.21104      0.0090902144   6.5665549      767.16112     -18.929899      748.23122    
    989000   311.54047      0.0090902144   4.0670587      772.94049     -17.024521      755.91597    
    990000   303.55735      0.0090902144   3.1670031      753.13416     -22.031797      731.10236    
    991000   280.07593      0.0090902144   1.9995277      694.87611     -18.333555      676.54256    
    992000   294.24753      0.0090902144   6.2181435      730.03623     -14.636522      715.39971    
    993000   303.71963      0.0090902144   4.0560551      753.53677     -17.820517      735.71625    
    994000   294.57336      0.0090902144   4.8826206      730.84463     -17.836818      713.00781    
    995000   302.19712      0.0090902144   3.2052486      749.75938     -19.654887      730.10449    
    996000   310.19778      0.0090902144   6.7119112      769.60923     -22.899141      746.71009    
    997000   294.08581      0.0090902144   5.6766032      729.63499     -23.984166      705.65083    
    998000   293.77616      0.0090902144   4.7135649      728.86675     -24.074373      704.79237    
    999000   310.26817      0.0090902144   5.7142056      769.78388     -26.448148      743.33573    
   1000000   308.29601      0.0090902144   4.0758558      764.89089     -24.223383      740.66751    
   1001000   281.28366      0.0090902144   4.9748743      697.87252     -22.758543      675.11398    
   1002000   284.26953      0.0090902144   3.5319258      705.28053     -21.5836        683.69693    
   1003000   307.38003      0.0090902144   11.273621      762.61834     -20.549872      742.06847    
   1004000   309.1295       0.0090902144   4.813088       766.95881     -24.050126      742.90868    
   1005000   289.00611      0.0090902144   0.20392892     717.03213     -25.921295      691.11083    
   1006000   283.86594      0.0090902144   6.4545629      704.27922     -26.623118      677.6561     
   1007000   302.32157      0.0090902144   5.2186655      750.06815     -25.211958      724.85619    
   1008000   310.03904      0.0090902144   4.6486114      769.21541     -23.334767      745.88064    
   1009000   305.84976      0.0090902144   3.9028529      758.82169     -20.671499      738.1502     
   1010000   287.61393      0.0090902144   4.5220542      713.57809     -22.595446      690.98264    
   1011000   305.92648      0.0090902144   7.0327346      759.01204     -20.53488       738.47716    
   1012000   307.93955      0.0090902144   5.2200952      764.0065      -14.571688      749.43482    
   1013000   300.18611      0.0090902144   5.0443835      744.77001     -15.10181       729.6682     
   1014000   292.26034      0.0090902144   6.2155623      725.10597     -15.413684      709.69228    
   1015000   300.56129      0.0090902144   4.3653325      745.70085     -16.186628      729.51422    
   1016000   295.77189      0.0090902144   4.8615132      733.81821     -14.15984       719.65837    
   1017000   309.23138      0.0090902144   9.453608       767.21158     -14.363854      752.84772    
   1018000   300.02694      0.0090902144   2.6201014      744.37512     -16.475034      727.90009    
   1019000   288.35434      0.0090902144   4.9241144      715.41507     -15.940586      699.47449    
   1020000   289.51934      0.0090902144   5.6828833      718.30547     -10.817808      707.48766    
   1021000   310.74557      0.0090902144   5.2342665      770.96834     -12.388587      758.57975    
   1022000   301.60489      0.0090902144   4.6674859      748.29003     -10.445578      737.84446    
   1023000   288.94529      0.0090902144   4.5193417      716.88124     -10.801111      706.08013    
   1024000   301.16305      0.0090902144   4.9300303      747.19384     -9.6890473      737.50479    
   1025000   300.89327      0.0090902144   6.2546921      746.52449     -12.008764      734.51572    
   1026000   283.9229       0.0090902144   4.1797653      704.42055     -10.536501      693.88405    
   1027000   304.35277      0.0090902144   5.9544698      755.10762     -10.352801      744.75482    
   1028000   297.58993      0.0090902144   8.2741858      738.32882     -11.254311      727.07451    
   1029000   300.2062       0.0090902144   5.2325041      744.81985     -13.334432      731.48542    
   1030000   299.4218       0.0090902144   4.5541532      742.87373     -18.11326       724.76047    
   1031000   302.07055      0.0090902144   5.466871       749.44536     -11.283454      738.16191    
   1032000   311.30149      0.0090902144   5.5198761      772.34758     -13.069626      759.27796    
   1033000   305.20947      0.0090902144   5.1188682      757.23312     -14.535639      742.69748    
   1034000   299.13316      0.0090902144   5.0217672      742.1576      -12.778651      729.37895    
   1035000   297.1143       0.0090902144   4.483507       737.14877     -14.449439      722.69933    
   1036000   295.18906      0.0090902144   4.1681475      732.3722      -18.322236      714.04996    
   1037000   311.48084      0.0090902144   5.5010276      772.79254     -23.035984      749.75656    
   1038000   299.0969       0.0090902144   4.7497398      742.06766     -18.774547      723.29312    
   1039000   286.23154      0.0090902144   4.8669743      710.14835     -13.936163      696.21218    
   1040000   281.52875      0.0090902144   5.8714715      698.4806      -17.518088      680.96251    
   1041000   306.33786      0.0090902144   7.1931319      760.03266     -15.68323       744.34943    
   1042000   303.41992      0.0090902144   3.7443356      752.79319     -13.629732      739.16346    
   1043000   297.81443      0.0090902144   2.452166       738.88582     -11.673436      727.21238    
   1044000   297.38074      0.0090902144   0.74119964     737.80981     -11.754724      726.05509    
   1045000   296.59951      0.0090902144   5.8488773      735.87155     -13.122549      722.74901    
   1046000   298.21933      0.0090902144   8.6482263      739.89037     -12.597812      727.29255    
   1047000   319.62285      0.0090902144   2.4969416      792.9931      -10.015219      782.97788    
   1048000   300.06083      0.0090902144   4.1934065      744.45918     -12.696762      731.76242    
   1049000   303.64251      0.0090902144   5.6050783      753.34544     -14.145973      739.19946    
   1050000   292.82174      0.0090902144   6.6906016      726.49882     -14.328127      712.17069    
   1051000   308.95323      0.0090902144   10.999393      766.52147     -10.787031      755.73444    
   1052000   312.35514      0.0090902144   5.7384684      774.96171     -13.98018       760.98153    
   1053000   298.80315      0.0090902144   0.75124352     741.33884     -11.67072       729.66812    
   1054000   287.6145       0.0090902144   6.6849628      713.5795      -12.846667      700.73283    
   1055000   294.36201      0.0090902144   8.8264672      730.32026     -12.994847      717.32541    
   1056000   325.08947      0.0090902144   5.543266       806.55594     -14.748952      791.80699    
   1057000   297.49226      0.0090902144   3.0829221      738.0865      -15.372826      722.71367    
   1058000   285.10583      0.0090902144   4.3510336      707.35543     -13.437596      693.91783    
   1059000   296.17969      0.0090902144   4.8363946      734.82997     -11.6011        723.22887    
   1060000   313.16564      0.0090902144   6.7695942      776.97257     -11.113353      765.85922    
   1061000   302.11907      0.0090902144   4.9881768      749.56574     -12.740538      736.8252     
   1062000   290.4131       0.0090902144   4.1437406      720.52292     -12.252608      708.27031    
   1063000   290.22355      0.0090902144   8.6086618      720.05262     -8.5692013      711.48342    
   1064000   304.77119      0.0090902144   5.571845       756.14573     -12.127547      744.01818    
   1065000   311.79746      0.0090902144   0.75371041     773.5781      -12.323184      761.25492    
   1066000   286.48835      0.0090902144   8.6282988      710.78548     -12.151876      698.63361    
   1067000   297.18394      0.0090902144   6.9637599      737.32155     -14.174092      723.14746    
   1068000   303.83335      0.0090902144   4.1155085      753.81891     -14.277662      739.54125    
   1069000   314.92017      0.0090902144   4.0196438      781.32563     -13.498064      767.82757    
   1070000   289.73097      0.0090902144   5.4824476      718.83053     -16.369487      702.46104    
   1071000   307.02395      0.0090902144   5.4211716      761.73488     -15.281245      746.45363    
   1072000   306.91768      0.0090902144   5.0119496      761.47123     -16.360721      745.11051    
   1073000   296.52909      0.0090902144   7.1500379      735.69685     -13.145472      722.55138    
   1074000   291.07011      0.0090902144   3.089148       722.15297     -15.187084      706.96588    
   1075000   311.89693      0.0090902144   3.4611676      773.82488     -15.237009      758.58787    
   1076000   310.88231      0.0090902144   5.4318223      771.30757     -13.436304      757.87127    
   1077000   295.06683      0.0090902144   5.1555143      732.06895     -12.595997      719.47295    
   1078000   292.84165      0.0090902144   4.7095277      726.54821     -15.863066      710.68515    
   1079000   303.68359      0.0090902144   4.7947714      753.44737     -15.466873      737.98049    
   1080000   316.73565      0.0090902144   5.4002767      785.82987     -16.800772      769.0291     
   1081000   287.6383       0.0090902144   4.7130025      713.63855     -14.239996      699.39855    
   1082000   301.21311      0.0090902144   5.5912813      747.31803     -16.307665      731.01037    
   1083000   303.4961       0.0090902144   5.0561283      752.98218     -17.055545      735.92663    
   1084000   302.08836      0.0090902144   4.8385465      749.48955     -17.080953      732.4086     
   1085000   308.84898      0.0090902144   5.1194185      766.26283     -13.858086      752.40475    
   1086000   306.78851      0.0090902144   5.4378951      761.15076     -15.177339      745.97342    
   1087000   290.12147      0.0090902144   6.3774322      719.79936     -18.564261      701.23509    
   1088000   303.75497      0.0090902144   4.0248507      753.62446     -16.656906      736.96755    
   1089000   301.10626      0.0090902144   3.8179481      747.05293     -15.334081      731.71885    
   1090000   303.62583      0.0090902144   7.4073483      753.30406     -15.929653      737.3744     
   1091000   300.40997      0.0090902144   9.6513         745.32542     -17.790247      727.53518    
   1092000   290.04451      0.0090902144   4.2604734      719.60841     -15.030463      704.57795    
   1093000   302.6304       0.0090902144   0.9217575      750.83437     -18.722587      732.11178    
   1094000   303.11174      0.0090902144   10.073911      752.02858     -22.875416      729.15317    
   1095000   293.59783      0.0090902144   4.0016281      728.42431     -16.392386      712.03192    
   1096000   310.80185      0.0090902144   3.691711       771.10796     -16.803747      754.30421    
   1097000   304.28253      0.0090902144   4.8826928      754.93334     -19.152713      735.78063    
   1098000   293.74351      0.0090902144   6.4046932      728.78574     -17.8818        710.90394    
   1099000   286.22633      0.0090902144   2.9432009      710.13542     -18.699333      691.43609    
   1100000   303.9589       0.0090902144   3.9454674      754.1304      -16.122144      738.00826    
   1101000   295.53764      0.0090902144   4.2446352      733.23703     -15.274204      717.96282    
   1102000   303.00455      0.0090902144   5.3006539      751.76265     -17.90909       733.85356    
   1103000   291.29053      0.0090902144   5.6662182      722.69984     -15.490698      707.20914    
   1104000   303.10157      0.0090902144   3.1050259      752.00334     -18.931518      733.07182    
   1105000   316.38996      0.0090902144  -0.89575281     784.9722      -20.566326      764.40588    
   1106000   293.81572      0.0090902144   7.9426078      728.96491     -18.763413      710.20149    
   1107000   299.81334      0.0090902144   8.3271957      743.84516     -17.127383      726.71778    
   1108000   294.63018      0.0090902144  -0.20737067     730.9856      -17.862654      713.12294    
   1109000   305.84878      0.0090902144   0.99570223     758.81926     -16.818493      742.00077    
   1110000   306.19911      0.0090902144   5.9254631      759.68843     -16.730243      742.95819    
   1111000   295.3152       0.0090902144   4.5324934      732.68515     -17.731879      714.95327    
   1112000   311.70902      0.0090902144  -2.3212651      773.35867     -19.378957      753.97972    
   1113000   308.10197      0.0090902144   7.1023638      764.40948     -20.176507      744.23297    
   1114000   298.04369      0.0090902144   10.753554      739.45462     -21.428543      718.02608    
   1115000   282.70595      0.0090902144   3.141063       701.40126     -18.819325      682.58194    
   1116000   308.98299      0.0090902144  -3.3944608      766.59532     -17.763535      748.83179    
   1117000   301.93203      0.0090902144   3.9120668      749.1017      -18.150157      730.95154    
   1118000   287.24635      0.0090902144   10.965567      712.66612     -20.079805      692.58631    
   1119000   295.22845      0.0090902144   4.3305891      732.46991     -17.324319      715.14559    
   1120000   299.90195      0.0090902144   3.4999272      744.065       -18.320886      725.74412    
   1121000   302.02749      0.0090902144   4.9002675      749.33854     -17.340256      731.99828    
   1122000   313.66226      0.0090902144   6.5441236      778.20471     -15.464082      762.74062    
   1123000   298.17658      0.0090902144   7.4335208      739.78432     -15.728596      724.05572    
   1124000   282.01412      0.0090902144   3.3319561      699.6848      -14.586848      685.09795    
   1125000   293.40007      0.0090902144   3.9999429      727.93366     -14.954133      712.97953    
   1126000   299.33468      0.0090902144   7.7757894      742.6576      -17.837766      724.81984    
   1127000   295.45846      0.0090902144   6.9756165      733.04058     -16.286814      716.75377    
   1128000   296.6442       0.0090902144   2.2714169      735.98245     -17.026773      718.95567    
   1129000   307.63695      0.0090902144   4.5546681      763.25576     -20.555223      742.70054    
   1130000   297.30205      0.0090902144   10.121262      737.61458     -19.078158      718.53642    
   1131000   292.72095      0.0090902144   1.3964112      726.24874     -16.652846      709.59589    
   1132000   294.37027      0.0090902144   3.0420036      730.34076     -17.871197      712.46956    
   1133000   300.89855      0.0090902144   5.1380819      746.5376      -14.485772      732.05182    
   1134000   307.58142      0.0090902144   6.5400488      763.11797     -16.377732      746.74024    
   1135000   298.67511      0.0090902144   4.8105564      741.02117     -14.34422       726.67695    
   1136000   290.5302       0.0090902144   4.0818759      720.81343     -15.681177      705.13225    
   1137000   305.64423      0.0090902144   7.1160047      758.31176     -19.080216      739.23154    
   1138000   296.79534      0.0090902144   9.999285       736.35742     -18.361382      717.99604    
   1139000   293.59218      0.0090902144   4.2421766      728.41028     -20.460393      707.94989    
   1140000   298.4786       0.0090902144   2.4061222      740.53364     -17.850946      722.6827     
   1141000   301.59435      0.0090902144   5.2370758      748.26389     -16.708431      731.55546    
   1142000   288.99613      0.0090902144   5.8774801      717.00736     -17.813529      699.19383    
   1143000   297.42908      0.0090902144   4.3513888      737.92975     -14.062719      723.86703    
   1144000   294.53628      0.0090902144   3.1579205      730.75262     -18.810093      711.94253    
   1145000   311.94889      0.0090902144   5.6590921      773.95378     -20.652924      753.30086    
   1146000   290.35935      0.0090902144   5.5954379      720.38955     -15.854593      704.53495    
   1147000   276.80823      0.0090902144   4.3483966      686.76885     -16.034855      670.734      
   1148000   297.31322      0.0090902144   4.8146149      737.64231     -17.709001      719.93331    
   1149000   306.28309      0.0090902144   4.560608       759.8968      -19.26436       740.63244    
   1150000   297.38547      0.0090902144   6.2145129      737.82156     -16.474058      721.3475     
   1151000   289.89469      0.0090902144   4.7896237      719.23672     -16.459368      702.77735    
   1152000   314.13757      0.0090902144   5.3084043      779.38397     -18.354948      761.02903    
   1153000   311.61192      0.0090902144   5.9025846      773.11776     -14.688487      758.42928    
   1154000   290.56597      0.0090902144   7.2638743      720.90218     -16.262776      704.63941    
   1155000   301.15421      0.0090902144   4.5927548      747.17189     -18.616099      728.55579    
   1156000   309.46375      0.0090902144   4.8786175      767.78808     -18.229679      749.55841    
   1157000   312.25822      0.0090902144   4.1662347      774.72126     -19.164565      755.5567     
   1158000   297.78796      0.0090902144   8.2392022      738.82013     -18.126321      720.69381    
   1159000   293.53845      0.0090902144   0.010019006    728.27698     -20.470831      707.80615    
   1160000   309.44893      0.0090902144   8.1036572      767.75134     -17.737564      750.01377    
   1161000   295.29345      0.0090902144   4.5632922      732.63119     -20.06269       712.5685     
   1162000   290.70816      0.0090902144   1.2331381      721.25495     -18.574848      702.68011    
   1163000   306.08675      0.0090902144   3.3779778      759.40967     -22.622611      736.78706    
   1164000   307.67854      0.0090902144   7.1625733      763.35893     -19.982817      743.37611    
   1165000   299.34685      0.0090902144   9.3009936      742.68778     -19.338147      723.34964    
   1166000   297.65741      0.0090902144   3.1735652      738.49623     -18.344217      720.15201    
   1167000   296.06685      0.0090902144   4.2660786      734.55003     -16.908882      717.64114    
   1168000   318.63571      0.0090902144   3.436619       790.54399     -20.514771      770.02922    
   1169000   316.61053      0.0090902144   7.3627324      785.51946     -22.229748      763.28971    
   1170000   284.531        0.0090902144   2.9485217      705.92926     -22.810571      683.11869    
   1171000   292.71685      0.0090902144   0.49262941     726.23858     -22.64196       703.59662    
   1172000   306.12556      0.0090902144   4.2853225      759.50596     -19.725473      739.78048    
   1173000   310.08294      0.0090902144   6.4188197      769.32432     -17.996219      751.3281     
   1174000   298.15282      0.0090902144   5.8276787      739.72536     -17.918741      721.80662    
   1175000   276.37803      0.0090902144   4.8291566      685.7015      -21.221717      664.47979    
   1176000   306.16777      0.0090902144   4.9471189      759.61067     -21.074914      738.53576    
   1177000   303.48078      0.0090902144   3.7735691      752.94418     -17.319677      735.6245     
   1178000   283.61285      0.0090902144   5.0318506      703.65131     -18.493264      685.15804    
   1179000   299.69754      0.0090902144   5.0393716      743.55785     -15.860369      727.69748    
   1180000   301.90444      0.0090902144   5.0770668      749.03323     -16.299192      732.73404    
   1181000   309.15975      0.0090902144   4.7381724      767.03386     -18.52659       748.50727    
   1182000   290.7884       0.0090902144   4.6958144      721.45403     -15.838893      705.61514    
   1183000   286.79453      0.0090902144   4.6896525      711.54515     -14.802179      696.74297    
   1184000   313.35196      0.0090902144   5.3343848      777.43486     -15.581906      761.85295    
   1185000   297.90847      0.0090902144   5.4936611      739.11913     -13.428697      725.69043    
   1186000   295.41744      0.0090902144   5.1675565      732.9388      -15.789291      717.14951    
   1187000   301.42191      0.0090902144   5.2290171      747.83607     -15.053993      732.78207    
   1188000   317.12833      0.0090902144   5.0019247      786.80414     -14.628389      772.17575    
   1189000   302.06338      0.0090902144   4.6989224      749.42758     -17.418758      732.00882    
   1190000   289.8462       0.0090902144   4.6167224      719.11641     -13.596735      705.51967    
   1191000   296.89403      0.0090902144   5.1549706      736.60228     -10.364403      726.23788    
   1192000   307.74197      0.0090902144   5.0557025      763.5163      -9.6353914      753.88091    
   1193000   302.23095      0.0090902144   4.5923091      749.84332     -12.703383      737.13994    
   1194000   282.00561      0.0090902144   5.0802371      699.6637      -14.038926      685.62477    
   1195000   299.68422      0.0090902144   4.457748       743.5248      -14.368539      729.15626    
   1196000   305.8857       0.0090902144   5.0662715      758.91084     -14.305374      744.60547    
   1197000   299.84137      0.0090902144   5.2208431      743.91471     -15.761981      728.15272    
   1198000   296.77166      0.0090902144   5.2594876      736.29866     -17.547213      718.75145    
   1199000   294.53515      0.0090902144   4.9346174      730.74983     -13.790543      716.95928    
   1200000   315.64744      0.0090902144   4.487753       783.12999     -13.002457      770.12753    
   1201000   313.90318      0.0090902144   2.1848858      778.80244     -14.188769      764.61367    
   1202000   287.79081      0.0090902144   5.2497989      714.01692     -15.05379       698.96313    
   1203000   288.79114      0.0090902144   6.3863274      716.49878     -15.834777      700.664      
   1204000   308.71778      0.0090902144   8.0964412      765.93732     -13.254831      752.68249    
   1205000   295.54265      0.0090902144   4.3695847      733.24946     -13.340544      719.90892    
   1206000   304.49363      0.0090902144   2.5804829      755.45708     -13.247796      742.20928    
   1207000   285.23729      0.0090902144   4.0566735      707.68159     -12.973373      694.70821    
   1208000   298.19941      0.0090902144   8.0849418      739.84097     -18.077854      721.76311    
   1209000   306.84124      0.0090902144   4.3127367      761.28158     -17.233588      744.04799    
   1210000   300.96769      0.0090902144   2.4308007      746.70914     -19.232815      727.47632    
   1211000   297.7682       0.0090902144   9.0501355      738.77111     -23.120085      715.65103    
   1212000   304.93214      0.0090902144   4.7118145      756.54504     -23.535694      733.00935    
   1213000   297.14878      0.0090902144   1.743238       737.23433     -21.076548      716.15778    
   1214000   297.90816      0.0090902144   6.3000913      739.11836     -22.599932      716.51843    
   1215000   304.07738      0.0090902144   6.7557779      754.42437     -19.541102      734.88327    
   1216000   296.38083      0.0090902144   1.7396762      735.329       -15.942875      719.38613    
   1217000   291.77172      0.0090902144   5.3305533      723.89368     -18.547864      705.34581    
   1218000   308.27267      0.0090902144   6.84901        764.83298     -17.502192      747.33079    
   1219000   308.17082      0.0090902144   7.5499638      764.58029     -14.398619      750.18167    
   1220000   303.21458      0.0090902144   4.2113484      752.28374     -13.841435      738.4423     
   1221000   303.07235      0.0090902144   2.3676824      751.93086     -18.818794      733.11207    
   1222000   296.16751      0.0090902144   4.5270471      734.79975     -16.861112      717.93864    
   1223000   299.10583      0.0090902144   5.1285826      742.0898      -17.565481      724.52432    
   1224000   306.1897       0.0090902144   5.6449863      759.66508     -15.526493      744.13859    
   1225000   299.58987      0.0090902144   5.8121641      743.29071     -16.547341      726.74337    
   1226000   290.48362      0.0090902144   3.9692902      720.69787     -15.112279      705.5856     
   1227000   295.90867      0.0090902144   1.5330473      734.15757     -14.260666      719.8969     
   1228000   294.32069      0.0090902144   6.2562078      730.21774     -16.115287      714.10246    
   1229000   287.89781      0.0090902144   3.6713086      714.28241     -20.543588      693.73883    
   1230000   297.96828      0.0090902144   4.0937472      739.26752     -21.211898      718.05562    
   1231000   320.32419      0.0090902144   4.9825922      794.73315     -24.022135      770.71101    
   1232000   302.70964      0.0090902144   6.5438083      751.03096     -24.06908       726.96188    
   1233000   290.13849      0.0090902144   6.0967732      719.8416      -20.754569      699.08703    
   1234000   302.63206      0.0090902144   1.9921264      750.83847     -21.175315      729.66316    
   1235000   307.37868      0.0090902144   6.0994729      762.61497     -21.129754      741.48522    
   1236000   296.65486      0.0090902144   4.5544468      736.00889     -26.075281      709.9336     
   1237000   296.02216      0.0090902144   4.8781925      734.43913     -24.999872      709.43926    
   1238000   309.01894      0.0090902144   5.2701118      766.6845      -25.341173      741.34333    
   1239000   305.43905      0.0090902144   4.3422364      757.80271     -23.528615      734.27409    
   1240000   277.48943      0.0090902144   4.3645386      688.45893     -20.790786      667.66815    
   1241000   302.20172      0.0090902144   5.1919294      749.7708      -24.576058      725.19474    
   1242000   303.50153      0.0090902144   4.8762291      752.99565     -24.303542      728.69211    
   1243000   288.02009      0.0090902144   2.8437516      714.58577     -23.055589      691.53018    
   1244000   297.48914      0.0090902144   4.8230986      738.07875     -26.752314      711.32644    
   1245000   315.27933      0.0090902144   10.895937      782.21671     -23.482813      758.7339     
   1246000   300.90078      0.0090902144   3.5908835      746.54312     -24.716688      721.82643    
   1247000   302.30822      0.0090902144   1.1552535      750.03502     -25.956313      724.07871    
   1248000   300.76762      0.0090902144   5.3524023      746.21275     -24.265883      721.94687    
   1249000   301.97102      0.0090902144   6.1212767      749.19842     -25.005155      724.19326    
   1250000   299.89491      0.0090902144   5.0682622      744.04755     -24.018108      720.02944    
   1251000   288.73698      0.0090902144   3.3272087      716.36441     -21.154157      695.21026    
   1252000   304.52717      0.0090902144   5.1631682      755.54031     -17.79293       737.74738    
   1253000   310.63697      0.0090902144   7.9596706      770.69889     -15.663341      755.03555    
   1254000   297.63183      0.0090902144   3.4212019      738.43278     -13.715181      724.7176     
   1255000   295.64078      0.0090902144   7.7132848      733.49293     -18.646495      714.84643    
   1256000   300.67987      0.0090902144   7.6835805      745.99504     -18.098445      727.89659    
   1257000   299.19362      0.0090902144   4.9360214      742.30762     -19.580357      722.72726    
   1258000   295.99447      0.0090902144   4.4077747      734.37044     -19.803544      714.5669     
   1259000   300.66856      0.0090902144   6.2522423      745.96698     -18.978339      726.98864    
   1260000   299.30147      0.0090902144   6.8158937      742.5752      -21.724676      720.85053    
   1261000   303.45581      0.0090902144   4.7503756      752.88224     -18.530878      734.35136    
   1262000   294.5816       0.0090902144   4.6882497      730.86507     -22.76881       708.09626    
   1263000   300.18982      0.0090902144   5.7896677      744.77922     -20.575638      724.20358    
   1264000   305.84395      0.0090902144   5.6026163      758.80728     -16.326392      742.48089    
   1265000   290.09037      0.0090902144   2.9688065      719.72222     -17.742611      701.9796     
   1266000   289.14971      0.0090902144   5.4584991      717.38839     -22.928529      694.45987    
   1267000   296.26662      0.0090902144   6.2862151      735.04566     -22.428144      712.61752    
   1268000   305.55814      0.0090902144   4.9932701      758.09817     -19.598722      738.49945    
   1269000   304.45932      0.0090902144   5.2452577      755.37197     -20.058541      735.31343    
   1270000   295.5085       0.0090902144   3.7584016      733.16473     -20.160644      713.00409    
   1271000   287.91308      0.0090902144   4.2911507      714.32029     -17.340141      696.98015    
   1272000   302.05838      0.0090902144   6.1682194      749.41516     -16.517806      732.89735    
   1273000   300.50198      0.0090902144   4.8552748      745.55369     -18.577216      726.97647    
   1274000   311.28932      0.0090902144   4.8951995      772.31739     -20.761396      751.55599    
   1275000   303.20962      0.0090902144   4.8134346      752.27141     -23.232035      729.03938    
   1276000   295.7574       0.0090902144   5.2713876      733.78226     -22.62478       711.15748    
   1277000   288.36893      0.0090902144   5.116143       715.45127     -21.014256      694.43702    
   1278000   289.51238      0.0090902144   4.7120895      718.2882      -18.404309      699.88389    
   1279000   303.72166      0.0090902144   4.9995663      753.54181     -21.117547      732.42426    
   1280000   314.11857      0.0090902144   5.9186798      779.33682     -17.30686       762.02996    
   1281000   300.67272      0.0090902144   4.6675372      745.9773      -17.574598      728.4027     
   1282000   282.49554      0.0090902144   5.1326892      700.87922     -11.801305      689.07791    
   1283000   310.21079      0.0090902144   5.2255203      769.64153     -14.26556       755.37597    
   1284000   302.96089      0.0090902144   5.2886849      751.65432     -15.134354      736.51996    
   1285000   302.92826      0.0090902144   4.9191108      751.57337     -18.84813       732.72524    
   1286000   301.17382      0.0090902144   3.6701484      747.22055     -12.957353      734.2632     
   1287000   299.44185      0.0090902144   5.667232       742.92349     -13.485062      729.43843    
   1288000   305.75589      0.0090902144   5.0348092      758.5888      -13.708073      744.88072    
   1289000   296.89321      0.0090902144   4.8424237      736.60025     -13.072148      723.5281     
   1290000   294.3564       0.0090902144   4.7177583      730.30634     -14.864317      715.44202    
   1291000   305.11854      0.0090902144   4.1703095      757.00751     -13.63259       743.37492    
   1292000   301.85065      0.0090902144   4.6737258      748.89977     -16.114803      732.78497    
   1293000   294.78284      0.0090902144   6.408688       731.36436     -15.785845      715.57851    
   1294000   286.98413      0.0090902144   7.7556386      712.01553     -14.396676      697.61885    
   1295000   308.47512      0.0090902144   3.8081841      765.33528     -11.332772      754.00251    
   1296000   306.56743      0.0090902144   3.2621684      760.60225     -13.342948      747.2593     
   1297000   293.69032      0.0090902144   7.8387513      728.65378     -9.5287966      719.12498    
   1298000   290.74559      0.0090902144  -0.40718851     721.34782     -13.49028       707.85754    
   1299000   300.49226      0.0090902144   3.3124857      745.52959     -12.726123      732.80347    
   1300000   303.12516      0.0090902144   8.1131587      752.06187     -14.163955      737.89792    
   1301000   293.45599      0.0090902144   5.3863313      728.0724      -16.607238      711.46516    
   1302000   302.00464      0.0090902144   3.6242567      749.28184     -16.012155      733.26968    
   1303000   307.40145      0.0090902144   1.8541687      762.67147     -15.866817      746.80466    
   1304000   289.15149      0.0090902144   8.1671206      717.39282     -14.797742      702.59508    
   1305000   296.00839      0.0090902144   5.684883       734.40496     -18.215386      716.18958    
   1306000   299.36456      0.0090902144   3.5563556      742.73172     -17.338406      725.39331    
   1307000   314.78734      0.0090902144   4.0783064      780.99608     -20.022096      760.97398    
   1308000   290.66594      0.0090902144   12.245533      721.15021     -14.263737      706.88648    
   1309000   292.96154      0.0090902144   5.5795165      726.84564     -14.299222      712.54642    
   1310000   301.25342      0.0090902144   2.8732174      747.41803     -12.842637      734.57539    
   1311000   309.6875       0.0090902144   0.84339404     768.34322     -10.303893      758.03933    
   1312000   302.02574      0.0090902144   6.4880612      749.33418     -11.047082      738.2871     
   1313000   281.92341      0.0090902144   4.2231761      699.45974     -12.027646      687.43209    
   1314000   298.70428      0.0090902144   3.2343053      741.09354     -11.714572      729.37897    
   1315000   298.41773      0.0090902144   1.1287927      740.38261     -15.125595      725.25701    
   1316000   304.91693      0.0090902144   3.9867379      756.50732     -13.691523      742.8158     
   1317000   294.36906      0.0090902144   8.9878959      730.33776     -12.371886      717.96587    
   1318000   305.36226      0.0090902144   3.7293901      757.61219     -7.0848745      750.52731    
   1319000   313.24905      0.0090902144   1.4233837      777.17952     -10.008232      767.17129    
   1320000   290.92499      0.0090902144   6.4425778      721.79291     -9.1503923      712.64252    
   1321000   292.67964      0.0090902144   3.7363558      726.14625     -11.099687      715.04656    
   1322000   312.59095      0.0090902144   2.1378911      775.54676     -10.147363      765.39939    
   1323000   300.53279      0.0090902144   7.2256743      745.63014     -9.9914917      735.63865    
   1324000   285.69711      0.0090902144   3.3941966      708.8224      -12.75814       696.06426    
   1325000   297.25478      0.0090902144   4.2671673      737.4973      -13.868847      723.62845    
   1326000   308.5595       0.0090902144   6.3393797      765.54463     -15.972483      749.57215    
   1327000   287.82199      0.0090902144   4.6883916      714.0943      -18.506914      695.58739    
   1328000   299.42657      0.0090902144   4.2926045      742.88558     -16.177164      726.70842    
   1329000   322.3816       0.0090902144   4.444563       799.83764     -17.477601      782.36004    
   1330000   294.52013      0.0090902144   7.6057624      730.71255     -15.626125      715.08643    
   1331000   285.88261      0.0090902144   5.7358019      709.28265     -15.344057      693.93859    
   1332000   301.30401      0.0090902144   2.4110738      747.54354     -14.736314      732.80723    
   1333000   308.62032      0.0090902144   3.2526122      765.69552     -12.886508      752.80902    
   1334000   299.45533      0.0090902144   7.0297408      742.95694     -12.850989      730.10595    
   1335000   291.72675      0.0090902144   7.1951378      723.78211     -11.481407      712.30071    
   1336000   295.57989      0.0090902144   3.4546263      733.34184     -12.71095       720.63089    
   1337000   308.84843      0.0090902144   4.8809352      766.26146     -14.700994      751.56046    
   1338000   290.17898      0.0090902144   6.771313       719.94205     -10.548077      709.39397    
   1339000   298.97987      0.0090902144   5.0984409      741.77731     -10.966709      730.8106     
   1340000   307.78006      0.0090902144  -1.2951274      763.61082     -8.4451782      755.16564    
   1341000   302.363        0.0090902144   5.8428817      750.17094     -11.657576      738.51337    
   1342000   291.22291      0.0090902144   7.1011373      722.53207     -10.999873      711.5322     
   1343000   293.11426      0.0090902144   5.9872007      727.22456     -14.428628      712.79593    
   1344000   293.70211      0.0090902144   4.1123927      728.68303     -14.450644      714.23238    
   1345000   300.92391      0.0090902144   4.0162475      746.60053     -14.870573      731.72995    
   1346000   302.76477      0.0090902144   3.8842939      751.16774     -15.147388      736.02035    
   1347000   301.82952      0.0090902144   6.0637543      748.84736     -11.367868      737.47949    
   1348000   307.21646      0.0090902144   5.1892439      762.21252     -11.871303      750.34121    
   1349000   291.46345      0.0090902144   4.873992       723.12884     -13.588783      709.54006    
   1350000   289.2008       0.0090902144   5.2235705      717.51517     -15.230684      702.28448    
   1351000   298.81612      0.0090902144   5.1443298      741.37103     -14.97126       726.39977    
   1352000   306.81607      0.0090902144   4.0109469      761.21912     -14.307993      746.91112    
   1353000   278.02834      0.0090902144   5.3250741      689.79596     -15.53688       674.25908    
   1354000   289.05901      0.0090902144   8.1074976      717.16337     -15.727651      701.43572    
   1355000   309.05634      0.0090902144   4.5854996      766.7773      -17.167035      749.61026    
   1356000   306.30365      0.0090902144   3.1543239      759.94781     -18.5111        741.43671    
   1357000   288.89114      0.0090902144   4.8250768      716.74687     -16.350822      700.39605    
   1358000   290.83368      0.0090902144   5.8546546      721.56638     -15.273847      706.29253    
   1359000   305.84432      0.0090902144   6.7566677      758.80819     -14.197313      744.61088    
   1360000   312.34973      0.0090902144   5.4720062      774.94829     -14.459518      760.48877    
   1361000   307.36341      0.0090902144  -2.2024712      762.5771      -13.536176      749.04092    
   1362000   289.19587      0.0090902144   6.2754813      717.50293     -10.971105      706.53183    
   1363000   304.05755      0.0090902144   2.0031753      754.37515     -13.21492       741.16023    
   1364000   297.40817      0.0090902144  -2.5705426      737.87787     -11.487995      726.38987    
   1365000   286.57657      0.0090902144   3.6795015      711.00438     -11.151844      699.85253    
   1366000   292.54955      0.0090902144   9.1154804      725.82351     -15.308316      710.51519    
   1367000   302.28334      0.0090902144   5.6098902      749.97329     -15.314246      734.65904    
   1368000   304.70753      0.0090902144   4.6285834      755.98779     -13.816109      742.17168    
   1369000   289.96658      0.0090902144   3.9136388      719.41507     -12.739258      706.67581    
   1370000   296.10608      0.0090902144   9.750685       734.64734     -12.257982      722.38935    
   1371000   309.933        0.0090902144   5.6607998      768.95231     -13.524181      755.42813    
   1372000   300.39972      0.0090902144   2.276578       745.29998     -12.843356      732.45662    
   1373000   286.80388      0.0090902144   4.6666811      711.56832     -15.35048       696.21784    
   1374000   299.66086      0.0090902144   8.846232       743.46684     -12.706904      730.75994    
   1375000   319.68191      0.0090902144   1.5400412      793.13964     -12.569283      780.57035    
   1376000   294.70329      0.0090902144   3.4883802      731.167       -15.259784      715.90721    
   1377000   298.56307      0.0090902144   6.3096257      740.74321     -12.520887      728.22232    
   1378000   307.17028      0.0090902144   10.168645      762.09794     -13.426752      748.67119    
   1379000   323.14575      0.0090902144   4.8307464      801.73352     -11.08397       790.64955    
   1380000   290.24246      0.0090902144   3.0141984      720.09955     -10.715425      709.38413    
   1381000   294.00693      0.0090902144   7.3561394      729.43929     -15.481842      713.95745    
   1382000   315.44682      0.0090902144   5.2629416      782.63225     -13.448067      769.18418    
   1383000   297.19429      0.0090902144   3.758754       737.34722     -11.903307      725.44391    
   1384000   297.00996      0.0090902144   5.8955819      736.88991     -13.657095      723.23281    
   1385000   296.12033      0.0090902144   8.0102133      734.68269     -14.401424      720.28127    
   1386000   311.39433      0.0090902144   1.442275       772.57793     -16.097456      756.48047    
   1387000   287.36178      0.0090902144   3.7622928      712.95251     -14.000329      698.95218    
   1388000   298.38085      0.0090902144   6.5531512      740.29112     -14.898051      725.39307    
   1389000   300.22599      0.0090902144   4.7156724      744.86895     -17.692085      727.17687    
   1390000   296.04428      0.0090902144   2.2989454      734.49402     -18.158739      716.33528    
   1391000   294.60423      0.0090902144   2.2655325      730.92122     -17.127098      713.79412    
   1392000   294.73713      0.0090902144   5.6342974      731.25093     -17.506388      713.74455    
   1393000   298.84757      0.0090902144   6.4612534      741.44907     -20.040172      721.40889    
   1394000   301.24112      0.0090902144   5.2453693      747.38751     -23.376219      724.0113     
   1395000   307.56838      0.0090902144   4.7376975      763.08562     -24.160074      738.92554    
   1396000   296.68051      0.0090902144   4.3073139      736.07253     -22.784672      713.28786    
   1397000   297.54888      0.0090902144   4.5483217      738.22697     -21.16218       717.06479    
   1398000   293.44168      0.0090902144   5.7479525      728.0369      -19.573839      708.46306    
   1399000   314.74854      0.0090902144   5.081447       780.8998      -19.970093      760.92971    
   1400000   300.68662      0.0090902144   4.0528919      746.0118      -18.726683      727.28512    
   1401000   282.73626      0.0090902144  -0.0061491714   701.47646     -20.183862      681.2926     
   1402000   296.36561      0.0090902144   5.4008871      735.29125     -20.793079      714.49818    
   1403000   297.7216       0.0090902144   5.9347668      738.6555      -19.767141      718.88836    
   1404000   324.41871      0.0090902144   4.4480171      804.89177     -21.625092      783.26668    
   1405000   289.01208      0.0090902144   3.8729072      717.04693     -19.521043      697.52589    
   1406000   294.83748      0.0090902144   8.6554992      731.49992     -20.260022      711.2399     
   1407000   312.62766      0.0090902144   5.273904       775.63785     -19.741043      755.8968     
   1408000   299.29828      0.0090902144   2.3863677      742.56729     -19.592926      722.97436    
   1409000   297.3045       0.0090902144   8.35484        737.62066     -16.473629      721.14703    
   1410000   305.91138      0.0090902144   4.1341434      758.97456     -13.882705      745.09185    
   1411000   299.47927      0.0090902144   2.6430656      743.01632     -16.261921      726.7544     
   1412000   305.70147      0.0090902144   8.280371       758.45377     -19.358317      739.09545    
   1413000   302.38353      0.0090902144   5.3874517      750.22188     -21.136435      729.08544    
   1414000   292.978        0.0090902144   5.1318953      726.8865      -16.923539      709.96296    
   1415000   293.02373      0.0090902144   0.099756477    726.99996     -20.657589      706.34238    
   1416000   296.28715      0.0090902144   6.1417436      735.0966      -13.781116      721.31548    
   1417000   302.73181      0.0090902144   7.3199815      751.08598     -20.453722      730.63225    
   1418000   304.95251      0.0090902144   4.8522931      756.59559     -17.215699      739.37989    
   1419000   300.10425      0.0090902144   1.9840303      744.56692     -15.564642      729.00228    
   1420000   289.51706      0.0090902144   6.0830211      718.2998      -17.330124      700.96967    
   1421000   304.12751      0.0090902144   4.8702006      754.54872     -15.576155      738.97257    
   1422000   292.78051      0.0090902144   3.941605       726.39652     -17.056898      709.33962    
   1423000   293.8558       0.0090902144   5.1514482      729.06433     -17.185917      711.87841    
   1424000   297.79852      0.0090902144   3.9407786      738.84634     -16.851327      721.99501    
   1425000   285.78819      0.0090902144   4.9948623      709.04837     -14.059278      694.98909    
   1426000   298.05256      0.0090902144   5.6232297      739.47661     -16.317314      723.1593     
   1427000   301.80608      0.0090902144   5.9173822      748.7892      -14.503138      734.28606    
   1428000   311.33229      0.0090902144   3.6153691      772.424       -18.560453      753.86355    
   1429000   288.89871      0.0090902144   5.3144672      716.76566     -17.408371      699.35729    
   1430000   298.99682      0.0090902144   7.088049       741.81936     -17.454985      724.36438    
   1431000   310.34775      0.0090902144   8.011622       769.98131     -16.930271      753.05104    
   1432000   302.56996      0.0090902144   3.198044       750.68441     -15.140319      735.54409    
   1433000   309.84851      0.0090902144   2.7073946      768.74269     -13.45931       755.28338    
   1434000   296.66679      0.0090902144   10.842477      736.03849     -14.626939      721.41155    
   1435000   311.25266      0.0090902144   11.428095      772.22644     -13.63893       758.58751    
   1436000   302.29982      0.0090902144   4.3469654      750.01418     -14.542955      735.47123    
   1437000   294.42384      0.0090902144   4.4022079      730.47366     -14.701531      715.77213    
   1438000   299.95102      0.0090902144   5.6828833      744.18676     -16.380851      727.80591    
   1439000   311.17808      0.0090902144   5.5504834      772.04138     -16.448407      755.59298    
   1440000   307.12526      0.0090902144   3.597058       761.98624     -17.780108      744.20613    
   1441000   307.72701      0.0090902144   0.67230495     763.4792      -16.213047      747.26616    
   1442000   288.92809      0.0090902144   4.1327907      716.83857     -16.305322      700.53325    
   1443000   301.71752      0.0090902144   7.1198788      748.56949     -14.285214      734.28427    
   1444000   304.18648      0.0090902144   4.265354       754.69505     -18.665711      736.02934    
   1445000   295.95819      0.0090902144   2.4828303      734.28043     -17.699581      716.58085    
   1446000   305.24286      0.0090902144   10.505486      757.31596     -21.123678      736.19228    
   1447000   304.77214      0.0090902144   4.4052644      756.14809     -16.665556      739.48253    
   1448000   287.04494      0.0090902144   0.99173926     712.16642     -14.835781      697.33064    
   1449000   302.14563      0.0090902144   7.3676442      749.63165     -14.531092      735.10055    
   1450000   315.54613      0.0090902144   4.2542577      782.87865     -14.794361      768.08429    
   1451000   287.84209      0.0090902144   1.4991428      714.14416     -15.971313      698.17285    
   1452000   295.3647       0.0090902144   4.2053264      732.80797     -17.82108       714.98689    
   1453000   306.87095      0.0090902144   6.8934509      761.35529     -17.345847      744.00944    
   1454000   292.892        0.0090902144   0.92286559     726.67313     -17.258209      709.41493    
   1455000   291.38963      0.0090902144   2.8044776      722.94569     -14.877686      708.06801    
   1456000   296.51069      0.0090902144   8.2457965      735.65119     -13.570039      722.08115    
   1457000   316.2044       0.0090902144   4.5773473      784.51184     -18.930196      765.58164    
   1458000   291.49507      0.0090902144   2.7689134      723.2073      -16.938387      706.26891    
   1459000   293.64082      0.0090902144   5.3111673      728.53096     -18.875577      709.65539    
   1460000   302.82819      0.0090902144   5.8438637      751.32508     -26.538807      724.78627    
   1461000   307.67516      0.0090902144   4.8663463      763.35056     -23.427883      739.92268    
   1462000   307.82578      0.0090902144   4.7723871      763.72425     -20.143128      743.58112    
   1463000   290.97738      0.0090902144   4.7749338      721.92291     -17.653977      704.26893    
   1464000   294.30225      0.0090902144   6.9497142      730.17199     -17.74436       712.42763    
   1465000   317.93358      0.0090902144   5.1534775      788.80198     -19.187212      769.61477    
   1466000   297.56308      0.0090902144   2.9761696      738.26221     -20.723273      717.53893    
   1467000   283.13319      0.0090902144   4.7319301      702.46125     -23.749127      678.71212    
   1468000   287.21873      0.0090902144   5.2084158      712.59758     -23.308994      689.28859    
   1469000   306.37406      0.0090902144   4.7329157      760.12248     -21.674683      738.4478     
   1470000   308.88311      0.0090902144   5.3648823      766.34751     -22.612073      743.73544    
   1471000   296.62856      0.0090902144   4.6284098      735.94364     -22.068478      713.87516    
   1472000   295.97723      0.0090902144   4.074634       734.32766     -18.483611      715.84405    
   1473000   296.96677      0.0090902144   4.9092973      736.78274     -17.768072      719.01467    
   1474000   311.15662      0.0090902144   4.8409675      771.98814     -15.71143       756.27671    
   1475000   304.31047      0.0090902144   4.8174094      755.00268     -18.147519      736.85516    
   1476000   295.22884      0.0090902144   4.9194746      732.47089     -15.381898      717.089      
   1477000   302.63993      0.0090902144   4.0518598      750.858       -20.323615      730.53439    
   1478000   307.59948      0.0090902144   3.8594084      763.16278     -24.181694      738.98108    
   1479000   296.68053      0.0090902144   8.0664978      736.07256     -24.016993      712.05557    
   1480000   297.88996      0.0090902144   4.9296589      739.07321     -20.828399      718.24481    
   1481000   298.77178      0.0090902144   4.0916681      741.26102     -16.845922      724.4151     
   1482000   320.99357      0.0090902144   5.2565324      796.3939      -18.018849      778.37505    
   1483000   297.49819      0.0090902144   5.4699912      738.10121     -18.599211      719.502      
   1484000   305.16613      0.0090902144   4.8844386      757.12558     -16.683171      740.44241    
   1485000   303.51737      0.0090902144   5.0671054      753.03497     -18.855448      734.17953    
   1486000   306.81056      0.0090902144   5.0048624      761.20546     -17.151735      744.05373    
   1487000   296.69371      0.0090902144   3.857688       736.10527     -15.752556      720.35272    
   1488000   300.01009      0.0090902144   5.1600941      744.3333      -15.190736      729.14256    
   1489000   299.36404      0.0090902144   4.9075242      742.73044     -17.71686       725.01358    
   1490000   296.16118      0.0090902144   3.9459262      734.78406     -18.173509      716.61055    
   1491000   298.76936      0.0090902144   4.3474256      741.25501     -19.163806      722.0912     
   1492000   306.37355      0.0090902144   6.009746       760.12121     -17.098768      743.02244    
   1493000   306.61423      0.0090902144   3.8043521      760.71835     -17.990405      742.72795    
   1494000   290.88664      0.0090902144   2.0416073      721.69777     -18.204588      703.49318    
   1495000   301.43621      0.0090902144   5.7329982      747.87153     -18.153453      729.71808    
   1496000   311.57928      0.0090902144   6.2878         773.03678     -17.21342       755.82336    
   1497000   288.8312       0.0090902144   4.8439012      716.59816     -13.912488      702.68567    
   1498000   282.41373      0.0090902144   4.4357192      700.67624     -16.95089       683.72535    
   1499000   300.14394      0.0090902144   5.266358       744.66539     -19.276871      725.38852    
   1500000   312.02554      0.0090902144   5.0311611      774.14397     -18.195153      755.94882    
   1501000   293.03068      0.0090902144   4.6928409      727.01719     -21.540758      705.47643    
   1502000   289.65142      0.0090902144   4.9397504      718.63316     -22.066153      696.567      
   1503000   299.25515      0.0090902144   5.4461566      742.46027     -23.50871       718.95156    
   1504000   303.58207      0.0090902144   5.3109116      753.19549     -23.026337      730.16916    
   1505000   303.94498      0.0090902144   2.9954059      754.09588     -25.34306       728.75282    
   1506000   300.47208      0.0090902144   4.4379784      745.47952     -24.957232      720.52229    
   1507000   298.88172      0.0090902144   11.65517       741.53378     -20.805867      720.72792    
   1508000   302.25919      0.0090902144   1.8017583      749.91339     -20.908271      729.00511    
   1509000   285.53812      0.0090902144  -0.44516218     708.42794     -17.623057      690.80489    
   1510000   303.79241      0.0090902144   6.6578167      753.71734     -16.857367      736.85998    
   1511000   316.91167      0.0090902144   3.9235722      786.26659     -14.846462      771.42013    
   1512000   301.95418      0.0090902144   3.2017502      749.15664     -16.655353      732.50129    
   1513000   292.48473      0.0090902144   3.0391208      725.66267     -15.349504      710.31317    
   1514000   295.55377      0.0090902144   8.3415349      733.27706     -15.093081      718.18398    
   1515000   306.25604      0.0090902144   5.3401872      759.82969     -16.615567      743.21412    
   1516000   299.81156      0.0090902144   3.1511735      743.84074     -19.81458       724.02616    
   1517000   293.44591      0.0090902144   2.8399733      728.04739     -16.838861      711.20853    
   1518000   285.35907      0.0090902144   5.7762153      707.98373     -15.531898      692.45183    
   1519000   302.73967      0.0090902144   6.9344487      751.10547     -16.4683        734.63717    
   1520000   314.42953      0.0090902144   2.2891387      780.10834     -13.563222      766.54512    
   1521000   291.69419      0.0090902144   2.0533773      723.70132     -17.858082      705.84324    
   1522000   292.70913      0.0090902144   4.8889406      726.21942     -18.300501      707.91892    
   1523000   281.59869      0.0090902144   7.5106489      698.65411     -18.271867      680.38225    
   1524000   306.24131      0.0090902144   5.5926526      759.79313     -15.986746      743.80638    
   1525000   309.78435      0.0090902144   1.4442447      768.58351     -15.613856      752.96965    
   1526000   294.15154      0.0090902144   5.2181063      729.79808     -15.116287      714.68179    
   1527000   300.98219      0.0090902144   7.261277       746.74511     -18.938925      727.80619    
   1528000   304.11475      0.0090902144   2.2507504      754.51707     -19.87754       734.63953    
   1529000   301.38453      0.0090902144   5.7774879      747.74334     -21.752899      725.99044    
   1530000   306.89171      0.0090902144   5.0138395      761.40679     -19.443688      741.9631     
   1531000   305.07653      0.0090902144   3.8704692      756.90328     -18.259881      738.6434     
   1532000   304.4252       0.0090902144   4.9691203      755.28732     -17.892586      737.39474    
   1533000   279.2542       0.0090902144   4.8404229      692.83736     -20.454831      672.38253    
   1534000   299.4987       0.0090902144   5.3333811      743.06452     -20.972448      722.09207    
   1535000   310.71099      0.0090902144   3.1696113      770.88254     -19.256165      751.62637    
   1536000   304.64341      0.0090902144   3.1598671      755.8287      -16.160356      739.66835    
   1537000   289.10108      0.0090902144   4.8467812      717.26774     -15.181092      702.08665    
   1538000   292.85         0.0090902144   4.9977723      726.56891     -14.937936      711.63097    
   1539000   307.94256      0.0090902144   5.209375       764.01399     -14.295363      749.71863    
   1540000   305.89513      0.0090902144   2.6059043      758.93424     -17.703169      741.23107    
   1541000   296.24335      0.0090902144   5.7319031      734.98793     -15.958935      719.02899    
   1542000   298.69541      0.0090902144   7.7201055      741.07155     -16.804316      724.26723    
   1543000   305.4707       0.0090902144   5.4240886      757.88123     -17.082562      740.79867    
   1544000   312.74458      0.0090902144  -0.98075802     775.92791     -17.012972      758.91494    
   1545000   294.13835      0.0090902144   5.0977689      729.76535     -17.921306      711.84404    
   1546000   292.75707      0.0090902144   7.7472848      726.33837     -17.067142      709.27123    
   1547000   307.48209      0.0090902144   5.6271353      762.87155     -19.573905      743.29764    
   1548000   301.1148       0.0090902144   0.62835477     747.07411     -20.70584       726.36827    
   1549000   286.26914      0.0090902144   5.0869727      710.24164     -19.432844      690.80879    
   1550000   296.10996      0.0090902144   5.11573        734.65696     -15.494087      719.16288    
   1551000   308.06997      0.0090902144   5.1397407      764.33009     -17.457829      746.87226    
   1552000   309.3225       0.0090902144   5.1082086      767.43766     -15.216667      752.22099    
   1553000   291.5976       0.0090902144   6.4068579      723.46169     -15.890868      707.57082    
   1554000   294.96736      0.0090902144   4.4156992      731.82214     -16.781306      715.04084    
   1555000   311.78576      0.0090902144   7.8513282      773.54907     -16.259094      757.28998    
   1556000   307.89463      0.0090902144   11.636679      763.89505     -17.908133      745.98692    
   1557000   300.81079      0.0090902144   3.236871       746.31986     -15.383164      730.9367     
   1558000   301.17023      0.0090902144   0.86061517     747.21164     -16.910208      730.30143    
   1559000   302.67022      0.0090902144   7.5120998      750.93315     -18.821351      732.1118     
   1560000   293.66781      0.0090902144   9.6290306      728.59793     -19.466255      709.13167    
   1561000   307.6519       0.0090902144   2.8000425      763.29283     -19.864567      743.42826    
   1562000   302.38692      0.0090902144  -0.31339053     750.23028     -15.110254      735.12002    
   1563000   309.03999      0.0090902144   7.9202685      766.73674     -17.719982      749.01676    
   1564000   305.09167      0.0090902144   7.006779       756.94084     -17.677831      739.26301    
   1565000   295.8238       0.0090902144   4.2447418      733.94701     -17.824655      716.12236    
   1566000   298.89776      0.0090902144   5.8714301      741.57359     -21.444117      720.12947    
   1567000   280.03107      0.0090902144   5.5594517      694.76479     -19.144544      675.62025    
   1568000   286.94548      0.0090902144   4.0561844      711.91965     -20.825635      691.09402    
   1569000   299.22444      0.0090902144   4.7004765      742.38409     -19.295494      723.08859    
   1570000   306.52543      0.0090902144   4.7802931      760.49803     -18.828869      741.66916    
   1571000   298.14555      0.0090902144   4.527073       739.70733     -19.040762      720.66657    
   1572000   295.23729      0.0090902144   5.1232835      732.49186     -18.148957      714.3429     
   1573000   311.73057      0.0090902144   5.6459976      773.41213     -15.469777      757.94235    
   1574000   312.32107      0.0090902144   5.6725061      774.87719     -22.606242      752.27095    
   1575000   293.36533      0.0090902144   4.9952935      727.84746     -19.665747      708.18172    
   1576000   298.41023      0.0090902144   4.820174       740.36401     -16.647475      723.71654    
   1577000   316.66675      0.0090902144   6.0423659      785.65894     -15.809591      769.84935    
   1578000   296.54859      0.0090902144   3.866716       735.74522     -15.656437      720.08878    
   1579000   286.33166      0.0090902144   5.0217703      710.39674     -11.514984      698.88176    
   1580000   295.27203      0.0090902144   5.1517872      732.57805     -11.205542      721.3725     
   1581000   310.26983      0.0090902144   4.8641498      769.788       -11.912367      757.87563    
   1582000   314.18773      0.0090902144   2.1389329      779.50842     -9.2867868      770.22164    
   1583000   292.07548      0.0090902144   2.1910771      724.64732     -12.483112      712.16421    
   1584000   301.99536      0.0090902144   7.9788164      749.25882     -11.563665      737.69516    
   1585000   306.32706      0.0090902144   4.779158       760.00588     -17.412449      742.59343    
   1586000   299.40983      0.0090902144   4.1377985      742.84405     -18.898721      723.94533    
   1587000   296.36635      0.0090902144   5.0763975      735.2931      -16.480317      718.81278    
   1588000   300.65729      0.0090902144   5.3365187      745.93902     -19.457434      726.48159    
   1589000   304.42628      0.0090902144   2.4253916      755.29        -20.362244      734.92775    
   1590000   296.41577      0.0090902144   4.7012789      735.4157      -18.501107      716.9146     
   1591000   293.77729      0.0090902144   3.088775       728.86956     -17.690263      711.1793     
   1592000   307.88839      0.0090902144   5.5812399      763.87959     -14.553514      749.32607    
   1593000   298.8617       0.0090902144   6.0165283      741.48413     -17.999292      723.48483    
   1594000   288.96342      0.0090902144   5.3567231      716.9262      -18.564365      698.36184    
   1595000   302.26433      0.0090902144   3.8635759      749.92613     -18.872796      731.05333    
   1596000   296.68313      0.0090902144   4.6419981      736.07904     -18.498648      717.58039    
   1597000   302.86622      0.0090902144   5.97213        751.41943     -16.356764      735.06266    
   1598000   308.58287      0.0090902144   3.7528604      765.60261     -23.007314      742.59529    
   1599000   320.41009      0.0090902144   10.171324      794.94627     -20.4135        774.53277    
   1600000   303.12434      0.0090902144   7.705089       752.05984     -22.719749      729.34009    
   1601000   283.24971      0.0090902144   9.1368155      702.75034     -23.429954      679.32039    
   1602000   304.236        0.0090902144  -1.3039106      754.81791     -23.879976      730.93793    
   1603000   306.71772      0.0090902144   8.3509335      760.97511     -23.38739       737.58772    
   1604000   281.58891      0.0090902144   2.0773639      698.62985     -23.788173      674.84168    
   1605000   300.16627      0.0090902144  -9.3675169      744.7208      -22.533225      722.18758    
   1606000   305.14484      0.0090902144   3.6627139      757.07277     -17.709485      739.36328    
   1607000   297.66906      0.0090902144   13.740821      738.52515     -23.609784      714.91536    
   1608000   287.99146      0.0090902144   10.178667      714.51475     -20.337061      694.17769    
   1609000   296.15118      0.0090902144   2.6190325      734.75924     -17.437526      717.32171    
   1610000   317.72837      0.0090902144   2.1936035      788.29285     -19.827722      768.46512    
   1611000   292.1224       0.0090902144   11.481866      724.76373     -17.614052      707.14968    
   1612000   294.74573      0.0090902144   2.4854297      731.27227     -17.787159      713.48511    
   1613000   306.9856       0.0090902144  -1.2736064      761.63973     -15.19952       746.44021    
   1614000   312.16311      0.0090902144   8.7875114      774.48528     -17.849353      756.63593    
   1615000   287.8799       0.0090902144   1.2167874      714.23796     -16.930299      697.30766    
   1616000   295.62951      0.0090902144  -0.45311639     733.46496     -17.81916       715.6458     
   1617000   306.59837      0.0090902144   5.0384955      760.679       -15.157646      745.52135    
   1618000   310.63003      0.0090902144   10.549399      770.68167     -18.249331      752.43234    
   1619000   290.45832      0.0090902144   12.360667      720.63511     -15.663587      704.97152    
   1620000   292.68954      0.0090902144   2.6711178      726.17081     -13.190973      712.97984    
   1621000   320.07266      0.0090902144   6.4945984      794.1091      -13.54417       780.56493    
   1622000   306.8041       0.0090902144   9.8542646      761.18943     -7.3221354      753.86729    
   1623000   285.65746      0.0090902144   2.0055973      708.72403     -13.44384       695.28019    
   1624000   296.98599      0.0090902144   4.1480736      736.83042     -14.682251      722.14817    
   1625000   304.3855       0.0090902144   8.0049479      755.18881     -17.30479       737.88402    
   1626000   308.1933       0.0090902144   14.391093      764.63606     -14.194805      750.44126    
   1627000   287.91959      0.0090902144   3.7058979      714.33643     -20.265394      694.07103    
   1628000   298.61992      0.0090902144   1.2752389      740.88426     -18.220585      722.66367    
   1629000   304.89411      0.0090902144   11.764478      756.4507      -16.489647      739.96105    
   1630000   294.44885      0.0090902144   6.92622        730.53572     -12.004549      718.53117    
   1631000   299.52296      0.0090902144   2.6811835      743.12472     -15.801208      727.32351    
   1632000   303.4135       0.0090902144   7.3181817      752.77726     -14.039954      738.73731    
   1633000   301.53738      0.0090902144   5.7506865      748.12256     -17.467643      730.65492    
   1634000   297.54091      0.0090902144   2.4890874      738.2072      -13.055911      725.15129    
   1635000   312.43826      0.0090902144   2.7257252      775.16793     -18.525872      756.64206    
   1636000   299.18853      0.0090902144   9.5642514      742.29499     -16.202865      726.09213    
   1637000   295.09183      0.0090902144   5.4365652      732.13097     -19.491032      712.63994    
   1638000   314.82422      0.0090902144   2.1191553      781.08758     -18.203329      762.88425    
   1639000   301.38921      0.0090902144   17.355766      747.75495     -17.367439      730.38751    
   1640000   291.01308      0.0090902144   6.4960266      722.01147     -19.377228      702.63424    
   1641000   295.86628      0.0090902144  -5.4721693      734.05241     -19.569686      714.48272    
   1642000   306.40432      0.0090902144   5.1618088      760.19756     -18.576044      741.62152    
   1643000   303.88092      0.0090902144   15.267816      753.93693     -20.302054      733.63488    
   1644000   289.19135      0.0090902144   8.9310785      717.4917      -20.35189       697.13981    
   1645000   286.43683      0.0090902144   10.360232      710.65768     -18.528148      692.12953    
   1646000   300.01324      0.0090902144  -3.6429566      744.34111     -18.984891      725.35622    
   1647000   309.0804       0.0090902144   3.5639013      766.83699     -16.462218      750.37477    
   1648000   296.23901      0.0090902144   13.833972      734.97715     -18.262054      716.71509    
   1649000   290.7087       0.0090902144   0.58471006     721.2563      -19.721933      701.53436    
   1650000   309.38532      0.0090902144   5.4363249      767.59352     -20.669833      746.92368    
   1651000   301.09202      0.0090902144   9.3165532      747.01761     -19.369358      727.64826    
   1652000   292.1699       0.0090902144   7.9538863      724.88158     -17.060968      707.82062    
   1653000   296.47703      0.0090902144   0.29737985     735.56769     -16.229857      719.33784    
   1654000   297.71928      0.0090902144   3.2043405      738.64973     -21.361816      717.28792    
   1655000   297.75651      0.0090902144   3.2798728      738.7421      -18.429224      720.31287    
   1656000   303.12958      0.0090902144   6.6809311      752.07284     -20.633654      731.43919    
   1657000   292.60511      0.0090902144   7.9082685      725.96134     -13.821324      712.14002    
   1658000   290.02275      0.0090902144   1.5642331      719.55443     -16.812909      702.74153    
   1659000   312.18031      0.0090902144  -2.5747159      774.52795     -15.259497      759.26845    
   1660000   309.9495       0.0090902144   9.8142413      768.99325     -15.240303      753.75295    
   1661000   288.44055      0.0090902144   8.8163488      715.62895     -18.215548      697.4134     
   1662000   296.75275      0.0090902144   2.5798443      736.25176     -17.187359      719.0644     
   1663000   315.42811      0.0090902144   3.1335758      782.58583     -18.457141      764.12868    
   1664000   300.45091      0.0090902144   9.583788       745.42699     -21.224452      724.20254    
   1665000   290.27091      0.0090902144   4.2941552      720.17013     -19.360584      700.80955    
   1666000   288.07568      0.0090902144   2.7148433      714.72371     -16.858576      697.86514    
   1667000   293.06277      0.0090902144   2.2921315      727.09682     -17.673459      709.42336    
   1668000   312.90092      0.0090902144   2.3089925      776.3158      -21.586216      754.72959    
   1669000   305.39306      0.0090902144   4.9012526      757.6886      -18.288658      739.39994    
   1670000   284.07987      0.0090902144   7.4210445      704.80998     -21.856749      682.95323    
   1671000   293.66636      0.0090902144   4.3301996      728.59434     -20.244779      708.34957    
   1672000   304.26678      0.0090902144   4.1018074      754.89427     -18.280612      736.61365    
   1673000   306.2281       0.0090902144   6.1481869      759.76036     -15.664258      744.0961     
   1674000   290.86671      0.0090902144   4.952727       721.64833     -16.170979      705.47735    
   1675000   304.98887      0.0090902144   4.9047847      756.6858      -15.63881       741.04699    
   1676000   309.81197      0.0090902144   3.3569368      768.65205     -18.819964      749.83208    
   1677000   309.9916       0.0090902144   4.5991567      769.09771     -17.222531      751.87518    
   1678000   306.79588      0.0090902144   6.4470608      761.16904     -18.347235      742.82181    
   1679000   298.31103      0.0090902144   5.6878659      740.11788     -21.213809      718.90408    
   1680000   309.58631      0.0090902144   5.9985251      768.09216     -19.907133      748.18503    
   1681000   300.77355      0.0090902144   4.6675045      746.22748     -18.200128      728.02735    
   1682000   294.5776       0.0090902144   4.2409193      730.85514     -16.394299      714.46084    
   1683000   306.76434      0.0090902144   4.2162205      761.09078     -13.106828      747.98395    
   1684000   298.80072      0.0090902144   5.2356474      741.33283     -14.17201       727.16082    
   1685000   297.72273      0.0090902144   4.6533978      738.65829     -14.33953       724.31876    
   1686000   305.77614      0.0090902144   4.5426159      758.63902     -12.807158      745.83186    
   1687000   307.31338      0.0090902144   6.7604004      762.45296     -10.06777       752.38519    
   1688000   291.17883      0.0090902144   4.954811       722.42271     -13.135002      709.28771    
   1689000   299.98825      0.0090902144   4.3958063      744.27913     -10.920805      733.35832    
   1690000   305.70338      0.0090902144   4.75441        758.45852     -11.340094      747.11843    
   1691000   301.59511      0.0090902144   5.4471003      748.26579     -12.801113      735.46467    
   1692000   302.62633      0.0090902144   3.4972311      750.82426     -12.723045      738.10122    
   1693000   296.49963      0.0090902144   4.9048407      735.62375     -11.736914      723.88683    
   1694000   300.80277      0.0090902144   5.0061126      746.29997     -15.420844      730.87913    
   1695000   306.91665      0.0090902144   5.4300001      761.46867     -17.214961      744.25371    
   1696000   294.15997      0.0090902144   4.513296       729.81899     -14.398391      715.4206     
   1697000   290.49082      0.0090902144   4.6129501      720.71572     -13.347592      707.36813    
   1698000   301.94417      0.0090902144   5.4518966      749.13181     -13.618746      735.51306    
   1699000   311.15082      0.0090902144   5.1729534      771.97375     -14.668736      757.30502    
   1700000   307.3404       0.0090902144   2.3866014      762.52001     -12.390316      750.12969    
   1701000   303.67498      0.0090902144   4.4994952      753.42599     -14.541454      738.88453    
   1702000   307.58949      0.0090902144   5.1125789      763.13799     -13.614054      749.52394    
   1703000   299.23916      0.0090902144   5.3554158      742.42061     -13.234285      729.18633    
   1704000   302.51432      0.0090902144   4.9571762      750.54636     -13.911946      736.63441    
   1705000   308.90506      0.0090902144   6.0065952      766.40198     -13.731962      752.67002    
   1706000   316.58629      0.0090902144   5.4127032      785.45931     -14.391382      771.06793    
   1707000   289.15073      0.0090902144   4.7276263      717.39094     -16.073676      701.31727    
   1708000   310.14815      0.0090902144   6.4476792      769.48611     -16.392959      753.09315    
   1709000   302.71636      0.0090902144   2.2994456      751.04763     -19.518934      731.5287     
   1710000   293.59206      0.0090902144   2.7454986      728.41        -17.293357      711.11664    
   1711000   299.23186      0.0090902144   8.4475484      742.40249     -17.859012      724.54348    
   1712000   312.78658      0.0090902144   2.9544319      776.03212     -18.191486      757.84064    
   1713000   300.54097      0.0090902144   4.9665908      745.65043     -17.340923      728.3095     
   1714000   293.73525      0.0090902144   4.7653         728.76526     -16.915866      711.8494     
   1715000   288.76277      0.0090902144   5.210972       716.42839     -18.04217       698.38622    
   1716000   302.43812      0.0090902144   6.029538       750.35731     -16.030344      734.32697    
   1717000   320.09701      0.0090902144   4.0145606      794.16951     -16.140691      778.02882    
   1718000   295.39848      0.0090902144   4.0414316      732.89177     -17.289186      715.60258    
   1719000   284.71807      0.0090902144   6.2921957      706.39339     -16.137613      690.25577    
   1720000   308.52937      0.0090902144   7.215657       765.46986     -17.947479      747.52238    
   1721000   301.63896      0.0090902144   3.6727287      748.37457     -14.688616      733.68595    
   1722000   295.49457      0.0090902144   2.4030657      733.13018     -14.186867      718.94331    
   1723000   297.42476      0.0090902144   6.4414343      737.91903     -14.265393      723.65364    
   1724000   308.58688      0.0090902144   4.8128011      765.61256     -16.202753      749.40981    
   1725000   307.95004      0.0090902144   4.1107657      764.03255     -16.241798      747.79075    
   1726000   303.00163      0.0090902144   7.5745855      751.75541     -18.612883      733.14252    
   1727000   295.19455      0.0090902144   4.8930168      732.3858      -17.586554      714.79925    
   1728000   304.32886      0.0090902144   0.40611651     755.04829     -17.457805      737.59049    
   1729000   294.64168      0.0090902144   7.0370796      731.01413     -15.962249      715.05188    
   1730000   312.8032       0.0090902144   5.942981       776.07335     -18.520153      757.5532     
   1731000   313.84403      0.0090902144   2.8717117      778.65569     -20.555687      758.1        
   1732000   295.80598      0.0090902144   4.2481071      733.90278     -15.850023      718.05276    
   1733000   297.09667      0.0090902144   4.7892233      737.10502     -17.773356      719.33166    
   1734000   296.19744      0.0090902144   6.7380441      734.87401     -18.075495      716.79851    
   1735000   321.58322      0.0090902144   3.7260152      797.85683     -19.190691      778.66614    
   1736000   291.10163      0.0090902144   3.9742159      722.23118     -18.350121      703.88106    
   1737000   278.16815      0.0090902144   7.771142       690.14284     -17.877365      672.26547    
   1738000   302.83292      0.0090902144   6.3078042      751.33683     -16.365973      734.97086    
   1739000   311.02893      0.0090902144   2.1619157      771.67135     -15.827397      755.84395    
   1740000   287.3417       0.0090902144  -0.71655257     712.90268     -16.677738      696.22494    
   1741000   291.65669      0.0090902144   1.9600031      723.60828     -18.688302      704.91997    
   1742000   300.78526      0.0090902144   5.9645219      746.25651     -19.661575      726.59493    
   1743000   316.12883      0.0090902144   5.8700637      784.32433     -14.37322       769.95111    
   1744000   302.43953      0.0090902144   3.2827496      750.36081     -12.339017      738.0218     
   1745000   295.03909      0.0090902144   4.0828348      732.0001      -12.15705       719.84305    
   1746000   293.40567      0.0090902144   3.2883714      727.94755     -9.5858505      718.3617     
   1747000   298.71862      0.0090902144   6.086319       741.12914     -9.5789978      731.55014    
   1748000   309.24421      0.0090902144   6.0552167      767.24342     -10.859583      756.38384    
   1749000   299.26641      0.0090902144   2.2205084      742.48822     -7.8656112      734.62261    
   1750000   285.54719      0.0090902144   3.3498188      708.45046     -10.26199       698.18847    
   1751000   288.73755      0.0090902144   7.1179234      716.36582     -12.259285      704.10653    
   1752000   308.61128      0.0090902144   6.1992032      765.67309     -13.423971      752.24912    
   1753000   307.85193      0.0090902144   4.0865421      763.78912     -12.868491      750.92063    
   1754000   296.85482      0.0090902144   3.6656845      736.505       -12.548065      723.95693    
   1755000   280.48363      0.0090902144   7.9379502      695.88761     -10.942993      684.94462    
   1756000   299.92543      0.0090902144   5.0803655      744.12326     -14.288385      729.83487    
   1757000   316.68034      0.0090902144   2.9501682      785.69266     -12.193634      773.49903    
   1758000   276.19784      0.0090902144   8.0365472      685.25445     -13.46275       671.7917     
   1759000   295.19715      0.0090902144   7.7376387      732.39226     -13.026161      719.36609    
   1760000   309.8218       0.0090902144   5.9268034      768.67643     -14.294602      754.38183    
   1761000   296.79232      0.0090902144   5.3006748      736.34993     -14.232322      722.11761    
   1762000   300.13421      0.0090902144   6.9949906      744.64125     -15.004008      729.63725    
   1763000   304.5335       0.0090902144   4.9229833      755.556       -16.087885      739.46812    
   1764000   307.34845      0.0090902144   3.013654       762.53997     -17.599395      744.94058    
   1765000   293.48847      0.0090902144   6.1829603      728.15298     -14.956051      713.19693    
   1766000   288.1795       0.0090902144   10.70064       714.98127     -15.577896      699.40338    
   1767000   300.44419      0.0090902144   5.7862866      745.41032     -13.15326       732.25706    
   1768000   305.69085      0.0090902144   2.8499046      758.42742     -14.921419      743.50601    
   1769000   306.27794      0.0090902144   2.4375608      759.884       -13.952483      745.93152    
   1770000   295.80086      0.0090902144   10.419533      733.89008     -14.06542       719.82466    
   1771000   301.86648      0.0090902144   10.367251      748.93906     -16.501415      732.43765    
   1772000   304.93836      0.0090902144   3.4080538      756.56049     -14.776654      741.78383    
   1773000   311.38472      0.0090902144  -0.86353547     772.55408     -16.516429      756.03765    
   1774000   287.16182      0.0090902144   7.3035841      712.45639     -17.254395      695.20199    
   1775000   299.03381      0.0090902144   13.279244      741.91112     -16.733355      725.17777    
   1776000   303.0938       0.0090902144   4.8256686      751.98408     -17.713777      734.2703     
   1777000   314.84174      0.0090902144  -4.7612764      781.13104     -15.24161       765.88943    
   1778000   284.54329      0.0090902144  -2.1019026      705.95976     -13.763378      692.19638    
   1779000   298.53561      0.0090902144   7.1266699      740.67507     -14.058015      726.61706    
   1780000   305.02413      0.0090902144   15.689896      756.77328     -16.833709      739.93957    
   1781000   299.57386      0.0090902144   2.6148105      743.25101     -17.45979       725.79122    
   1782000   302.23151      0.0090902144   2.1759643      749.8447      -17.209166      732.63554    
   1783000   294.52608      0.0090902144   5.8826445      730.72731     -15.73793       714.98938    
   1784000   297.17752      0.0090902144   8.2899204      737.30563     -19.37186       717.93377    
   1785000   304.40425      0.0090902144   0.55127192     755.23534     -16.725565      738.50977    
   1786000   296.96547      0.0090902144   2.759637       736.77953     -17.496783      719.28274    
   1787000   304.68677      0.0090902144   7.1210479      755.93628     -12.104914      743.83136    
   1788000   302.4562       0.0090902144   9.3244845      750.40216     -14.474966      735.9272     
   1789000   302.87391      0.0090902144   2.2387273      751.43851     -15.361989      736.07652    
   1790000   310.18619      0.0090902144   2.3234168      769.5805      -12.82689       756.75361    
   1791000   301.60092      0.0090902144   2.9238607      748.28019     -13.026754      735.25344    
   1792000   280.14465      0.0090902144   4.4975557      695.04659     -14.030595      681.01599    
   1793000   295.45654      0.0090902144   7.0217898      733.03581     -11.911546      721.12426    
   1794000   310.81964      0.0090902144   4.3918585      771.1521      -12.741517      758.41058    
   1795000   305.50224      0.0090902144   1.3946354      757.95948     -15.118442      742.84104    
   1796000   298.14383      0.0090902144   4.9855707      739.70306     -17.282724      722.42034    
   1797000   303.27408      0.0090902144   8.620293       752.43136     -18.183699      734.24766    
   1798000   306.51955      0.0090902144   5.0189317      760.48346     -22.535346      737.94811    
   1799000   309.29974      0.0090902144   5.1902397      767.38119     -20.987831      746.39336    
   1800000   299.42382      0.0090902144   5.0179158      742.87876     -18.147863      724.7309     
   1801000   294.3901       0.0090902144   3.1220538      730.38997     -23.00334       707.38662    
   1802000   315.34017      0.0090902144   7.3783281      782.36764     -20.059429      762.30821    
   1803000   301.84604      0.0090902144   8.2591922      748.88834     -18.968087      729.92026    
   1804000   295.42553      0.0090902144   1.0164963      732.95888     -17.063066      715.89581    
   1805000   296.46349      0.0090902144   2.656084       735.5341      -21.121406      714.41269    
   1806000   299.35166      0.0090902144   5.6207125      742.69971     -25.089         717.61071    
   1807000   314.173        0.0090902144   8.5496928      779.47188     -24.938437      754.53345    
   1808000   302.19743      0.0090902144   8.1566782      749.76016     -25.298986      724.46117    
   1809000   297.24279      0.0090902144   4.4706997      737.46755     -25.966678      711.50087    
   1810000   286.00463      0.0090902144   1.1454787      709.58537     -25.398209      684.18716    
   1811000   305.28258      0.0090902144  -1.0589539      757.41449     -21.736128      735.67836    
   1812000   311.06022      0.0090902144   6.7312063      771.74898     -21.622028      750.12695    
   1813000   293.20494      0.0090902144   7.1844351      727.44953     -19.178639      708.27089    
   1814000   296.06837      0.0090902144   4.8604072      734.55377     -18.258946      716.29483    
   1815000   301.29615      0.0090902144   2.8826412      747.52406     -17.986819      729.53724    
   1816000   302.51114      0.0090902144   4.7229097      750.53847     -19.92617       730.6123     
   1817000   296.91644      0.0090902144   6.3973488      736.65786     -21.953524      714.70434    
   1818000   292.72918      0.0090902144   4.5724577      726.26915     -21.226703      705.04245    
   1819000   298.91692      0.0090902144   4.8274678      741.62113     -20.03982       721.58131    
   1820000   298.29989      0.0090902144   5.0377131      740.09026     -19.90396       720.1863     
   1821000   301.30794      0.0090902144   6.9316203      747.5533      -17.117562      730.43573    
   1822000   303.41145      0.0090902144   4.6883329      752.77217     -19.415491      733.35667    
   1823000   315.01682      0.0090902144   5.199679       781.56542     -18.923512      762.6419     
   1824000   298.23765      0.0090902144   4.8637757      739.93584     -18.466508      721.46933    
   1825000   292.60904      0.0090902144   4.8899777      725.97109     -16.10382       709.86727    
   1826000   310.66086      0.0090902144   5.2523755      770.75816     -15.265809      755.49235    
   1827000   301.65878      0.0090902144   4.9921569      748.42374     -15.554885      732.86885    
   1828000   295.88887      0.0090902144   5.3106255      734.10843     -13.962467      720.14596    
   1829000   299.95385      0.0090902144   4.0338076      744.19376     -17.314771      726.87899    
   1830000   310.15077      0.0090902144   4.9649162      769.49262     -15.432855      754.05976    
   1831000   300.83809      0.0090902144   7.4517784      746.3876      -15.821131      730.56647    
   1832000   294.0962       0.0090902144   4.9320324      729.66077     -16.329872      713.3309     
   1833000   288.82324      0.0090902144   3.8112954      716.57843     -14.406622      702.17181    
   1834000   300.03798      0.0090902144   3.9635741      744.4025      -14.447996      729.9545     
   1835000   307.70077      0.0090902144   9.91954        763.4141      -13.674109      749.73999    
   1836000   297.87676      0.0090902144   5.8238         739.04045     -14.468602      724.57185    
   1837000   297.27967      0.0090902144   2.1459523      737.55905     -14.807419      722.75164    
   1838000   298.04599      0.0090902144   5.9503052      739.46031     -13.457289      726.00302    
   1839000   295.59716      0.0090902144   7.5525256      733.3847      -15.508421      717.87628    
   1840000   297.33682      0.0090902144   7.7261391      737.70084     -17.934187      719.76665    
   1841000   300.88813      0.0090902144   3.4746206      746.51174     -12.18755       734.32419    
   1842000   306.14446      0.0090902144   2.2405982      759.55285     -14.56845       744.9844     
   1843000   289.14375      0.0090902144   5.9489222      717.3736      -12.970947      704.40266    
   1844000   300.40369      0.0090902144   7.5599837      745.30984     -16.557641      728.7522     
   1845000   317.4229       0.0090902144   5.000882       787.53498     -13.825259      773.70972    
   1846000   302.88587      0.0090902144   2.9303848      751.4682      -12.807301      738.6609     
   1847000   288.80934      0.0090902144   4.6708563      716.54393     -14.777819      701.76611    
   1848000   291.97719      0.0090902144   15.587313      724.40345     -13.712139      710.69131    
   1849000   311.06757      0.0090902144   5.5481145      771.76722     -16.409084      755.35814    
   1850000   311.92631      0.0090902144  -4.6636106      773.89777     -17.122302      756.77547    
   1851000   294.79049      0.0090902144   6.9067393      731.38333     -15.626719      715.75661    
   1852000   301.81969      0.0090902144   12.339166      748.82297     -16.055625      732.76734    
   1853000   300.58758      0.0090902144   1.9940379      745.76607     -17.811276      727.95479    
   1854000   312.75828      0.0090902144   3.6630776      775.9619      -13.757295      762.20461    
   1855000   288.4          0.0090902144  -3.1571985      715.52835     -15.932762      699.59559    
   1856000   297.44937      0.0090902144   8.2797124      737.98009     -14.300317      723.67978    
   1857000   318.05629      0.0090902144  -0.51561213     789.10642     -15.084247      774.02218    
   1858000   291.57161      0.0090902144   4.238765       723.39721     -16.304741      707.09246    
   1859000   295.0071       0.0090902144   5.4225281      731.92074     -14.459964      717.46077    
   1860000   323.20303      0.0090902144   8.3212471      801.87563     -17.462882      784.41275    
   1861000   309.41561      0.0090902144   3.2895107      767.66865     -15.006991      752.66166    
   1862000   293.66908      0.0090902144   1.9285507      728.60107     -18.939228      709.66184    
   1863000   292.36023      0.0090902144   7.5433155      725.35379     -16.46074       708.89305    
   1864000   304.31263      0.0090902144   6.4527031      755.00803     -17.514094      737.49393    
   1865000   297.14936      0.0090902144  -0.3519177      737.23576     -17.993484      719.24227    
   1866000   296.87888      0.0090902144   4.7686015      736.56468     -22.26587       714.29881    
   1867000   291.68428      0.0090902144   8.0784235      723.67674     -17.550874      706.12586    
   1868000   305.40113      0.0090902144   10.807533      757.70862     -16.357237      741.35139    
   1869000   304.04452      0.0090902144   5.2077296      754.34284     -18.255591      736.08725    
   1870000   315.30747      0.0090902144   2.4977268      782.28652     -15.357357      766.92917    
   1871000   296.30881      0.0090902144   1.6365266      735.15033     -13.722781      721.42755    
   1872000   289.07731      0.0090902144   5.1751357      717.20879     -16.032553      701.17623    
   1873000   300.93816      0.0090902144   8.3764462      746.63588     -17.462671      729.17321    
   1874000   306.04169      0.0090902144   4.2555577      759.29786     -14.984559      744.3133     
   1875000   316.29055      0.0090902144   3.2693918      784.72557     -17.584049      767.14152    
   1876000   305.09121      0.0090902144   2.9909981      756.93969     -14.5504        742.38929    
   1877000   286.36463      0.0090902144   1.7961313      710.47855     -11.648221      698.83033    
   1878000   291.1311       0.0090902144   8.3339737      722.30429     -9.9999936      712.3043     
   1879000   305.63688      0.0090902144   8.3569801      758.29352     -10.856324      747.43719    
   1880000   308.29689      0.0090902144   2.5505034      764.89308     -17.643767      747.24932    
   1881000   291.66863      0.0090902144   6.3394306      723.63792     -18.404548      705.23337    
   1882000   301.24324      0.0090902144   6.6563064      747.39279     -16.720312      730.67248    
   1883000   297.88861      0.0090902144   9.7513269      739.06985     -12.774974      726.29487    
   1884000   308.16836      0.0090902144   6.5193775      764.5742      -13.8612        750.713      
   1885000   299.12974      0.0090902144   0.18345257     742.14914     -16.133423      726.01571    
   1886000   294.3371       0.0090902144   4.4845516      730.25846     -15.928485      714.32997    
   1887000   297.61854      0.0090902144   8.0180711      738.39981     -16.885481      721.51432    
   1888000   310.6998       0.0090902144   4.6209561      770.85477     -19.038599      751.81617    
   1889000   305.57676      0.0090902144   2.4008649      758.14436     -16.198485      741.94587    
   1890000   280.51095      0.0090902144   5.3852761      695.9554      -15.747752      680.20765    
   1891000   300.29974      0.0090902144   6.5828105      745.05193     -15.127605      729.92432    
   1892000   316.98919      0.0090902144   3.4228282      786.45892     -15.117858      771.34106    
   1893000   299.57782      0.0090902144   2.9464843      743.26084     -16.258099      727.00274    
   1894000   291.57304      0.0090902144   3.3346611      723.40076     -14.917383      708.48338    
   1895000   297.90636      0.0090902144   7.0906777      739.1139      -11.214465      727.89943    
   1896000   314.66376      0.0090902144   4.6077171      780.68946     -10.918816      769.77064    
   1897000   299.01849      0.0090902144   4.1400682      741.87313     -12.749379      729.12375    
   1898000   291.21693      0.0090902144   4.9450387      722.51724     -16.736188      705.78105    
   1899000   308.33834      0.0090902144   5.3966454      764.99591     -11.651497      753.34442    
   1900000   309.45708      0.0090902144   6.0637765      767.77156     -12.034082      755.73747    
   1901000   302.24147      0.0090902144   4.948985       749.86942     -9.8726597      739.99676    
   1902000   282.27632      0.0090902144   3.7210593      700.33533     -12.264888      688.07044    
   1903000   304.15887      0.0090902144   4.5300095      754.62655     -18.7534        735.87315    
   1904000   307.15294      0.0090902144   6.315794       762.05491     -15.068996      746.98592    
   1905000   297.94939      0.0090902144   4.809145       739.22065     -18.820353      720.4003     
   1906000   299.18973      0.0090902144   3.5103602      742.29796     -13.613251      728.6847     
   1907000   300.28931      0.0090902144   4.8251683      745.02605     -13.399526      731.62652    
   1908000   307.09234      0.0090902144   3.8755659      761.90456     -17.128934      744.77562    
   1909000   303.43799      0.0090902144   7.2496594      752.83803     -14.757971      738.08006    
   1910000   300.56276      0.0090902144   4.524692       745.70449     -12.452958      733.25153    
   1911000   307.73074      0.0090902144   4.809201       763.48846     -15.617468      747.87099    
   1912000   303.00344      0.0090902144   4.4156815      751.7599      -16.927724      734.83217    
   1913000   300.58077      0.0090902144   4.7084334      745.74918     -15.921862      729.82732    
   1914000   289.72302      0.0090902144   2.7128205      718.8108      -14.514856      704.29594    
   1915000   306.86503      0.0090902144   3.4605666      761.3406      -19.145759      742.19484    
   1916000   310.68236      0.0090902144   10.064546      770.81149     -19.153275      751.65821    
   1917000   296.24606      0.0090902144   8.1576975      734.99464     -15.722701      719.27194    
   1918000   292.71588      0.0090902144   7.6333131      726.23616     -12.309786      713.92638    
   1919000   292.51193      0.0090902144   0.4322436      725.73015     -15.416672      710.31348    
   1920000   299.14908      0.0090902144   2.8272428      742.1971      -12.837053      729.36005    
   1921000   303.67292      0.0090902144   10.573662      753.42088     -15.752502      737.66838    
   1922000   298.27395      0.0090902144   5.477695       740.02588     -16.609008      723.41687    
   1923000   308.70427      0.0090902144   4.5818843      765.90381     -21.271592      744.63222    
   1924000   294.17637      0.0090902144   2.6944624      729.85968     -21.299853      708.55983    
   1925000   321.68324      0.0090902144   5.5539713      798.10499     -20.332804      777.77219    
   1926000   315.62704      0.0090902144   4.5853213      783.0794      -23.757076      759.32232    
   1927000   298.90122      0.0090902144   7.1342538      741.58216     -20.240142      721.34202    
   1928000   289.28609      0.0090902144   8.8960757      717.72676     -17.769058      699.9577     
   1929000   294.09646      0.0090902144   3.8025188      729.66142     -19.055816      710.6056     
   1930000   298.94286      0.0090902144   0.42422373     741.68547     -19.600899      722.08457    
   1931000   310.5733       0.0090902144   2.7804291      770.54093     -19.61258       750.92835    
   1932000   287.08187      0.0090902144   8.2947755      712.25804     -18.243719      694.01432    
   1933000   291.75086      0.0090902144  -2.193557       723.84193     -16.074778      707.76716    
   1934000   318.55322      0.0090902144   3.8564333      790.33933     -16.901629      773.4377     
   1935000   290.75286      0.0090902144   9.1576389      721.36585     -14.671915      706.69394    
   1936000   298.95063      0.0090902144  -1.0947819      741.70475     -14.778478      726.92627    
   1937000   311.03455      0.0090902144   5.2589443      771.68529     -15.991735      755.69355    
   1938000   298.96208      0.0090902144   5.9244793      741.73315     -15.017769      726.71538    
   1939000   293.34583      0.0090902144   7.2450451      727.79908     -16.194012      711.60507    
   1940000   291.86226      0.0090902144   6.1171436      724.11832     -16.255696      707.86263    
   1941000   305.27143      0.0090902144  -1.115667       757.38683     -16.716485      740.67034    
   1942000   321.40818      0.0090902144   8.7253247      797.42256     -13.395615      784.02694    
   1943000   296.34708      0.0090902144   8.8779037      735.24528     -14.353893      720.89139    
   1944000   289.28865      0.0090902144   3.7965335      717.73312     -16.089985      701.64314    
   1945000   296.95621      0.0090902144  -1.3764892      736.75655     -14.353389      722.40316    
   1946000   305.08435      0.0090902144   4.1910125      756.92267     -18.314885      738.60779    
   1947000   292.50666      0.0090902144   7.6949178      725.71708     -17.257563      708.45952    
   1948000   298.83975      0.0090902144   7.3327161      741.42967     -18.014627      723.41504    
   1949000   304.27322      0.0090902144   3.7999656      754.91025     -18.642593      736.26765    
   1950000   298.55531      0.0090902144   1.6211019      740.72396     -16.54193       724.18203    
   1951000   304.41935      0.0090902144   11.404026      755.27279     -16.602917      738.66987    
   1952000   304.73417      0.0090902144   4.9744077      756.05387     -17.208952      738.84492    
   1953000   289.27185      0.0090902144   6.0423208      717.69144     -14.693549      702.99789    
   1954000   292.93155      0.0090902144   3.0617354      726.77126     -13.345727      713.42553    
   1955000   311.33403      0.0090902144   8.4156634      772.42831     -16.363653      756.06465    
   1956000   300.23784      0.0090902144   4.4839632      744.89835     -17.220337      727.67801    
   1957000   295.82822      0.0090902144   1.2286161      733.95797     -13.280597      720.67737    
   1958000   308.78242      0.0090902144   4.1237215      766.09769     -13.96929       752.1284     
   1959000   301.37147      0.0090902144   9.0204929      747.71093     -12.257404      735.45352    
   1960000   297.09192      0.0090902144   4.4576753      737.09324     -14.097566      722.99567    
   1961000   311.82516      0.0090902144   5.0120139      773.64683     -14.403585      759.24325    
   1962000   304.4148       0.0090902144   5.4363067      755.2615      -15.043525      740.21798    
   1963000   296.35744      0.0090902144   5.2183978      735.27098     -18.586945      716.68404    
   1964000   307.01044      0.0090902144   4.7028928      761.70137     -15.120734      746.58064    
   1965000   307.59882      0.0090902144   5.2029451      763.16115     -14.476655      748.6845     
   1966000   296.88178      0.0090902144   4.7015837      736.57187     -16.178419      720.39345    
   1967000   299.65633      0.0090902144   5.5383563      743.45562     -18.345377      725.11024    
   1968000   304.28325      0.0090902144   4.5717229      754.93514     -14.139293      740.79584    
   1969000   307.57456      0.0090902144   5.4937762      763.10095     -17.144405      745.95655    
   1970000   292.05617      0.0090902144   5.9113519      724.5994      -16.023778      708.57563    
   1971000   294.46157      0.0090902144   4.7730922      730.56727     -14.389872      716.1774     
   1972000   310.59522      0.0090902144   4.7793995      770.5953      -19.569482      751.02582    
   1973000   311.43597      0.0090902144   7.7702465      772.68123     -21.185788      751.49544    
   1974000   288.22776      0.0090902144   6.1641443      715.10102     -20.955612      694.14541    
   1975000   302.22406      0.0090902144   4.1693156      749.82622     -18.819199      731.00702    
   1976000   317.33423      0.0090902144   5.4558319      787.31496     -18.613477      768.70148    
   1977000   290.33866      0.0090902144   7.7840167      720.33822     -18.946213      701.39201    
   1978000   290.22549      0.0090902144   4.2610435      720.05744     -18.246552      701.81089    
   1979000   275.6987       0.0090902144   4.8710435      684.01606     -15.423729      668.59233    
   1980000   300.89709      0.0090902144   4.9572457      746.53397     -17.26287       729.2711     
   1981000   308.81261      0.0090902144   4.5743122      766.1726      -16.838073      749.33453    
   1982000   296.11821      0.0090902144   3.7767445      734.67745     -14.322987      720.35447    
   1983000   298.37237      0.0090902144   6.0502808      740.27008     -17.905955      722.36412    
   1984000   291.65839      0.0090902144   5.7316459      723.6125      -17.076722      706.53578    
   1985000   305.38637      0.0090902144   5.0162398      757.67201     -18.538793      739.13322    
   1986000   299.44703      0.0090902144   4.2256475      742.93635     -17.439993      725.49635    
   1987000   285.16287      0.0090902144   4.8442641      707.49693     -18.340151      689.15678    
   1988000   286.94461      0.0090902144   3.6185779      711.91749     -21.492051      690.42544    
   1989000   308.65332      0.0090902144   5.1310238      765.77741     -19.932449      745.84496    
   1990000   308.48557      0.0090902144   5.8240621      765.36121     -21.964007      743.3972     
   1991000   294.80969      0.0090902144   5.6183034      731.43098     -17.531656      713.89932    
   1992000   285.22553      0.0090902144   2.6536337      707.6524      -16.602207      691.05019    
   1993000   302.32814      0.0090902144   4.8413703      750.08444     -18.389084      731.69535    
   1994000   306.5149       0.0090902144   6.2304339      760.47191     -18.541026      741.93088    
   1995000   289.27911      0.0090902144   5.0192452      717.70944     -19.326639      698.3828     
   1996000   294.75514      0.0090902144   4.7634396      731.29562     -17.348484      713.94713    
   1997000   309.45443      0.0090902144   5.0908598      767.76497     -20.658625      747.10634    
   1998000   307.86584      0.0090902144   5.7526029      763.82363     -18.134649      745.68898    
   1999000   279.91843      0.0090902144   5.0973173      694.48533     -22.252181      672.23315    
   2000000   302.77259      0.0090902144   5.4530549      751.18715     -21.413854      729.77329    
   2001000   309.11076      0.0090902144   4.9348725      766.91232     -16.908911      750.00341    
   2002000   293.30539      0.0090902144   3.9433094      727.69877     -21.457496      706.24127    
   2003000   289.57631      0.0090902144   4.9835937      718.44682     -21.535017      696.9118     
   2004000   314.77329      0.0090902144   6.5512006      780.9612      -18.56629       762.39491    
   2005000   299.52313      0.0090902144   4.0857537      743.12513     -17.156504      725.96863    
   2006000   299.93405      0.0090902144   4.856474       744.14465     -17.983955      726.1607     
   2007000   287.84155      0.0090902144   9.3817984      714.14282     -20.339345      693.80347    
   2008000   312.88183      0.0090902144   7.0289318      776.26844     -19.050666      757.21777    
   2009000   305.60482      0.0090902144   3.2476128      758.21398     -17.513121      740.70086    
   2010000   284.62538      0.0090902144   6.454763       706.16341     -18.317077      687.84634    
   2011000   295.90965      0.0090902144   7.0420657      734.15999     -17.862136      716.29786    
   2012000   313.62992      0.0090902144   6.1386033      778.12447     -19.996735      758.12774    
   2013000   308.00389      0.0090902144   3.9154966      764.16613     -17.206232      746.9599     
   2014000   287.47006      0.0090902144   4.2424923      713.22115     -16.344154      696.877      
   2015000   298.47161      0.0090902144   7.0911058      740.51628     -14.484408      726.03187    
   2016000   313.23134      0.0090902144   4.5197404      777.13558     -13.968908      763.16668    
   2017000   292.71534      0.0090902144   4.4840068      726.23484     -17.17333       709.06151    
   2018000   300.46         0.0090902144   6.6305737      745.44953     -14.580008      730.86952    
   2019000   308.56785      0.0090902144   5.1538377      765.56533     -15.899374      749.66596    
   2020000   294.32349      0.0090902144   2.7779855      730.2247      -16.908284      713.31642    
   2021000   284.89416      0.0090902144   7.4352254      706.83026     -15.523024      691.30724    
   2022000   297.45013      0.0090902144   8.7867197      737.98196     -16.222478      721.75948    
   2023000   311.54269      0.0090902144   3.4522838      772.94599     -16.979676      755.96631    
   2024000   309.49216      0.0090902144   2.1626393      767.85859     -15.575224      752.28336    
   2025000   296.05315      0.0090902144   3.6509563      734.51603     -15.303425      719.2126     
   2026000   294.90511      0.0090902144   9.3699489      731.6677      -16.221007      715.44669    
   2027000   302.34421      0.0090902144   0.76142926     750.12432     -14.475672      735.64865    
   2028000   305.76527      0.0090902144   2.2461098      758.61206     -15.926938      742.68512    
   2029000   294.11916      0.0090902144   8.7966634      729.71773     -19.341426      710.37631    
   2030000   302.86027      0.0090902144   4.8579387      751.40469     -16.201947      735.20274    
   2031000   292.54241      0.0090902144   0.46433301     725.80579     -13.007935      712.79785    
   2032000   300.50894      0.0090902144   7.3968007      745.57096     -11.81218       733.75878    
   2033000   307.16789      0.0090902144   2.2622116      762.092       -14.348155      747.74385    
   2034000   290.84362      0.0090902144   1.6896659      721.59105     -15.971523      705.61952    
   2035000   294.47778      0.0090902144   6.3677097      730.60748     -18.133418      712.47406    
   2036000   298.999        0.0090902144   8.3608877      741.82476     -19.153206      722.67155    
   2037000   298.59277      0.0090902144   5.5836732      740.8169      -16.989975      723.82692    
   2038000   302.42389      0.0090902144   2.9946298      750.322       -16.339177      733.98282    
   2039000   297.9208       0.0090902144   4.3289317      739.14973     -16.058549      723.09118    
   2040000   305.00423      0.0090902144   6.926589       756.7239      -16.645044      740.07885    
   2041000   301.87541      0.0090902144   7.5203934      748.96121     -15.407687      733.55353    
   2042000   295.19347      0.0090902144  -1.4269996      732.38313     -14.512684      717.87045    
   2043000   289.17044      0.0090902144   1.1500177      717.43984     -12.868817      704.57102    
   2044000   297.12046      0.0090902144   8.4262499      737.16406     -15.421178      721.74288    
   2045000   314.48465      0.0090902144   3.6687152      780.24507     -13.192824      767.05225    
   2046000   317.89644      0.0090902144   0.52827331     788.70982     -13.743357      774.96647    
   2047000   290.1971       0.0090902144   0.19390432     719.98701     -17.363909      702.6231     
   2048000   301.90876      0.0090902144   5.5315433      749.04397     -16.866415      732.17755    
   2049000   305.3727       0.0090902144   7.3719089      757.63809     -16.338338      741.29976    
   2050000   297.03801      0.0090902144   4.9640889      736.95949     -17.159514      719.79998    
   2051000   293.95136      0.0090902144   4.5924606      729.30142     -15.338223      713.9632     
   2052000   296.90865      0.0090902144   4.9530889      736.63855     -16.336627      720.30193    
   2053000   294.60968      0.0090902144   4.7284142      730.93474     -16.242766      714.69198    
   2054000   306.87659      0.0090902144   5.6043822      761.36928     -15.680844      745.68844    
   2055000   308.98867      0.0090902144   5.3132725      766.60942     -14.660857      751.94856    
   2056000   295.09657      0.0090902144   5.6978513      732.14272     -14.538345      717.60437    
   2057000   298.40128      0.0090902144   4.5993644      740.34181     -12.685801      727.65601    
   2058000   308.11906      0.0090902144   7.2179039      764.45188     -14.904921      749.54696    
   2059000   303.82342      0.0090902144   4.9944011      753.79428     -14.116013      739.67827    
   2060000   282.47653      0.0090902144   4.7226852      700.83207     -13.450702      687.38136    
   2061000   287.12909      0.0090902144   5.1879436      712.37519     -13.636228      698.73897    
   2062000   307.57752      0.0090902144   4.9277248      763.10831     -16.478589      746.62972    
   2063000   293.66967      0.0090902144   5.5661409      728.60256     -16.112792      712.48976    
   2064000   300.18957      0.0090902144   3.0866733      744.7786      -16.303902      728.4747     
   2065000   309.26914      0.0090902144   2.7569598      767.30525     -19.814752      747.4905     
   2066000   293.57762      0.0090902144   4.9766737      728.37416     -16.141769      712.23239    
   2067000   296.46839      0.0090902144   3.705634       735.54626     -20.040544      715.50571    
   2068000   313.52416      0.0090902144   4.9368805      777.86208     -14.195685      763.6664     
   2069000   308.60199      0.0090902144   5.996836       765.65005     -14.456377      751.19368    
   2070000   285.79239      0.0090902144   5.2772366      709.05881     -17.46848       691.59033    
   2071000   306.56225      0.0090902144   5.0649685      760.58939     -16.015721      744.57367    
   2072000   301.012        0.0090902144   4.4605929      746.81907     -18.220277      728.59879    
   2073000   309.66271      0.0090902144   4.3144155      768.28171     -18.233963      750.04775    
   2074000   295.95166      0.0090902144   5.8916401      734.26422     -19.404791      714.85943    
   2075000   296.31509      0.0090902144   5.7419114      735.1659      -17.310801      717.8551     
   2076000   304.42902      0.0090902144   1.0005985      755.29679     -17.02072       738.27607    
   2077000   304.56048      0.0090902144   3.9821406      755.62294     -20.151483      735.47145    
   2078000   298.7243       0.0090902144   5.4108461      741.14321     -17.614092      723.52912    
   2079000   291.78222      0.0090902144   2.4793896      723.91973     -18.986265      704.93346    
   2080000   309.14892      0.0090902144   6.1151878      767.007       -16.536024      750.47098    
   2081000   294.89531      0.0090902144   4.5278812      731.6434      -16.698899      714.9445     
   2082000   294.58763      0.0090902144   1.856918       730.88003     -17.376671      713.50336    
   2083000   305.64017      0.0090902144   8.0172896      758.30169     -15.559836      742.74186    
   2084000   296.91914      0.0090902144   7.4689237      736.66457     -12.836227      723.82835    
   2085000   301.28414      0.0090902144   0.66045943     747.49425     -14.747478      732.74678    
   2086000   304.04565      0.0090902144   6.4066503      754.34564     -14.345164      740.00047    
   2087000   279.55715      0.0090902144   10.587531      693.589       -16.339211      677.24979    
   2088000   296.34288      0.0090902144   7.7876845      735.23484     -15.158761      720.07608    
   2089000   293.31598      0.0090902144   3.3246781      727.72503     -19.769617      707.95542    
   2090000   291.6742       0.0090902144   3.5931266      723.65172     -16.0503        707.60142    
   2091000   310.69509      0.0090902144   5.7248555      770.84308     -16.388414      754.45466    
   2092000   314.83601      0.0090902144   5.5684202      781.11683     -15.51941       765.59742    
   2093000   294.87946      0.0090902144   6.8627049      731.60406     -12.511782      719.09228    
   2094000   288.51735      0.0090902144  -0.48453957     715.81949     -14.503051      701.31644    
   2095000   309.60987      0.0090902144   2.3734597      768.15061     -13.734442      754.41617    
   2096000   318.62095      0.0090902144   10.548699      790.50736     -11.52708       778.98028    
   2097000   295.59158      0.0090902144   5.2334527      733.37085     -15.339004      718.03185    
   2098000   287.53966      0.0090902144   1.8479056      713.39382     -15.127578      698.26624    
   2099000   312.44335      0.0090902144   2.8499556      775.18055     -16.636799      758.54376    
   2100000   303.39045      0.0090902144   10.209791      752.72008     -16.214091      736.50599    
   2101000   297.34241      0.0090902144   12.256301      737.71472     -17.316289      720.39843    
   2102000   290.45541      0.0090902144   5.2197084      720.62787     -16.011356      704.61652    
   2103000   303.19607      0.0090902144   0.17062402     752.2378      -15.309802      736.928      
   2104000   293.77261      0.0090902144  -3.7895246      728.85793     -16.267627      712.5903     
   2105000   303.93802      0.0090902144   1.3650959      754.07861     -15.150855      738.92775    
   2106000   307.3643       0.0090902144   8.4731222      762.57929     -14.93917       747.64012    
   2107000   301.4802       0.0090902144   7.271687       747.98069     -15.313637      732.66705    
   2108000   300.80641      0.0090902144   4.9020577      746.309       -12.903126      733.40587    
   2109000   301.63138      0.0090902144   3.4412606      748.35578     -12.904202      735.45158    
   2110000   303.24103      0.0090902144   9.7718533      752.34935     -12.552387      739.79696    
   2111000   302.35099      0.0090902144   7.4955972      750.14115     -13.277658      736.86349    
   2112000   294.86729      0.0090902144   5.0047028      731.57388     -9.2990984      722.27478    
   2113000   299.94273      0.0090902144  -0.99307566     744.16617     -11.177515      732.98865    
   2114000   304.06106      0.0090902144   0.41791217     754.38387     -13.601415      740.78246    
   2115000   301.28334      0.0090902144   6.6725807      747.49228     -12.010612      735.48167    
   2116000   294.29585      0.0090902144   2.6904016      730.15612     -13.572062      716.58406    
   2117000   304.06447      0.0090902144   2.1240854      754.39232     -13.615152      740.77717    
   2118000   303.44828      0.0090902144   1.4995413      752.86356     -16.855563      736.00799    
   2119000   303.97615      0.0090902144   7.6537783      754.1732      -13.725925      740.44728    
   2120000   287.13658      0.0090902144   8.5560722      712.39377     -14.886233      697.50753    
   2121000   298.56452      0.0090902144   2.6994477      740.7468      -15.98683       724.75997    
   2122000   329.54137      0.0090902144   1.1830291      817.60123     -13.707612      803.89362    
   2123000   299.97929      0.0090902144   6.9103089      744.25688     -22.08899       722.16789    
   2124000   293.60293      0.0090902144   4.1336258      728.43697     -15.403539      713.03343    
   2125000   295.96691      0.0090902144   1.9928185      734.30207     -15.117291      719.18478    
   2126000   300.47422      0.0090902144   8.5949441      745.48482     -14.886539      730.59828    
   2127000   298.78224      0.0090902144   6.3248751      741.28697     -12.978804      728.30817    
   2128000   297.10894      0.0090902144   4.3708157      737.13546     -19.044377      718.09109    
   2129000   301.25695      0.0090902144   4.4603816      747.4268      -13.830255      733.59654    
   2130000   301.76144      0.0090902144   6.6396453      748.67845     -18.062207      730.61625    
   2131000   296.01959      0.0090902144   4.5921825      734.43276     -16.335096      718.09766    
   2132000   304.69499      0.0090902144   5.1607114      755.95668     -18.478601      737.47808    
   2133000   308.0063       0.0090902144   5.2987015      764.17213     -16.826678      747.34545    
   2134000   302.28363      0.0090902144   5.3585551      749.97402     -14.511439      735.46259    
   2135000   294.21721      0.0090902144   3.3012007      729.961       -14.892607      715.06839    
   2136000   299.60244      0.0090902144   5.716473       743.32191     -14.035684      729.28623    
   2137000   298.91979      0.0090902144   6.1998048      741.62825     -13.725761      727.90249    
   2138000   287.62465      0.0090902144   4.6106429      713.60468     -16.84945       696.75523    
   2139000   307.59159      0.0090902144   5.724484       763.14321     -15.44553       747.69768    
   2140000   310.32837      0.0090902144   5.3849993      769.93325     -17.557112      752.37613    
   2141000   307.53379      0.0090902144   3.9453826      762.99982     -15.447323      747.55249    
   2142000   294.36559      0.0090902144   4.6177104      730.32915     -12.663831      717.66532    
   2143000   283.77749      0.0090902144   4.6890149      704.05978     -10.947054      693.11273    
   2144000   300.45172      0.0090902144   5.7829258      745.429       -10.630881      734.79812    
   2145000   318.59444      0.0090902144   4.0213167      790.4416      -10.911525      779.53007    
   2146000   294.16713      0.0090902144   3.9329197      729.83676     -13.520463      716.3163     
   2147000   293.2955       0.0090902144   6.5586178      727.67422     -14.540195      713.13403    
   2148000   311.09081      0.0090902144   7.4887894      771.82488     -15.292534      756.53235    
   2149000   319.60661      0.0090902144   1.9688073      792.95281     -16.081581      776.87123    
   2150000   292.04625      0.0090902144   3.4025469      724.5748      -14.648834      709.92597    
   2151000   299.45706      0.0090902144   6.2702543      742.96123     -13.560909      729.40032    
   2152000   305.91367      0.0090902144   4.8209881      758.98026     -16.29314       742.68712    
   2153000   297.66914      0.0090902144   4.857825       738.52533     -18.767129      719.7582     
   2154000   309.80126      0.0090902144   5.2487716      768.62547     -15.700396      752.92508    
   2155000   299.7278       0.0090902144   4.8229777      743.63293     -19.677433      723.9555     
   2156000   289.23026      0.0090902144   4.4382735      717.58825     -14.957557      702.63069    
   2157000   301.99432      0.0090902144   5.5890392      749.25623     -17.529872      731.72636    
   2158000   305.91245      0.0090902144   6.6224164      758.97721     -17.093537      741.88368    
   2159000   297.04847      0.0090902144   3.0186983      736.98545     -18.142079      718.84337    
   2160000   292.83917      0.0090902144   1.8597641      726.54204     -16.240576      710.30147    
   2161000   305.3787       0.0090902144   11.943048      757.65298     -17.05151       740.60147    
   2162000   300.75414      0.0090902144   3.334605       746.17931     -19.675658      726.50365    
   2163000   289.46698      0.0090902144   4.1984377      718.17556     -18.885789      699.28977    
   2164000   292.43867      0.0090902144   6.203792       725.54839     -22.695365      702.85303    
   2165000   293.29536      0.0090902144   9.2770458      727.67388     -14.750317      712.92356    
   2166000   298.3875       0.0090902144   7.5117988      740.3076      -17.531559      722.77604    
   2167000   302.96085      0.0090902144   8.8816314      751.65422     -11.971353      739.68286    
   2168000   304.17697      0.0090902144   2.4085377      754.67146     -13.606255      741.0652     
   2169000   291.75833      0.0090902144   1.7774477      723.86045     -15.986664      707.87378    
   2170000   307.50103      0.0090902144   8.6087985      762.91854     -15.641013      747.27752    
   2171000   308.32514      0.0090902144   3.2582654      764.96318     -18.116764      746.84641    
   2172000   282.85587      0.0090902144   4.2652469      701.77321     -12.335182      689.43803    
   2173000   296.28091      0.0090902144   7.7467101      735.0811      -14.576018      720.50508    
   2174000   300.74001      0.0090902144   11.552615      746.14424     -13.547761      732.59648    
   2175000   308.00761      0.0090902144   5.6175023      764.17538     -13.458209      750.71717    
   2176000   308.19913      0.0090902144   0.29470103     764.65054     -13.82593       750.82461    
   2177000   287.43179      0.0090902144   7.8359154      713.12619     -13.908033      699.21816    
   2178000   301.90515      0.0090902144   5.1292362      749.035       -14.488321      734.54668    
   2179000   310.15366      0.0090902144  -3.1746452      769.49977     -16.13563       753.36414    
   2180000   291.20152      0.0090902144   1.0749339      722.47899     -16.480617      705.99837    
   2181000   299.43028      0.0090902144   6.2823934      742.89478     -16.88703       726.00775    
   2182000   296.89816      0.0090902144   6.0692541      736.61252     -19.083306      717.52922    
   2183000   302.68168      0.0090902144   8.435543       750.96159     -19.321187      731.6404     
   2184000   318.75564      0.0090902144   9.1671139      790.84153     -17.092353      773.74918    
   2185000   302.78227      0.0090902144  -3.2651204      751.21116     -17.465755      733.7454     
   2186000   303.98676      0.0090902144  -9.3989         754.19952     -15.393131      738.80639    
   2187000   298.44635      0.0090902144  -3.524039       740.45361     -14.750576      725.70304    
   2188000   287.3501       0.0090902144   12.807718      712.92352     -15.283474      697.64005    
   2189000   302.55626      0.0090902144   16.372552      750.65043     -13.453829      737.1966     
   2190000   315.82026      0.0090902144   4.0754576      783.55876     -13.697382      769.86138    
   2191000   294.85057      0.0090902144  -5.7668913      731.53239     -11.170032      720.36236    
   2192000   291.37184      0.0090902144  -2.2989883      722.90156     -14.657945      708.24361    
   2193000   302.09731      0.0090902144   10.622582      749.51176     -15.507773      734.00399    
   2194000   309.60736      0.0090902144   7.7982479      768.14439     -14.442278      753.70211    
   2195000   293.376        0.0090902144   0.63027203     727.87395     -12.157258      715.71669    
   2196000   281.59887      0.0090902144   5.3371587      698.65457     -13.39078       685.26379    
   2197000   317.46971      0.0090902144   6.7474034      787.6511      -13.902425      773.74868    
   2198000   295.71566      0.0090902144  -8.4783383      733.67871     -18.197566      715.48115    
   2199000   287.65365      0.0090902144   3.3645907      713.67662     -13.946295      699.73033    
   2200000   308.40412      0.0090902144   11.03647       765.15912     -16.718446      748.44067    
   2201000   307.50557      0.0090902144   6.1947428      762.9298      -17.115007      745.81479    
   2202000   300.90274      0.0090902144  -1.1020592      746.548       -17.66638       728.88162    
   2203000   299.10952      0.0090902144   0.8424387      742.09895     -18.467344      723.63161    
   2204000   281.53714      0.0090902144   3.1361557      698.50141     -18.615618      679.88579    
   2205000   289.75592      0.0090902144   10.701488      718.89242     -18.530595      700.36182    
   2206000   298.89316      0.0090902144   5.2143222      741.56216     -17.263061      724.2991     
   2207000   304.00378      0.0090902144  -1.7663533      754.24177     -18.485274      735.75649    
   2208000   303.98838      0.0090902144   2.8989564      754.20356     -19.740532      734.46303    
   2209000   283.53311      0.0090902144   3.6656994      703.45347     -20.527687      682.92578    
   2210000   298.20995      0.0090902144   7.0764709      739.8671      -15.725665      724.14144    
   2211000   304.89441      0.0090902144  -1.5567838      756.45145     -17.280009      739.17144    
   2212000   287.06048      0.0090902144   4.9750637      712.20497     -15.653244      696.55172    
   2213000   300.53073      0.0090902144   5.9946577      745.62502     -16.369751      729.25527    
   2214000   298.17692      0.0090902144   1.8624955      739.78517     -16.941417      722.84375    
   2215000   304.34688      0.0090902144   6.6929794      755.093       -13.838726      741.25428    
   2216000   306.68955      0.0090902144   6.2482628      760.90523     -17.35575       743.54948    
   2217000   309.00961      0.0090902144   3.0618032      766.66137     -18.994942      747.66643    
   2218000   298.12805      0.0090902144   3.0149576      739.6639      -19.127025      720.53687    
   2219000   303.99385      0.0090902144   6.1778787      754.21713     -12.128327      742.0888     
   2220000   303.36726      0.0090902144   5.3706762      752.66254     -19.031892      733.63065    
   2221000   305.79478      0.0090902144   1.6117457      758.68529     -19.194064      739.49122    
   2222000   297.93563      0.0090902144   4.8177296      739.1865      -20.712066      718.47444    
   2223000   303.85689      0.0090902144   10.121051      753.87731     -15.566356      738.31096    
   2224000   296.21429      0.0090902144   3.4343719      734.91581     -18.391918      716.52389    
   2225000   303.73077      0.0090902144   2.9365785      753.56442     -16.711013      736.85341    
   2226000   295.53422      0.0090902144   6.4846193      733.22856     -12.419965      720.80859    
   2227000   312.03909      0.0090902144   9.7714083      774.17758     -11.478264      762.69932    
   2228000   300.94207      0.0090902144   1.6843128      746.64556     -12.421917      734.22364    
   2229000   288.14355      0.0090902144   3.4481801      714.89209     -10.942531      703.94956    
   2230000   300.22554      0.0090902144   14.332752      744.86784     -13.99563       730.87221    
   2231000   307.90438      0.0090902144   0.94912913     763.91925     -13.34973       750.56952    
   2232000   296.45398      0.0090902144   1.4009317      735.51048     -13.626626      721.88386    
   2233000   292.93938      0.0090902144   7.7779152      726.79069     -13.935536      712.85515    
   2234000   319.93541      0.0090902144   7.1823523      793.76857     -14.468469      779.3001     
   2235000   325.45672      0.0090902144   4.3122253      807.46708     -11.285571      796.18151    
   2236000   296.27183      0.0090902144   2.3073407      735.05857     -10.989982      724.06859    
   2237000   291.44735      0.0090902144   5.0451383      723.08891     -12.751011      710.3379     
   2238000   312.30576      0.0090902144   6.7183204      774.8392      -13.059626      761.77957    
   2239000   311.08522      0.0090902144  -1.5309265      771.811       -14.341443      757.46956    
   2240000   302.23065      0.0090902144   5.2615562      749.84258     -16.421807      733.42078    
   2241000   299.97479      0.0090902144   5.8180292      744.24572     -17.396634      726.84909    
   2242000   314.16632      0.0090902144   3.2234277      779.45531     -17.65585       761.79946    
   2243000   301.93294      0.0090902144   5.017145       749.10395     -17.556624      731.54733    
   2244000   296.38604      0.0090902144   7.7616774      735.34193     -17.666787      717.67514    
   2245000   303.4619       0.0090902144   5.2928151      752.89734     -20.089705      732.80763    
   2246000   310.68327      0.0090902144   5.1836736      770.81375     -17.643667      753.17008    
   2247000   298.83347      0.0090902144   6.8169234      741.41407     -19.205563      722.2085     
   2248000   295.99955      0.0090902144   6.8321369      734.38304     -19.936127      714.44692    
   2249000   305.76727      0.0090902144   5.5196639      758.61702     -17.813352      740.80366    
   2250000   300.33643      0.0090902144   4.3935624      745.14295     -13.870192      731.27276    
   2251000   303.35678      0.0090902144   4.8259468      752.63652     -16.117218      736.51931    
   2252000   293.74814      0.0090902144   5.0403918      728.79723     -14.628668      714.16856    
   2253000   294.48863      0.0090902144   5.5269376      730.63441     -15.717594      714.91681    
   2254000   313.53853      0.0090902144   5.1682642      777.89773     -18.496218      759.40151    
   2255000   303.09528      0.0090902144   5.256501       751.98774     -19.06592       732.92182    
   2256000   293.12213      0.0090902144   4.9044703      727.24408     -13.898121      713.34596    
   2257000   302.15586      0.0090902144   6.6057963      749.65703     -13.308543      736.34848    
   2258000   306.99654      0.0090902144   4.6262354      761.66689     -12.662974      749.00391    
   2259000   288.56931      0.0090902144   4.6349398      715.94842     -11.255845      704.69258    
   2260000   296.20298      0.0090902144   5.5081922      734.88775     -13.744554      721.1432     
   2261000   304.17324      0.0090902144   4.9857599      754.6622      -18.568852      736.09334    
   2262000   313.61875      0.0090902144   5.1656147      778.09676     -16.36404       761.73272    
   2263000   302.7434       0.0090902144   4.9208784      751.11472     -15.601699      735.51302    
   2264000   281.24535      0.0090902144   4.5889405      697.77746     -14.622526      683.15494    
   2265000   300.78925      0.0090902144   5.6561522      746.26643     -13.964748      732.30168    
   2266000   312.44879      0.0090902144   5.3509561      775.19407     -14.610319      760.58375    
   2267000   299.21363      0.0090902144   4.8248107      742.35727     -14.341552      728.01572    
   2268000   289.47055      0.0090902144   3.7301673      718.18442     -13.781693      704.40272    
   2269000   288.77759      0.0090902144   4.3752644      716.46517     -12.388386      704.07679    
   2270000   308.83856      0.0090902144   4.9252124      766.23698     -14.162207      752.07478    
   2271000   299.62927      0.0090902144   9.0982037      743.38848     -16.10909       727.27939    
   2272000   292.11141      0.0090902144   5.0977125      724.73646     -17.382466      707.354      
   2273000   292.76961      0.0090902144   3.9635571      726.36948     -18.440454      707.92903    
   2274000   299.52671      0.0090902144   4.4702791      743.13402     -18.585082      724.54894    
   2275000   298.41694      0.0090902144   9.0174683      740.38066     -17.95367       722.42699    
   2276000   287.76181      0.0090902144   4.6644435      713.94499     -17.84566       696.09933    
   2277000   283.11959      0.0090902144   0.15886346     702.4275      -17.194834      685.23267    
   2278000   301.1688       0.0090902144   4.6487119      747.2081      -18.844895      728.3632     
   2279000   295.252        0.0090902144   6.6792004      732.52836     -19.919878      712.60848    
   2280000   295.53786      0.0090902144   4.685479       733.23758     -22.308207      710.92938    
   2281000   306.33954      0.0090902144   5.0850597      760.03685     -26.003255      734.03359    
   2282000   293.56522      0.0090902144   4.8006994      728.34341     -22.740132      705.60328    
   2283000   302.88295      0.0090902144   5.3277159      751.46095     -20.056523      731.40443    
   2284000   288.31372      0.0090902144   3.7261001      715.31429     -18.606784      696.70751    
   2285000   304.61372      0.0090902144   5.5981591      755.75504     -17.907332      737.84771    
   2286000   310.63524      0.0090902144   5.5439713      770.69459     -21.572202      749.12239    
   2287000   295.36892      0.0090902144   5.420767       732.81844     -19.533453      713.28499    
   2288000   298.30255      0.0090902144   5.203475       740.09686     -13.788517      726.30834    
   2289000   291.03567      0.0090902144   5.2635843      722.06752     -15.563954      706.50356    
   2290000   290.66217      0.0090902144   5.3726354      721.14085     -13.870408      707.27044    
   2291000   299.19767      0.0090902144   5.2593201      742.31767     -18.526922      723.79075    
   2292000   304.14049      0.0090902144   5.1009123      754.58094     -16.936069      737.64487    
   2293000   306.15216      0.0090902144   4.3283846      759.57195     -18.800324      740.77162    
   2294000   300.25272      0.0090902144   5.6188597      744.93527     -20.577509      724.35776    
   2295000   290.95988      0.0090902144   5.5794459      721.87948     -18.306943      703.57254    
   2296000   298.45749      0.0090902144   3.3444487      740.48127     -16.750752      723.73051    
   2297000   296.74246      0.0090902144   4.5120824      736.22621     -15.981264      720.24495    
   2298000   301.2257       0.0090902144   5.0156512      747.34927     -16.989577      730.3597     
   2299000   293.83301      0.0090902144   6.5254662      729.0078      -17.672276      711.33553    
   2300000   300.11578      0.0090902144   4.7327181      744.59552     -16.040486      728.55503    
   2301000   306.84303      0.0090902144   3.1716805      761.28601     -19.638085      741.64793    
   2302000   301.05363      0.0090902144   4.8055647      746.92235     -19.782288      727.14006    
   2303000   300.52746      0.0090902144   5.0973157      745.6169      -17.055513      728.56139    
   2304000   298.81313      0.0090902144   4.8293094      741.36361     -16.072231      725.29138    
   2305000   298.50861      0.0090902144   3.816803       740.60809     -19.476258      721.13183    
   2306000   296.18599      0.0090902144   5.3418622      734.84561     -18.005014      716.84059    
   2307000   296.09115      0.0090902144   5.558226       734.6103      -18.193068      716.41724    
   2308000   298.5999       0.0090902144   8.7013025      740.83459     -18.840228      721.99436    
   2309000   294.51757      0.0090902144   4.1587795      730.7062      -15.529692      715.17651    
   2310000   299.86091      0.0090902144   0.38797337     743.96319     -15.876818      728.08638    
   2311000   294.98001      0.0090902144   5.9473912      731.85352     -16.260236      715.59329    
   2312000   293.70474      0.0090902144   7.700679       728.68955     -17.12085       711.5687     
   2313000   302.05908      0.0090902144   4.1390418      749.41691     -15.788659      733.62825    
   2314000   303.7995       0.0090902144  -5.3898221      753.73492     -16.334024      737.4009     
   2315000   306.41212      0.0090902144   6.5661895      760.21691     -15.647944      744.56897    
   2316000   302.25113      0.0090902144   7.7296855      749.89339     -17.394316      732.49907    
   2317000   296.74081      0.0090902144  -1.8418206      736.22212     -17.101478      719.12064    
   2318000   304.67388      0.0090902144   3.4767931      755.90429     -14.609423      741.29486    
   2319000   294.30537      0.0090902144   7.838854       730.17975     -16.113849      714.0659     
   2320000   297.32705      0.0090902144  -3.8652721      737.67661     -13.972919      723.7037     
   2321000   307.98146      0.0090902144   2.7330639      764.11049     -15.236803      748.87369    
   2322000   316.21142      0.0090902144   2.4701327      784.52925     -14.9431        769.58615    
   2323000   299.17444      0.0090902144   5.794623       742.26004     -16.78467       725.47537    
   2324000   295.78463      0.0090902144   6.0742639      733.84981     -21.314772      712.53504    
   2325000   292.78705      0.0090902144  -3.5996014      726.41275     -21.163345      705.2494     
   2326000   312.57109      0.0090902144  -1.7642833      775.49749     -23.814558      751.68293    
   2327000   309.44236      0.0090902144   9.0740595      767.73502     -20.88289       746.85213    
   2328000   290.72647      0.0090902144   13.565052      721.3004      -19.710533      701.58986    
   2329000   278.59825      0.0090902144   7.7085032      691.20995     -19.205276      672.00467    
   2330000   300.14361      0.0090902144   1.9018087      744.66457     -16.583174      728.08139    
   2331000   312.2168       0.0090902144   0.1378419      774.61848     -16.432724      758.18575    
   2332000   307.40218      0.0090902144   4.296207       762.67329     -19.193205      743.48008    
   2333000   295.17492      0.0090902144   5.1773913      732.33711     -21.251129      711.08598    
   2334000   293.36843      0.0090902144   7.9850673      727.85516     -20.934172      706.92099    
   2335000   295.60411      0.0090902144   10.410521      733.40195     -17.432081      715.96987    
   2336000   298.86422      0.0090902144   0.29393132     741.49037     -14.299045      727.19133    
   2337000   303.43127      0.0090902144  -0.47415782     752.82135     -14.464804      738.35654    
   2338000   307.63206      0.0090902144   10.869421      763.24362     -13.521813      749.72181    
   2339000   292.86674      0.0090902144   3.7509196      726.61045     -13.236857      713.37359    
   2340000   300.62226      0.0090902144   3.9095497      745.85212     -16.250735      729.60139    
   2341000   292.03295      0.0090902144   16.31362       724.5418      -15.104026      709.43777    
   2342000   296.92554      0.0090902144   0.81108178     736.68045     -14.192319      722.48813    
   2343000   300.17522      0.0090902144   4.5244402      744.74298     -16.712233      728.03075    
   2344000   291.23651      0.0090902144   8.4938724      722.56581     -18.680211      703.8856     
   2345000   299.58355      0.0090902144   2.1101783      743.27505     -14.817218      728.45783    
   2346000   297.20835      0.0090902144   5.1982578      737.38211     -10.422249      726.95986    
   2347000   305.18561      0.0090902144   6.062511       757.17392     -15.888206      741.28571    
   2348000   289.73386      0.0090902144  -0.32359819     718.8377      -13.999032      704.83867    
   2349000   301.0756       0.0090902144   4.5855361      746.97686     -13.839204      733.13765    
   2350000   296.68794      0.0090902144   6.1806114      736.09096     -11.274219      724.81674    
   2351000   294.84976      0.0090902144   5.0207575      731.53037     -14.069544      717.46083    
   2352000   303.85326      0.0090902144  -0.32108672     753.86833     -17.197904      736.67042    
   2353000   314.83028      0.0090902144   7.3751104      781.1026      -12.026064      769.07654    
   2354000   294.05996      0.0090902144   6.907354       729.57087     -15.926332      713.64454    
   2355000   292.96375      0.0090902144   0.67974022     726.85114     -13.105484      713.74566    
   2356000   300.74128      0.0090902144   3.8281091      746.1474      -12.596344      733.55106    
   2357000   313.38787      0.0090902144   2.9684705      777.52394     -11.349522      766.17442    
   2358000   304.25064      0.0090902144   5.3763137      754.85424     -11.762079      743.09216    
   2359000   297.38419      0.0090902144   5.4887547      737.81836     -13.211879      724.60649    
   2360000   294.42814      0.0090902144   4.2957825      730.48434     -13.674808      716.80953    
   2361000   309.32708      0.0090902144   1.36067        767.44901     -13.091018      754.35799    
   2362000   305.38383      0.0090902144   4.8485976      757.6657      -12.125622      745.54007    
   2363000   287.59381      0.0090902144   8.1602639      713.52817     -13.334522      700.19365    
   2364000   297.3216       0.0090902144   4.0996968      737.6631      -10.436849      727.22625    
   2365000   315.83442      0.0090902144   5.035862       783.59391     -11.978571      771.61533    
   2366000   309.1449       0.0090902144   5.5902296      766.99703     -13.70746       753.28957    
   2367000   289.69785      0.0090902144   4.5135662      718.74834     -16.053691      702.69465    
   2368000   297.02966      0.0090902144   3.2145045      736.93876     -16.362423      720.57634    
   2369000   304.17059      0.0090902144   3.6039315      754.65562     -13.456327      741.19929    
   2370000   307.26478      0.0090902144   4.9922597      762.3324      -14.330096      748.0023     
   2371000   304.19787      0.0090902144   1.4261228      754.72329     -12.086334      742.63696    
   2372000   299.42556      0.0090902144   6.5801584      742.88306     -12.562561      730.3205     
   2373000   299.53159      0.0090902144   9.0232961      743.14613     -12.243981      730.90214    
   2374000   294.55282      0.0090902144   3.9322673      730.79367     -9.084693       721.70898    
   2375000   295.92768      0.0090902144   5.2162275      734.20473     -10.49114       723.71359    
   2376000   304.57443      0.0090902144   5.257187       755.65755     -10.759851      744.8977     
   2377000   304.63456      0.0090902144   5.2787713      755.80674     -8.9852862      746.82145    
   2378000   291.23219      0.0090902144   1.149663       722.55508     -8.2941449      714.26094    
   2379000   309.02542      0.0090902144   1.2310755      766.70058     -11.714233      754.98635    
   2380000   304.7968       0.0090902144   6.6769275      756.20927     -13.307044      742.90223    
   2381000   301.59911      0.0090902144   6.997213       748.27571     -13.006338      735.26937    
   2382000   289.11432      0.0090902144   3.1612548      717.30061     -16.80062       700.49999    
   2383000   305.21175      0.0090902144   2.755989       757.23877     -17.814361      739.42441    
   2384000   304.73406      0.0090902144   3.3799373      756.05359     -17.272569      738.78102    
   2385000   317.52144      0.0090902144   6.8128405      787.77946     -15.651538      772.12792    
   2386000   288.36399      0.0090902144   5.1064088      715.43901     -14.759223      700.67979    
   2387000   289.82157      0.0090902144   4.6249148      719.05531     -17.336655      701.71865    
   2388000   313.88547      0.0090902144   4.5976893      778.7585      -16.231519      762.52698    
   2389000   304.03945      0.0090902144   5.2093187      754.33025     -12.516167      741.81409    
   2390000   305.5154       0.0090902144   5.4615875      757.99212     -15.488942      742.50318    
   2391000   339.43861      0.0090902144   5.8436682      842.15655     -16.148067      826.00848    
   2392000   294.48182      0.0090902144   4.7194914      730.61752     -16.553064      714.06446    
   2393000   296.71007      0.0090902144   4.0211642      736.14585     -20.407741      715.73811    
   2394000   300.14972      0.0090902144   5.2511873      744.67972     -19.387082      725.29264    
   2395000   311.77388      0.0090902144   5.1504162      773.51959     -17.952013      755.56758    
   2396000   295.84074      0.0090902144   4.9672605      733.98902     -17.479047      716.50997    
   2397000   287.05821      0.0090902144   4.4495066      712.19933     -17.020896      695.17843    
   2398000   309.177        0.0090902144   5.3900291      767.07665     -18.408554      748.6681     
   2399000   302.81453      0.0090902144   4.689523       751.2912      -14.46989       736.82131    
   2400000   274.2193       0.0090902144   3.2519788      680.34563     -14.504731      665.8409     
   2401000   293.53491      0.0090902144   5.7601398      728.2682      -13.086361      715.18184    
   2402000   301.36039      0.0090902144   6.47472        747.68342     -12.231806      735.45162    
   2403000   307.20008      0.0090902144   4.493848       762.17186     -12.471943      749.69992    
   2404000   289.53789      0.0090902144   1.0557018      718.35148     -11.501064      706.85041    
   2405000   296.25438      0.0090902144   8.228532       735.01527     -11.916348      723.09892    
   2406000   302.51465      0.0090902144   5.735326       750.54719     -10.034387      740.5128     
   2407000   310.06223      0.0090902144  -1.8410469      769.27293     -14.622841      754.65009    
   2408000   288.25945      0.0090902144  -1.5136163      715.17965     -15.41143       699.76822    
   2409000   295.05295      0.0090902144   5.7371919      732.0345      -14.380405      717.65409    
   2410000   298.20606      0.0090902144   6.4113846      739.85745     -20.149392      719.70805    
   2411000   303.18013      0.0090902144   5.8487128      752.19826     -15.723521      736.47474    
   2412000   305.81118      0.0090902144   2.7187949      758.72596     -16.555879      742.17008    
   2413000   301.27688      0.0090902144   5.3539363      747.47625     -20.727615      726.74864    
   2414000   303.69449      0.0090902144   12.15912       753.47439     -15.705043      737.76935    
   2415000   302.07005      0.0090902144   8.3161221      749.44412     -15.77758       733.66654    
   2416000   305.22952      0.0090902144   4.0205428      757.28285     -18.040906      739.24194    
   2417000   287.17589      0.0090902144   1.0554659      712.49131     -22.862416      689.62889    
   2418000   281.16547      0.0090902144   4.5951157      697.57928     -19.582801      677.99648    
   2419000   293.13472      0.0090902144   10.936306      727.27532     -17.090575      710.18474    
   2420000   313.59092      0.0090902144   10.996236      778.02772     -15.980525      762.04719    
   2421000   305.0921       0.0090902144   3.9854563      756.9419      -12.712984      744.22891    
   2422000   293.07771      0.0090902144   3.0446316      727.13388     -10.916955      716.21693    
   2423000   291.87322      0.0090902144   10.570734      724.14551     -10.679034      713.46647    
   2424000   310.49359      0.0090902144   5.1081216      770.34317     -13.74642       756.59675    
   2425000   299.68086      0.0090902144   1.0924373      743.51648     -15.644045      727.87243    
   2426000   298.48534      0.0090902144   11.677029      740.55035     -18.88476       721.66559    
   2427000   301.43287      0.0090902144   4.7835111      747.86326     -20.158646      727.70461    
   2428000   303.86288      0.0090902144   3.726659       753.89219     -17.201696      736.69049    
   2429000   295.53517      0.0090902144   5.148602       733.23091     -11.654439      721.57647    
   2430000   295.22544      0.0090902144   6.4945676      732.46246     -14.960344      717.50211    
   2431000   305.43972      0.0090902144   5.6466179      757.80437     -12.892791      744.91158    
   2432000   310.82466      0.0090902144   1.2510116      771.16455     -10.098946      761.06561    
   2433000   302.63559      0.0090902144   4.8058863      750.84724     -9.7292375      741.118      
   2434000   289.38801      0.0090902144   4.8077402      717.97962     -10.761281      707.21834    
   2435000   308.92278      0.0090902144   5.8744263      766.44594     -11.202288      755.24365    
   2436000   320.2623       0.0090902144   4.2091301      794.57959     -15.371607      779.20799    
   2437000   296.97952      0.0090902144   4.8107504      736.81436     -10.30727       726.50709    
   2438000   301.69529      0.0090902144   8.3843882      748.51432     -14.856166      733.65816    
   2439000   305.95761      0.0090902144   6.7483317      759.08927     -17.256931      741.83234    
   2440000   309.22738      0.0090902144   4.5048817      767.20166     -16.687758      750.5139     
   2441000   281.75524      0.0090902144   2.5116024      699.04252     -18.882744      680.15978    
   2442000   290.42079      0.0090902144   5.2658951      720.54199     -19.293681      701.24831    
   2443000   308.21585      0.0090902144   5.3020343      764.69203     -17.219227      747.4728     
   2444000   308.79164      0.0090902144   6.6250986      766.12057     -12.274958      753.84561    
   2445000   289.01532      0.0090902144   5.1159611      717.05497     -13.717465      703.3375     
   2446000   290.61726      0.0090902144   4.5543137      721.02943     -13.206195      707.82324    
   2447000   306.77693      0.0090902144   5.116473       761.12201     -13.142611      747.9794     
   2448000   292.82336      0.0090902144   4.7859811      726.50282     -15.834708      710.66811    
   2449000   288.93424      0.0090902144   5.6468708      716.85382     -10.438906      706.41491    
   2450000   297.62369      0.0090902144   4.3102557      738.41259     -11.974401      726.43819    
   2451000   289.89278      0.0090902144   3.9165692      719.23197     -13.679464      705.5525     
   2452000   301.40985      0.0090902144   4.1892707      747.80615     -18.13822       729.66793    
   2453000   300.65521      0.0090902144   5.1066123      745.93386     -18.899918      727.03394    
   2454000   299.07989      0.0090902144   5.0414247      742.02545     -17.090695      724.93475    
   2455000   291.86369      0.0090902144   5.138297       724.12186     -15.820503      708.30136    
   2456000   288.59756      0.0090902144   7.7829924      716.01851     -15.151544      700.86697    
   2457000   304.26221      0.0090902144   5.0170089      754.88294     -15.235428      739.64751    
   2458000   306.69885      0.0090902144   4.4558514      760.9283      -12.679391      748.24891    
   2459000   295.02826      0.0090902144   5.7113907      731.97324     -14.513108      717.46013    
   2460000   294.90942      0.0090902144   4.982506       731.67841     -14.647775      717.03063    
   2461000   300.90899      0.0090902144   4.963554       746.56349     -16.871862      729.69163    
   2462000   308.91234      0.0090902144   4.6640537      766.42003     -13.259964      753.16007    
   2463000   294.34842      0.0090902144   5.0821026      730.28655     -17.706421      712.58013    
   2464000   306.03334      0.0090902144   5.781831       759.27716     -17.64212       741.63504    
   2465000   312.58073      0.0090902144   4.678034       775.52141     -14.874937      760.64647    
   2466000   305.55823      0.0090902144   4.4703651      758.0984      -16.217175      741.88123    
   2467000   281.13581      0.0090902144   5.3762794      697.50569     -13.798209      683.70749    
   2468000   307.31971      0.0090902144   7.1021676      762.46868     -13.658344      748.81034    
   2469000   310.00351      0.0090902144   3.7226288      769.12725     -15.147921      753.97933    
   2470000   306.73124      0.0090902144   4.8894549      761.00865     -15.402743      745.60591    
   2471000   296.00305      0.0090902144   4.7169591      734.39172     -19.228819      715.1629     
   2472000   282.65218      0.0090902144   4.986559       701.26785     -17.878229      683.38962    
   2473000   299.20185      0.0090902144   6.9005858      742.32804     -15.92679       726.40125    
   2474000   310.00555      0.0090902144   7.2241091      769.13232     -15.419701      753.71261    
   2475000   302.50281      0.0090902144   2.8461393      750.51782     -15.559859      734.95796    
   2476000   305.05626      0.0090902144   4.6949589      756.85298     -17.293856      739.55913    
   2477000   295.15959      0.0090902144   5.8920698      732.29908     -15.256312      717.04277    
   2478000   302.31595      0.0090902144   5.146785       750.05421     -15.928979      734.12523    
   2479000   309.69739      0.0090902144   0.57887203     768.36777     -16.689969      751.67781    
   2480000   294.62126      0.0090902144   4.5629975      730.96348     -18.667242      712.29624    
   2481000   299.65731      0.0090902144   7.0505665      743.45804     -19.665217      723.79282    
   2482000   312.5257       0.0090902144   6.3286026      775.38488     -18.384056      757.00082    
   2483000   301.48074      0.0090902144   3.7887674      747.98204     -18.675066      729.30697    
   2484000   288.15772      0.0090902144   4.9109617      714.92723     -18.547917      696.37932    
   2485000   315.64496      0.0090902144   8.7315725      783.12384     -21.313581      761.81026    
   2486000   309.17477      0.0090902144   4.8499386      767.07112     -16.897737      750.17338    
   2487000   300.2783       0.0090902144   5.0538766      744.99873     -17.050437      727.94829    
   2488000   286.34688      0.0090902144   5.4154878      710.4345      -17.366994      693.0675     
   2489000   289.58886      0.0090902144   4.9124975      718.47794     -16.558207      701.91973    
   2490000   303.73653      0.0090902144   6.1684131      753.57871     -16.786404      736.79231    
   2491000   293.0473       0.0090902144   5.8426429      727.05844     -14.440327      712.61811    
   2492000   303.3835       0.0090902144   2.9590785      752.70283     -15.622802      737.08003    
   2493000   300.02256      0.0090902144   5.8525337      744.36425     -16.862425      727.50183    
   2494000   303.04148      0.0090902144   5.1912809      751.85427     -19.813384      732.04088    
   2495000   301.65987      0.0090902144   2.8015312      748.42645     -16.619627      731.80683    
   2496000   286.30545      0.0090902144   3.2613687      710.3317      -14.535859      695.79584    
   2497000   294.03306      0.0090902144   4.3175477      729.50413     -18.216986      711.28715    
   2498000   304.43132      0.0090902144   7.7694361      755.3025      -17.51205       737.79045    
   2499000   304.0228       0.0090902144   5.0234238      754.28896     -16.623518      737.66544    
   2500000   295.69178      0.0090902144   2.9411711      733.61945     -18.735159      714.88429    
   2501000   307.19468      0.0090902144   4.9628764      762.15847     -20.594798      741.56367    
   2502000   300.7236       0.0090902144   2.1477018      746.10355     -18.014374      728.08917    
   2503000   289.58826      0.0090902144   1.5147723      718.47645     -17.067026      701.40943    
   2504000   291.47936      0.0090902144   5.3517457      723.16833     -18.794476      704.37385    
   2505000   302.99723      0.0090902144   5.2073585      751.74448     -17.194739      734.54974    
   2506000   308.03391      0.0090902144   3.4636069      764.24062     -16.127886      748.11273    
   2507000   299.93765      0.0090902144   2.473301       744.15358     -16.971572      727.182      
   2508000   286.18104      0.0090902144   3.3842331      710.02304     -16.927785      693.09525    
   2509000   301.7736       0.0090902144   5.4505163      748.70863     -18.128085      730.58054    
   2510000   294.81918      0.0090902144   6.0224478      731.4545      -19.901274      711.55323    
   2511000   295.03537      0.0090902144   6.4831315      731.99088     -19.370306      712.62058    
   2512000   310.51531      0.0090902144   4.7873214      770.39705     -20.293116      750.10393    
   2513000   307.05562      0.0090902144   5.4009459      761.81347     -19.103195      742.71027    
   2514000   295.98652      0.0090902144   4.745432       734.35071     -16.339193      718.01152    
   2515000   300.95792      0.0090902144   4.8430916      746.68488     -16.973279      729.7116     
   2516000   302.87121      0.0090902144   5.1855706      751.43182     -16.949855      734.48197    
   2517000   306.1324       0.0090902144   5.1864521      759.52292     -17.372882      742.15004    
   2518000   296.66934      0.0090902144   5.4515201      736.04482     -13.426077      722.61874    
   2519000   297.72163      0.0090902144   3.8072721      738.65557     -19.2648        719.39077    
   2520000   299.52448      0.0090902144   4.4958063      743.1285      -17.993346      725.13515    
   2521000   299.65439      0.0090902144   5.5394179      743.45081     -14.521048      728.92976    
   2522000   301.07475      0.0090902144   4.8389243      746.97474     -12.610814      734.36393    
   2523000   299.59876      0.0090902144   3.6552906      743.31278     -13.754006      729.55877    
   2524000   304.64805      0.0090902144   6.0730236      755.84021     -15.945022      739.89519    
   2525000   292.25225      0.0090902144   6.6318459      725.0859      -14.345058      710.74084    
   2526000   304.84369      0.0090902144  -0.44951652     756.32559     -16.428275      739.89732    
   2527000   295.59639      0.0090902144   5.4029851      733.38279     -15.541731      717.84106    
   2528000   306.62905      0.0090902144   5.1023851      760.75512     -12.12497       748.63015    
   2529000   298.83871      0.0090902144   1.3948956      741.42707     -13.362012      728.06505    
   2530000   293.22429      0.0090902144   6.1939973      727.49755     -11.945381      715.55217    
   2531000   300.70676      0.0090902144   7.9202508      746.06177     -10.785622      735.27615    
   2532000   314.75127      0.0090902144   2.1632166      780.90658     -8.0762914      772.83029    
   2533000   297.75698      0.0090902144   1.7588689      738.74329     -9.4690441      729.27424    
   2534000   293.66455      0.0090902144   10.424277      728.58984     -12.927774      715.66207    
   2535000   302.02605      0.0090902144   3.686838       749.33496     -11.779093      737.55586    
   2536000   276.50738      0.0090902144   1.9513453      686.02243     -14.304768      671.71766    
   2537000   302.52881      0.0090902144   5.6244512      750.58233     -17.745645      732.83668    
   2538000   303.63288      0.0090902144   7.3698666      753.32156     -12.642683      740.67887    
   2539000   293.02574      0.0090902144  -3.5113791      727.00493     -11.88788       715.11705    
   2540000   289.01639      0.0090902144   4.7409584      717.05763     -11.050043      706.00759    
   2541000   307.58057      0.0090902144   6.2019177      763.11587     -9.730167       753.3857     
   2542000   302.80539      0.0090902144   5.37917        751.26852     -15.959406      735.30912    
   2543000   295.62996      0.0090902144   4.6952285      733.46608     -21.580728      711.88535    
   2544000   316.74699      0.0090902144   2.7983988      785.85802     -17.831978      768.02604    
   2545000   291.90126      0.0090902144   2.408994       724.21507     -14.821316      709.39376    
   2546000   289.99575      0.0090902144   4.6927421      719.48744     -14.059296      705.42815    
   2547000   306.18535      0.0090902144   5.1131285      759.6543      -15.235152      744.41915    
   2548000   318.5221       0.0090902144   4.9102579      790.2621      -14.161922      776.10018    
   2549000   281.99363      0.0090902144   4.5657109      699.63396     -12.028779      687.60518    
   2550000   290.09161      0.0090902144   4.9211539      719.72529     -9.4455488      710.27974    
   2551000   285.02533      0.0090902144   5.4808712      707.1557      -9.9408259      697.21488    
   2552000   309.50492      0.0090902144   4.3110851      767.89025     -9.9780855      757.91216    
   2553000   299.3515       0.0090902144   4.2664264      742.69933     -14.536768      728.16256    
   2554000   294.77735      0.0090902144   4.8620726      731.35074     -13.246328      718.10441    
   2555000   292.40831      0.0090902144   4.9994029      725.47307     -13.658762      711.81431    
   2556000   314.45786      0.0090902144   5.3601716      780.17862     -10.997412      769.18121    
   2557000   319.18357      0.0090902144   5.1903709      791.90324     -12.723539      779.17971    
   2558000   293.73543      0.0090902144   3.711867       728.76569     -12.401073      716.36462    
   2559000   282.97613      0.0090902144   3.5797517      702.07158     -14.04201       688.02957    
   2560000   303.71278      0.0090902144   6.3678642      753.51979     -13.738475      739.78131    
   2561000   303.27631      0.0090902144   7.0767246      752.43688     -11.675421      740.76146    
   2562000   308.32578      0.0090902144   1.6084906      764.96477     -14.309239      750.65553    
   2563000   295.55978      0.0090902144   4.6276609      733.29196     -13.894164      719.39779    
   2564000   306.28865      0.0090902144   4.9108432      759.91058     -13.867498      746.04309    
   2565000   299.60278      0.0090902144   5.1766674      743.32276     -13.163946      730.15882    
   2566000   306.98008      0.0090902144   5.1085361      761.62605     -15.284319      746.34173    
   2567000   308.28886      0.0090902144   5.6534742      764.87315     -12.651241      752.22191    
   2568000   288.97644      0.0090902144   3.0972783      716.95851     -15.249441      701.70907    
   2569000   295.31846      0.0090902144   4.6153537      732.69323     -11.580005      721.11323    
   2570000   308.85007      0.0090902144   5.2456738      766.26553     -12.012341      754.25319    
   2571000   308.43606      0.0090902144   6.665816       765.23837     -13.773721      751.46465    
   2572000   288.51509      0.0090902144   2.8997232      715.81389     -16.252003      699.56189    
   2573000   299.87122      0.0090902144   4.8211856      743.98877     -17.202043      726.78673    
   2574000   312.25366      0.0090902144   6.0771865      774.70993     -12.77523       761.9347     
   2575000   292.04799      0.0090902144   5.3813769      724.57912     -16.996456      707.58266    
   2576000   294.96445      0.0090902144   5.1233246      731.81494     -14.731631      717.08331    
   2577000   302.47425      0.0090902144   5.2818586      750.44695     -14.666186      735.78076    
   2578000   310.77257      0.0090902144   7.9309942      771.03531     -10.582416      760.45289    
   2579000   298.12801      0.0090902144   8.6156779      739.6638      -11.436351      728.22745    
   2580000   294.51904      0.0090902144   1.7799161      730.70985     -11.32159       719.38826    
   2581000   298.99775      0.0090902144   3.8426423      741.82166     -10.593024      731.22863    
   2582000   307.55365      0.0090902144   3.0775624      763.04907     -11.55849       751.49058    
   2583000   295.59702      0.0090902144   8.8413172      733.38436     -12.035006      721.34935    
   2584000   289.58967      0.0090902144   4.3245311      718.47996     -10.820732      707.65923    
   2585000   314.70987      0.0090902144   5.0702551      780.80387     -15.182633      765.62124    
   2586000   308.56863      0.0090902144   6.9752127      765.56729     -10.267534      755.29975    
   2587000   285.87143      0.0090902144   4.2492853      709.2549      -14.983508      694.2714     
   2588000   308.75569      0.0090902144  -0.63170408     766.03138     -14.027558      752.00383    
   2589000   310.2914       0.0090902144   8.1551471      769.84152     -16.857421      752.9841     
   2590000   289.72018      0.0090902144   8.2637736      718.80375     -17.68086       701.12289    
   2591000   298.90707      0.0090902144   0.7595104      741.59668     -19.49249       722.10419    
   2592000   311.44533      0.0090902144   5.3589097      772.70444     -19.343719      753.36072    
   2593000   298.12176      0.0090902144   6.2134654      739.64832     -19.14345       720.50487    
   2594000   294.27829      0.0090902144   4.826665       730.11254     -17.861528      712.25101    
   2595000   294.32935      0.0090902144   4.8753169      730.23923     -20.621898      709.61733    
   2596000   318.62242      0.0090902144   5.2996768      790.51101     -23.093337      767.41767    
   2597000   296.47169      0.0090902144   5.1666725      735.55444     -17.838975      717.71546    
   2598000   278.79757      0.0090902144   4.7185493      691.70445     -18.627243      673.07721    
   2599000   300.98335      0.0090902144   5.0065692      746.74799     -15.13556       731.61243    
   2600000   306.96142      0.0090902144   4.9710926      761.57974     -15.303448      746.27629    
   2601000   296.88798      0.0090902144   4.0265873      736.58727     -14.923451      721.66382    
   2602000   296.94251      0.0090902144   4.991721       736.72255     -15.489529      721.23302    
   2603000   295.35885      0.0090902144   6.2296197      732.79344     -16.039144      716.7543     
   2604000   305.97104      0.0090902144   4.588585       759.12258     -17.981298      741.14128    
   2605000   299.23612      0.0090902144   6.8954882      742.41305     -16.95143       725.46162    
   2606000   297.67557      0.0090902144   4.3514199      738.5413      -15.253169      723.28813    
   2607000   291.82273      0.0090902144   4.0272156      724.02023     -14.814496      709.20573    
   2608000   296.51301      0.0090902144   4.0710986      735.65696     -15.411758      720.2452     
   2609000   305.14509      0.0090902144   5.1629445      757.07338     -17.297074      739.7763     
   2610000   300.45941      0.0090902144   5.7100835      745.44807     -17.739598      727.70848    
   2611000   284.37505      0.0090902144   5.46509        705.54234     -18.429704      687.11264    
   2612000   295.89627      0.0090902144   4.7872239      734.1268      -16.375938      717.75086    
   2613000   321.67293      0.0090902144   4.7570992      798.07941     -16.360863      781.71855    
   2614000   308.61768      0.0090902144   5.1644479      765.68896     -15.767432      749.92153    
   2615000   294.27713      0.0090902144   4.8132334      730.10968     -10.709893      719.39979    
   2616000   294.21463      0.0090902144   4.5040288      729.9546      -14.02532       715.92928    
   2617000   295.43721      0.0090902144   7.0313203      732.98786     -13.322892      719.66497    
   2618000   300.81307      0.0090902144   4.987244       746.32552     -13.66289       732.66263    
   2619000   292.9659       0.0090902144   4.6645383      726.85647     -14.274351      712.58212    
   2620000   302.43927      0.0090902144   5.2917539      750.36016     -14.270515      736.08965    
   2621000   308.87665      0.0090902144   5.9226517      766.33149     -17.481575      748.84991    
   2622000   304.83855      0.0090902144   6.977145       756.31284     -17.711037      738.6018     
   2623000   291.78528      0.0090902144   3.1158844      723.92733     -14.601052      709.32628    
   2624000   302.38272      0.0090902144   2.4673369      750.21985     -12.24263       737.97722    
   2625000   291.26454      0.0090902144   3.5650671      722.63535     -12.159004      710.47635    
   2626000   297.29842      0.0090902144   6.4411467      737.60558     -10.947207      726.65838    
   2627000   306.01695      0.0090902144   4.7652222      759.2365      -11.433151      747.80335    
   2628000   299.80495      0.0090902144   2.4442617      743.82435     -14.538644      729.2857     
   2629000   278.43197      0.0090902144   1.5370315      690.7974      -15.054106      675.74329    
   2630000   309.11583      0.0090902144   8.2541408      766.92489     -19.096457      747.82844    
   2631000   302.38183      0.0090902144  -0.30309017     750.21766     -19.042558      731.1751     
   2632000   283.09056      0.0090902144   1.9501973      702.35549     -18.190698      684.16479    
   2633000   293.95153      0.0090902144   9.2867283      729.30186     -18.514143      710.78772    
   2634000   299.57149      0.0090902144   6.3542348      743.24511     -13.365849      729.87926    
   2635000   317.84454      0.0090902144   6.9943644      788.58105     -15.072421      773.50863    
   2636000   303.59083      0.0090902144   2.8472558      753.21722     -12.979679      740.23754    
   2637000   286.24369      0.0090902144   4.8800273      710.17849     -12.149437      698.02905    
   2638000   290.76115      0.0090902144   5.5828901      721.38644     -12.46133       708.92511    
   2639000   304.14989      0.0090902144   6.363637       754.60426     -11.324408      743.27986    
   2640000   320.4685       0.0090902144   0.21623644     795.09118     -14.289967      780.80121    
   2641000   293.96887      0.0090902144   2.9938481      729.34488     -14.153076      715.1918     
   2642000   285.96058      0.0090902144   6.3700574      709.47609     -16.234444      693.24164    
   2643000   285.57739      0.0090902144   8.8895943      708.52537     -12.787518      695.73786    
   2644000   309.10842      0.0090902144   5.5995303      766.90652     -10.338841      756.56768    
   2645000   311.12068      0.0090902144   2.7813172      771.89898     -11.762472      760.13651    
   2646000   290.78285      0.0090902144   4.1421803      721.44026     -11.829431      709.61083    
   2647000   293.66708      0.0090902144   7.2342294      728.59611     -11.822962      716.77315    
   2648000   307.96657      0.0090902144   5.9381053      764.07356     -12.017436      752.05612    
   2649000   313.22613      0.0090902144   4.8598049      777.12266     -12.955064      764.1676     
   2650000   294.8359       0.0090902144   5.0229294      731.49599     -12.02352       719.47247    
   2651000   292.42338      0.0090902144   4.8487553      725.51046     -14.464048      711.04642    
   2652000   309.74128      0.0090902144   4.9473448      768.47665     -15.99758       752.47907    
   2653000   308.83923      0.0090902144   4.6334667      766.23865     -17.389273      748.84937    
   2654000   300.12373      0.0090902144   3.3558445      744.61526     -16.373336      728.24192    
   2655000   281.45984      0.0090902144   5.5081586      698.30961     -17.008831      681.30078    
   2656000   303.84762      0.0090902144   5.4477584      753.85432     -16.040868      737.81345    
   2657000   311.9336       0.0090902144   1.840957       773.91585     -18.612015      755.30384    
   2658000   284.8291       0.0090902144   3.738796       706.66884     -19.820372      686.84847    
   2659000   297.51543      0.0090902144   5.9859477      738.14398     -20.545671      717.59831    
   2660000   314.08674      0.0090902144   3.6998275      779.25786     -16.181992      763.07586    
   2661000   288.87462      0.0090902144   0.73183732     716.7059      -13.294948      703.41095    
   2662000   290.27324      0.0090902144   8.011877       720.17591     -18.010143      702.16576    
   2663000   318.75241      0.0090902144   4.6075763      790.83352     -14.752694      776.08082    
   2664000   307.63788      0.0090902144   4.2218683      763.25806     -11.139142      752.11891    
   2665000   295.68335      0.0090902144   2.7706791      733.59853     -14.517255      719.08128    
   2666000   290.55612      0.0090902144   5.3407503      720.87775     -10.160621      710.71713    
   2667000   304.39884      0.0090902144  -0.19041827     755.22192     -12.369759      742.85217    
   2668000   316.64308      0.0090902144   2.2351268      785.60021     -14.679133      770.92108    
   2669000   305.24261      0.0090902144   9.9877801      757.31534     -15.370319      741.94502    
   2670000   292.88106      0.0090902144   5.3865899      726.64599     -13.764573      712.88142    
   2671000   298.14857      0.0090902144   1.6706886      739.71483     -15.508276      724.20655    
   2672000   316.90771      0.0090902144   4.3574446      786.25676     -16.353869      769.90289    
   2673000   296.31726      0.0090902144   7.6476742      735.17129     -14.474148      720.69715    
   2674000   292.37965      0.0090902144   4.2736011      725.40198     -15.169188      710.23279    
   2675000   304.96637      0.0090902144   4.628534       756.62997     -17.175055      739.45491    
   2676000   314.40471      0.0090902144   3.8145771      780.04675     -17.713373      762.33337    
   2677000   299.33657      0.0090902144   5.7505383      742.66229     -14.589778      728.07251    
   2678000   294.08069      0.0090902144   6.2088634      729.6223      -16.855134      712.76717    
   2679000   295.61987      0.0090902144   3.6680126      733.44104     -15.537338      717.9037     
   2680000   305.94044      0.0090902144   1.887942       759.04668     -13.696792      745.34988    
   2681000   305.12635      0.0090902144   3.1425866      757.02689     -16.441391      740.5855     
   2682000   307.15322      0.0090902144   4.9625282      762.05559     -18.886922      743.16867    
   2683000   288.10312      0.0090902144   6.4301395      714.79179     -13.169926      701.62186    
   2684000   289.86985      0.0090902144   1.812936       719.17508     -17.227538      701.94755    
   2685000   301.65605      0.0090902144   2.7416174      748.41697     -16.447946      731.96903    
   2686000   302.684        0.0090902144   0.62468862     750.96734     -14.406134      736.56121    
   2687000   309.05588      0.0090902144   4.3282733      766.77617     -16.569189      750.20698    
   2688000   316.53914      0.0090902144   5.5482525      785.34234     -15.487792      769.85455    
   2689000   315.00276      0.0090902144   8.8093336      781.53054     -15.212744      766.3178     
   2690000   295.75211      0.0090902144   4.4312265      733.76914     -17.617735      716.1514     
   2691000   294.04076      0.0090902144   3.9401281      729.52323     -19.729056      709.79417    
   2692000   300.95528      0.0090902144   3.5889454      746.67835     -16.626977      730.05137    
   2693000   312.73097      0.0090902144   5.5549458      775.89415     -15.84319       760.05096    
   2694000   293.37397      0.0090902144   4.8797073      727.86891     -18.234627      709.63429    
   2695000   294.71098      0.0090902144   4.636911       731.18606     -14.600088      716.58597    
   2696000   313.7197       0.0090902144   5.0773216      778.34723     -18.833727      759.5135     
   2697000   309.36411      0.0090902144   10.277456      767.54089     -16.565277      750.97561    
   2698000   294.56908      0.0090902144   3.7040947      730.83401     -17.740178      713.09383    
   2699000   300.28631      0.0090902144   5.1996322      745.0186      -16.603035      728.41556    
   2700000   290.69798      0.0090902144   5.6281396      721.22971     -17.602233      703.62747    
   2701000   304.59854      0.0090902144   4.7576088      755.71738     -15.460312      740.25707    
   2702000   302.41154      0.0090902144   5.1952637      750.29136     -9.3431142      740.94824    
   2703000   298.5245       0.0090902144   5.2123244      740.64752     -14.512693      726.13483    
   2704000   304.59498      0.0090902144   4.5072955      755.70855     -14.645519      741.06303    
   2705000   297.25279      0.0090902144   5.4392282      737.49236     -16.474438      721.01792    
   2706000   305.29949      0.0090902144   4.44722        757.45646     -17.141739      740.31472    
   2707000   303.44398      0.0090902144   4.5235017      752.85288     -17.811527      735.04135    
   2708000   302.58974      0.0090902144   6.1101892      750.73349     -20.794027      729.93947    
   2709000   306.41614      0.0090902144   8.975835       760.22689     -20.580508      739.64638    
   2710000   307.78986      0.0090902144   5.3823571      763.63513     -20.328805      743.30633    
   2711000   306.95286      0.0090902144   4.8081679      761.55851     -19.024468      742.53404    
   2712000   306.22981      0.0090902144   4.8554956      759.76459     -22.626526      737.13806    
   2713000   294.99797      0.0090902144   4.5993107      731.8981      -23.097653      708.80045    
   2714000   301.73807      0.0090902144   5.3897794      748.62047     -19.929281      728.69119    
   2715000   311.9286       0.0090902144   3.1517924      773.90346     -21.81429       752.08917    
   2716000   293.10315      0.0090902144   5.6829949      727.19699     -19.461505      707.73548    
   2717000   302.47204      0.0090902144   8.5201678      750.44148     -19.415471      731.02601    
   2718000   307.42729      0.0090902144   4.6673134      762.73559     -18.968184      743.7674     
   2719000   301.31454      0.0090902144   5.1345048      747.56969     -20.901747      726.66794    
   2720000   310.39253      0.0090902144   5.4405463      770.09243     -19.437972      750.65446    
   2721000   290.26836      0.0090902144   6.234806       720.16381     -19.508633      700.65518    
   2722000   299.45458      0.0090902144   2.6357214      742.95507     -20.008366      722.94671    
   2723000   313.53188      0.0090902144   3.8929776      777.88124     -20.359935      757.52131    
   2724000   301.51591      0.0090902144   5.414269       748.06929     -19.740084      728.3292     
   2725000   290.93192      0.0090902144   5.7756645      721.81011     -19.034875      702.77524    
   2726000   291.62793      0.0090902144   4.5062259      723.53692     -20.171927      703.36499    
   2727000   305.70634      0.0090902144   4.7314613      758.46586     -16.252387      742.21347    
   2728000   304.87534      0.0090902144   5.0396143      756.40413     -16.862456      739.54168    
   2729000   296.42067      0.0090902144   4.6084343      735.42787     -16.459273      718.96859    
   2730000   296.71138      0.0090902144   4.3365911      736.14911     -15.102968      721.04614    
   2731000   307.77289      0.0090902144   5.3468955      763.59301     -14.398721      749.19429    
   2732000   306.60319      0.0090902144   6.3342307      760.69098     -17.905516      742.78546    
   2733000   294.74556      0.0090902144   4.9641091      731.27185     -17.136425      714.13543    
   2734000   289.39873      0.0090902144   4.9537245      718.00622     -16.988766      701.01745    
   2735000   299.00201      0.0090902144   5.4041306      741.83222     -15.994977      725.83724    
   2736000   315.70111      0.0090902144   4.6840738      783.26316     -18.384177      764.87898    
   2737000   293.29206      0.0090902144   4.4536801      727.66567     -18.519308      709.14637    
   2738000   289.2365       0.0090902144   5.387491       717.60373     -20.407426      697.19631    
   2739000   308.28479      0.0090902144   7.2927775      764.86307     -20.495685      744.36739    
   2740000   309.89456      0.0090902144   3.8830653      768.85694     -19.36612       749.49082    
   2741000   292.55415      0.0090902144   4.60186        725.83491     -16.176408      709.6585     
   2742000   286.47312      0.0090902144   5.2543615      710.7477      -17.755649      692.99205    
   2743000   286.45944      0.0090902144   5.0915105      710.71377     -18.510622      692.20314    
   2744000   300.42319      0.0090902144   9.1180459      745.35821     -18.100669      727.25754    
   2745000   309.65535      0.0090902144   3.4792748      768.26347     -18.447999      749.81547    
   2746000   283.08634      0.0090902144   2.3636117      702.34502     -17.986536      684.35848    
   2747000   297.52723      0.0090902144   3.6661377      738.17327     -18.021274      720.152      
   2748000   304.69869      0.0090902144   11.28795       755.96584     -15.79694       740.1689     
   2749000   314.02304      0.0090902144   7.019184       779.09983     -16.345317      762.75451    
   2750000   301.87469      0.0090902144   1.4436307      748.95942     -22.952446      726.00698    
   2751000   294.98583      0.0090902144   3.9802354      731.86797     -22.471231      709.39674    
   2752000   293.34509      0.0090902144   8.1194009      727.79726     -21.401677      706.39558    
   2753000   304.57182      0.0090902144   5.4712701      755.65109     -23.019659      732.63143    
   2754000   305.05642      0.0090902144   3.6415059      756.85338     -17.305961      739.54741    
   2755000   289.91975      0.0090902144   6.3401469      719.2989      -23.612004      695.68689    
   2756000   299.12949      0.0090902144   5.6827543      742.1485      -22.081973      720.06653    
   2757000   300.90804      0.0090902144   2.985973       746.56115     -18.537841      728.02331    
   2758000   293.8928       0.0090902144   5.8452053      729.15614     -19.725834      709.4303     
   2759000   295.77813      0.0090902144   5.3743019      733.83369     -19.614617      714.21907    
   2760000   302.42399      0.0090902144   6.2712382      750.32227     -15.756649      734.56562    
   2761000   307.86434      0.0090902144   4.2972127      763.81992     -17.9569        745.86302    
   2762000   297.96015      0.0090902144   3.4759232      739.24734     -16.752993      722.49434    
   2763000   297.32812      0.0090902144   9.2828323      737.67927     -15.342738      722.33653    
   2764000   309.61265      0.0090902144   4.7268315      768.15752     -20.388602      747.76892    
   2765000   305.12963      0.0090902144   1.8174531      757.03503     -20.91717       736.11786    
   2766000   285.64185      0.0090902144   7.07731        708.68531     -18.167896      690.51742    
   2767000   301.66424      0.0090902144   6.0750687      748.43728     -17.033831      731.40345    
   2768000   312.67428      0.0090902144   2.9953431      775.75351     -19.277149      756.47636    
   2769000   291.69582      0.0090902144   5.0363147      723.70538     -15.806213      707.89917    
   2770000   295.3755       0.0090902144   5.6213539      732.83476     -17.890623      714.94414    
   2771000   311.58752      0.0090902144   6.2734721      773.05723     -18.362662      754.69456    
   2772000   312.06644      0.0090902144   3.6428763      774.24543     -15.05629       759.18914    
   2773000   292.26054      0.0090902144   4.8986673      725.10645     -17.385232      707.72122    
   2774000   306.06138      0.0090902144   6.6263676      759.34673     -16.95919       742.38754    
   2775000   303.18552      0.0090902144   6.4839489      752.21163     -17.334125      734.8775     
   2776000   303.73139      0.0090902144   1.1291038      753.56595     -20.174325      733.39162    
   2777000   284.64894      0.0090902144   1.3887289      706.22187     -19.412282      686.80959    
   2778000   307.3354       0.0090902144   8.0448668      762.5076      -18.934327      743.57327    
   2779000   320.21328      0.0090902144  -4.5685927      794.45797     -20.615945      773.84203    
   2780000   297.24637      0.0090902144  -1.4314255      737.47644     -18.536444      718.94       
   2781000   300.71018      0.0090902144   9.2485409      746.07025     -18.379846      727.69041    
   2782000   293.70919      0.0090902144   6.9712542      728.7006      -21.039336      707.66127    
   2783000   318.06827      0.0090902144   2.6994567      789.13615     -20.888575      768.24757    
   2784000   311.91532      0.0090902144   4.0106878      773.8705      -16.067437      757.80306    
   2785000   290.0916       0.0090902144   5.3390894      719.72526     -15.132866      704.59239    
   2786000   301.74079      0.0090902144   5.2533452      748.62723     -18.860386      729.76684    
   2787000   289.846        0.0090902144   3.9229532      719.11591     -16.019086      703.09682    
   2788000   297.65851      0.0090902144   5.5451337      738.49896     -12.112378      726.38659    
   2789000   303.3811       0.0090902144   4.8733166      752.69686     -14.988281      737.70858    
   2790000   310.76407      0.0090902144   4.4740672      771.01422     -15.991566      755.02266    
   2791000   298.40915      0.0090902144   1.6360348      740.36134     -16.406398      723.95494    
   2792000   292.98887      0.0090902144   5.8846172      726.91347     -13.701768      713.2117     
   2793000   297.6095       0.0090902144   7.8052316      738.37739     -18.834223      719.54316    
   2794000   315.58944      0.0090902144   1.2655388      782.98611     -18.935678      764.05043    
   2795000   311.81849      0.0090902144   1.0833513      773.63026     -19.026328      754.60394    
   2796000   289.75887      0.0090902144   5.5523581      718.89974     -19.468182      699.43156    
   2797000   296.62443      0.0090902144   6.143336       735.9334      -20.827625      715.10577    
   2798000   308.12714      0.0090902144   6.0171633      764.47193     -17.796431      746.6755     
   2799000   293.41878      0.0090902144   0.94017277     727.98008     -16.374307      711.60577    
   2800000   290.68119      0.0090902144   4.7405144      721.18804     -18.972573      702.21546    
   2801000   282.91049      0.0090902144   5.3478814      701.90873     -18.549818      683.35892    
   2802000   302.38031      0.0090902144   4.2033319      750.21389     -19.253061      730.96083    
   2803000   300.75492      0.0090902144   5.4122732      746.18125     -14.652503      731.52875    
   2804000   308.6653       0.0090902144   7.0631844      765.80711     -15.141304      750.6658     
   2805000   297.59941      0.0090902144   4.4851248      738.35234     -12.959648      725.39269    
   2806000   300.33363      0.0090902144   5.4304518      745.13602     -14.116359      731.01966    
   2807000   305.85412      0.0090902144   5.0103439      758.83249     -13.942009      744.89048    
   2808000   294.13049      0.0090902144   4.9402737      729.74586     -14.00909       715.73677    
   2809000   292.40209      0.0090902144   4.6838999      725.45765     -17.331379      708.12627    
   2810000   307.23641      0.0090902144   5.3317507      762.26201     -16.0899        746.17211    
   2811000   286.55295      0.0090902144   5.320444       710.94577     -16.909564      694.0362     
   2812000   295.58796      0.0090902144   5.1526872      733.36187     -19.309371      714.0525     
   2813000   308.35091      0.0090902144  -0.60600186     765.02712     -19.071994      745.95512    
   2814000   304.48668      0.0090902144   10.798745      755.43986     -22.013857      733.426      
   2815000   292.11543      0.0090902144   10.1795        724.74645     -20.298961      704.44748    
   2816000   301.9911       0.0090902144   3.4660145      749.24823     -17.479839      731.76839    
   2817000   309.09562      0.0090902144   2.9344942      766.87475     -18.052267      748.82248    
   2818000   293.01281      0.0090902144   5.0453277      726.97285     -16.373904      710.59895    
   2819000   292.29769      0.0090902144   5.47114        725.19863     -15.330101      709.86853    
   2820000   299.27587      0.0090902144   1.4352214      742.51169     -16.237659      726.27403    
   2821000   303.74129      0.0090902144  -3.9667348      753.5905      -16.229331      737.36117    
   2822000   302.62524      0.0090902144   6.9662298      750.82155     -16.800664      734.02089    
   2823000   294.59479      0.0090902144   10.064198      730.8978      -20.964339      709.93346    
   2824000   289.6738       0.0090902144  -0.61710276     718.68868     -18.976245      699.71244    
   2825000   311.50398      0.0090902144   2.897716       772.84995     -20.321262      752.52869    
   2826000   293.76494      0.0090902144   6.638608       728.83891     -17.697221      711.14169    
   2827000   294.88486      0.0090902144   2.6279216      731.61746     -17.317159      714.3003     
   2828000   309.22517      0.0090902144  -3.1649508      767.19616     -17.823632      749.37253    
   2829000   299.35703      0.0090902144   4.9247812      742.71305     -22.074939      720.63811    
   2830000   299.46253      0.0090902144   8.5913992      742.9748      -18.127416      724.84738    
   2831000   298.67766      0.0090902144   4.7037841      741.02752     -21.738795      719.28872    
   2832000   296.99468      0.0090902144   2.591127       736.85199     -18.458501      718.39349    
   2833000   299.69897      0.0090902144  -3.6067478      743.5614      -20.195725      723.36567    
   2834000   305.42581      0.0090902144   9.2945755      757.76984     -19.816367      737.95348    
   2835000   304.16709      0.0090902144   6.8250319      754.64694     -17.388459      737.25848    
   2836000   300.60952      0.0090902144   7.4474416      745.82052     -18.412077      727.40844    
   2837000   295.88984      0.0090902144  -1.5601825      734.11084     -20.030293      714.08055    
   2838000   301.01179      0.0090902144  -2.1571174      746.81855     -21.152991      725.66556    
   2839000   306.25783      0.0090902144   9.966128       759.83411     -19.295552      740.53856    
   2840000   314.96957      0.0090902144   13.823269      781.44818     -20.181668      761.26651    
   2841000   298.96528      0.0090902144   2.014469       741.74109     -22.191972      719.54912    
   2842000   297.1438       0.0090902144   0.71058231     737.22197     -19.310397      717.91157    
   2843000   311.23562      0.0090902144   5.2905787      772.18416     -18.631499      753.55266    
   2844000   307.29806      0.0090902144   6.276905       762.41497     -19.04412       743.37085    
   2845000   303.71677      0.0090902144  -0.031335593    753.52967     -18.948224      734.58145    
   2846000   304.2191       0.0090902144   8.7921964      754.77597     -20.001706      734.77427    
   2847000   290.06862      0.0090902144   9.6264269      719.66825     -18.705505      700.96275    
   2848000   286.43493      0.0090902144   5.2480503      710.65297     -23.023413      687.62955    
   2849000   296.27043      0.0090902144   1.4800831      735.05511     -24.378214      710.6769     
   2850000   298.18389      0.0090902144   5.3619697      739.80245     -22.859173      716.94327    
   2851000   294.35204      0.0090902144   7.0381198      730.29553     -21.692111      708.60342    
   2852000   308.90294      0.0090902144   4.9434238      766.39671     -21.670916      744.72579    
   2853000   300.81791      0.0090902144   5.4848477      746.33754     -19.374886      726.96265    
   2854000   297.31605      0.0090902144   3.0973715      737.64931     -16.735819      720.91349    
   2855000   300.92517      0.0090902144   5.0359059      746.60364     -17.346052      729.25759    
   2856000   283.04992      0.0090902144   6.8829116      702.25467     -22.505711      679.74896    
   2857000   291.98413      0.0090902144   4.4830325      724.42068     -19.999281      704.4214     
   2858000   306.39536      0.0090902144   4.7430167      760.17534     -23.780876      736.39446    
   2859000   310.83739      0.0090902144   4.8645141      771.19614     -25.634372      745.56177    
   2860000   301.12268      0.0090902144   3.5794564      747.09367     -23.124653      723.96902    
   2861000   289.21915      0.0090902144   2.9679864      717.56068     -27.46335       690.09733    
   2862000   314.09616      0.0090902144   6.3546426      779.28123     -26.15498       753.12625    
   2863000   300.86212      0.0090902144   4.624226       746.44722     -24.956841      721.49038    
   2864000   302.65651      0.0090902144   4.618159       750.89914     -22.945691      727.95345    
   2865000   309.45841      0.0090902144   4.7132254      767.77484     -23.084822      744.69001    
   2866000   287.16339      0.0090902144   5.2607729      712.46027     -18.081407      694.37887    
   2867000   302.28274      0.0090902144   6.0585202      749.97181     -18.780968      731.19084    
   2868000   318.33034      0.0090902144   5.7978901      789.78636     -17.57469       772.21167    
   2869000   302.21225      0.0090902144   4.9876956      749.79693     -16.170517      733.62641    
   2870000   294.13586      0.0090902144   5.0114864      729.75917     -15.072032      714.68714    
   2871000   304.6582       0.0090902144   5.288278       755.8654      -16.53633       739.32907    
   2872000   313.99533      0.0090902144   5.9433095      779.03108     -16.505584      762.5255     
   2873000   298.25568      0.0090902144   5.9372018      739.98056     -16.793965      723.18659    
   2874000   286.91782      0.0090902144  -1.5697641      711.85101     -16.667974      695.18303    
   2875000   301.66769      0.0090902144   0.45938769     748.44585     -18.076651      730.3692     
   2876000   309.79219      0.0090902144   5.2036029      768.60295     -16.048755      752.5542     
   2877000   306.58445      0.0090902144   6.6789229      760.64447     -17.297253      743.34721    
   2878000   299.26035      0.0090902144   4.6538713      742.47319     -18.147691      724.32549    
   2879000   299.62977      0.0090902144   5.830517       743.38971     -18.431595      724.95811    
   2880000   308.96967      0.0090902144   5.5524646      766.56226     -19.289753      747.27251    
   2881000   302.52802      0.0090902144   5.1164081      750.58035     -19.70873       730.87162    
   2882000   301.90351      0.0090902144   4.7215263      749.03094     -18.952794      730.07815    
   2883000   308.34991      0.0090902144   1.8344768      765.02462     -20.060623      744.964      
   2884000   303.10947      0.0090902144   4.8719896      752.02294     -18.003491      734.01945    
   2885000   296.34241      0.0090902144   5.9871422      735.23369     -16.174318      719.05937    
   2886000   287.48607      0.0090902144   5.1563455      713.26087     -18.355537      694.90534    
   2887000   301.01858      0.0090902144   3.8646982      746.83539     -20.663594      726.1718     
   2888000   309.55351      0.0090902144   4.1998403      768.0108      -19.093284      748.91751    
   2889000   306.30254      0.0090902144   4.6354836      759.94505     -19.543173      740.40187    
   2890000   290.78557      0.0090902144   7.6680845      721.447       -18.466631      702.98037    
   2891000   296.86423      0.0090902144   4.790008       736.52833     -16.441312      720.08701    
   2892000   301.41013      0.0090902144   3.478766       747.80684     -14.930531      732.87631    
   2893000   301.92352      0.0090902144   5.7004376      749.08058     -14.86066       734.21992    
   2894000   297.69366      0.0090902144   7.584038       738.58617     -14.114453      724.47172    
   2895000   295.98969      0.0090902144   3.8347691      734.35858     -14.209179      720.1494     
   2896000   300.24538      0.0090902144   5.4295614      744.91705     -18.49663       726.42042    
   2897000   293.50601      0.0090902144   4.5244703      728.19649     -18.226022      709.97047    
   2898000   310.35977      0.0090902144   6.1771234      770.01114     -17.242311      752.76883    
   2899000   301.86342      0.0090902144   6.3894516      748.93147     -13.340819      735.59065    
   2900000   300.0023       0.0090902144   2.4010584      744.31398     -15.646065      728.66792    
   2901000   292.35144      0.0090902144   4.8523207      725.33197     -15.207067      710.1249     
   2902000   312.02105      0.0090902144   9.6619885      774.13283     -13.550028      760.5828     
   2903000   303.634        0.0090902144   4.9573487      753.32434     -11.657792      741.66654    
   2904000   290.69323      0.0090902144   4.7103367      721.21791     -14.389999      706.82791    
   2905000   302.92108      0.0090902144   7.0514175      751.55554     -14.556636      736.9989     
   2906000   308.57619      0.0090902144   4.1129611      765.58604     -16.738091      748.84794    
   2907000   294.52881      0.0090902144   4.6531591      730.73409     -17.393265      713.34082    
   2908000   293.65594      0.0090902144   4.4967447      728.56847     -14.930973      713.6375     
   2909000   300.42296      0.0090902144   7.1383031      745.35766     -19.057792      726.29986    
   2910000   305.77967      0.0090902144   5.0199704      758.64778     -17.150982      741.4968     
   2911000   293.3442       0.0090902144   1.9549165      727.79505     -16.646529      711.14852    
   2912000   295.18195      0.0090902144   6.2026063      732.35455     -17.657535      714.69701    
   2913000   302.1575       0.0090902144   6.6123446      749.66108     -15.245557      734.41552    
   2914000   301.18372      0.0090902144   3.8164663      747.24512     -11.937605      735.30752    
   2915000   296.65521      0.0090902144   7.2747336      736.00976     -17.470932      718.53883    
   2916000   276.85427      0.0090902144   4.3319699      686.88307     -19.726664      667.15641    
   2917000   301.11346      0.0090902144   8.3774859      747.07079     -19.743182      727.32761    
   2918000   304.13402      0.0090902144  -1.3551294      754.56488     -21.614957      732.94993    
   2919000   297.19241      0.0090902144   2.9344932      737.34255     -17.490852      719.8517     
   2920000   307.83726      0.0090902144   7.8188735      763.75272     -18.703654      745.04907    
   2921000   300.6908       0.0090902144   3.8310985      746.02217     -14.790204      731.23196    
   2922000   289.52732      0.0090902144   0.81947185     718.32526     -14.25539       704.06987    
   2923000   296.52034      0.0090902144   1.3930514      735.67514     -11.944928      723.73022    
   2924000   307.81779      0.0090902144   8.6265345      763.70443     -16.075036      747.6294     
   2925000   300.20757      0.0090902144   7.3384862      744.82327     -10.466488      734.35678    
   2926000   294.89993      0.0090902144   0.47081019     731.65486     -14.274694      717.38017    
   2927000   292.7412       0.0090902144   5.3764352      726.29898     -15.506896      710.79208    
   2928000   294.02086      0.0090902144   5.8164837      729.47386     -13.112447      716.36141    
   2929000   317.17841      0.0090902144   5.7110247      786.92837     -14.269343      772.65903    
   2930000   312.17251      0.0090902144  -1.0003795      774.5086      -12.98962       761.51898    
   2931000   288.56893      0.0090902144   4.0178365      715.94746     -12.99945       702.94801    
   2932000   288.85092      0.0090902144   8.2387113      716.64709     -13.936414      702.71067    
   2933000   309.87779      0.0090902144   5.536887       768.81533     -17.048436      751.7669     
   2934000   302.41619      0.0090902144   3.3054475      750.3029      -13.629963      736.67293    
   2935000   295.19966      0.0090902144   4.6765043      732.39849     -12.588257      719.81024    
   2936000   302.6682       0.0090902144   4.8504774      750.92814     -18.22421       732.70393    
   2937000   304.22835      0.0090902144   6.0544521      754.79892     -16.165389      738.63353    
   2938000   302.35539      0.0090902144   5.0811863      750.15206     -13.326219      736.82584    
   2939000   298.84251      0.0090902144   5.5035217      741.43651     -12.101117      729.33539    
   2940000   304.12018      0.0090902144   2.7040287      754.53054     -12.273813      742.25673    
   2941000   309.55106      0.0090902144   5.2077617      768.00471     -11.564754      756.43995    
   2942000   296.32286      0.0090902144   2.9557875      735.18518     -13.570669      721.61451    
   2943000   298.77879      0.0090902144   7.1698553      741.27842     -7.9692816      733.30914    
   2944000   299.20752      0.0090902144   7.6845979      742.34211     -13.460283      728.88183    
   2945000   301.67298      0.0090902144   4.9735177      748.45897     -11.658611      736.80036    
   2946000   296.2936       0.0090902144   4.0851829      735.11258     -13.464515      721.64806    
   2947000   300.69665      0.0090902144   5.3997276      746.03668     -12.451104      733.58558    
   2948000   285.44079      0.0090902144   4.4886981      708.18648     -14.938545      693.24793    
   2949000   297.171        0.0090902144   5.2277613      737.28944     -17.227046      720.06239    
   2950000   291.1804       0.0090902144   4.4230405      722.4266      -15.979253      706.44734    
   2951000   301.42566      0.0090902144   3.8297948      747.84538     -16.261565      731.58382    
   2952000   302.72096      0.0090902144   5.1491924      751.05905     -15.622024      735.43703    
   2953000   306.70917      0.0090902144   5.1168297      760.95391     -16.125299      744.82861    
   2954000   297.30358      0.0090902144   3.9378595      737.61838     -19.52667       718.09171    
   2955000   300.75177      0.0090902144   5.0241821      746.17344     -16.242711      729.93073    
   2956000   304.03126      0.0090902144   5.2061336      754.30993     -12.618412      741.69152    
   2957000   295.19937      0.0090902144   4.6034592      732.39777     -14.642484      717.75529    
   2958000   301.14887      0.0090902144   4.8882397      747.15866     -14.230454      732.9282     
   2959000   294.41858      0.0090902144   4.8940354      730.46062     -14.873589      715.58703    
   2960000   300.66115      0.0090902144   4.958258       745.94861     -14.095361      731.85325    
   2961000   307.84564      0.0090902144   4.1917934      763.77351     -15.888466      747.88505    
   2962000   306.21864      0.0090902144   5.7567791      759.7369      -19.337608      740.39929    
   2963000   289.18182      0.0090902144   5.0719451      717.46807     -18.250209      699.21786    
   2964000   293.1186       0.0090902144   4.7620837      727.23533     -14.873046      712.36229    
   2965000   311.78332      0.0090902144   4.9732978      773.54301     -10.2417        763.30131    
   2966000   310.9727       0.0090902144   4.835338       771.53184     -11.223072      760.30876    
   2967000   305.08175      0.0090902144   6.0893486      756.91623     -10.749908      746.16633    
   2968000   295.92278      0.0090902144   5.4435639      734.19256     -13.418252      720.77431    
   2969000   277.34751      0.0090902144   4.163463       688.10682     -17.557918      670.5489     
   2970000   308.29876      0.0090902144   4.5342039      764.89773     -15.921127      748.9766     
   2971000   308.40176      0.0090902144   5.4412909      765.15328     -14.014456      751.13882    
   2972000   294.1985       0.0090902144   5.3826079      729.91459     -14.282333      715.63226    
   2973000   287.53861      0.0090902144   4.0253672      713.39121     -13.762325      699.62889    
   2974000   302.70165      0.0090902144   3.0041791      751.01113     -15.275669      735.73546    
   2975000   301.0693       0.0090902144   5.7685822      746.96122     -14.774109      732.18711    
   2976000   292.18538      0.0090902144   5.5967314      724.91999     -13.378901      711.54108    
   2977000   300.84212      0.0090902144   4.9513179      746.39759     -17.866496      728.5311     
   2978000   301.36122      0.0090902144   6.0234583      747.68549     -15.690014      731.99547    
   2979000   297.22432      0.0090902144   4.4675708      737.42173     -15.269708      722.15202    
   2980000   284.14636      0.0090902144   5.3793626      704.97495     -16.200584      688.77437    
   2981000   308.28856      0.0090902144   5.8952239      764.87242     -13.575607      751.29682    
   2982000   312.55002      0.0090902144   5.498857       775.44521     -12.806062      762.63915    
   2983000   296.38381      0.0090902144   4.9763313      735.33639     -13.127797      722.20859    
   2984000   295.8446       0.0090902144   4.3740382      733.99861     -12.535147      721.46346    
   2985000   299.43916      0.0090902144   4.551398       742.91682     -11.988853      730.92797    
   2986000   312.98236      0.0090902144   5.3986738      776.51785     -9.7827552      766.7351     
   2987000   300.16691      0.0090902144   5.4117703      744.72239     -12.137123      732.58526    
   2988000   306.50362      0.0090902144   5.0502896      760.44394     -13.72427       746.71967    
   2989000   296.5994       0.0090902144   4.3173846      735.87128     -11.790297      724.08099    
   2990000   299.36142      0.0090902144   5.7034099      742.72394     -14.428271      728.29567    
   2991000   296.17806      0.0090902144   4.2074611      734.82594     -15.592671      719.23327    
   2992000   291.5418       0.0090902144   3.5248701      723.32324     -11.494572      711.82866    
   2993000   304.37034      0.0090902144   4.5967305      755.15121     -12.69739       742.45382    
   2994000   293.43126      0.0090902144   3.7947235      728.01103     -16.808327      711.20271    
   2995000   280.05026      0.0090902144   3.985354       694.81242     -13.596066      681.21636    
   2996000   305.94886      0.0090902144   4.8477146      759.06756     -15.104879      743.96268    
   2997000   306.4365       0.0090902144   7.5742941      760.2774      -12.829499      747.4479     
   2998000   286.3356       0.0090902144   4.5175062      710.40653     -16.940828      693.4657     
   2999000   309.60957      0.0090902144   0.46619879     768.14987     -18.093805      750.05607    
   3000000   313.00932      0.0090902144   4.7490615      776.58476     -13.204188      763.38057    
   3001000   299.69166      0.0090902144   8.7738161      743.54326     -15.554137      727.98913    
   3002000   287.39832      0.0090902144   4.2611809      713.04316     -17.141123      695.90204    
   3003000   293.9139       0.0090902144   4.4908974      729.20849     -14.092993      715.1155     
   3004000   304.43908      0.0090902144   5.194657       755.32174     -16.827908      738.49384    
   3005000   301.91277      0.0090902144   7.0827027      749.05392     -15.743662      733.31025    
   3006000   289.56676      0.0090902144   4.4641696      718.42311     -16.285643      702.13747    
   3007000   294.5965       0.0090902144  -1.0974456      730.90203     -15.452676      715.44935    
   3008000   312.85184      0.0090902144   7.2195959      776.19404     -17.668076      758.52597    
   3009000   300.96607      0.0090902144   5.6306684      746.70512     -17.074361      729.63076    
   3010000   300.6389       0.0090902144   1.5700061      745.8934      -15.442841      730.45056    
   3011000   302.50575      0.0090902144   8.718153       750.5251      -13.610089      736.91501    
   3012000   306.38991      0.0090902144   4.4350394      760.16182     -14.791483      745.37034    
   3013000   302.33475      0.0090902144   0.31256855     750.10086     -12.631567      737.46929    
   3014000   300.50674      0.0090902144   5.1350987      745.56552     -11.63332       733.9322     
   3015000   293.71596      0.0090902144   5.0444432      728.71738     -13.409373      715.30801    
   3016000   299.87886      0.0090902144   4.8960185      744.00772     -16.261002      727.74672    
   3017000   314.1041       0.0090902144   4.4887867      779.30093     -15.787309      763.51362    
   3018000   299.67396      0.0090902144   5.6182524      743.49937     -9.075614       734.42375    
   3019000   287.61727      0.0090902144   4.8527419      713.58638     -12.877117      700.70926    
   3020000   297.46077      0.0090902144   5.0543492      738.00838     -15.540478      722.4679     
   3021000   312.21568      0.0090902144   5.1474426      774.6157      -17.109447      757.50625    
   3022000   310.43521      0.0090902144   2.1023605      770.19831     -18.075216      752.12309    
   3023000   295.6934       0.0090902144   5.4945032      733.62348     -17.459826      716.16366    
   3024000   295.23546      0.0090902144   9.00902        732.48732     -21.504807      710.98251    
   3025000   299.43046      0.0090902144   4.82948        742.89524     -21.92539       720.96985    
   3026000   300.88544      0.0090902144   1.2865015      746.50507     -22.52496       723.98011    
   3027000   291.83651      0.0090902144   2.9905957      724.05442     -20.545511      703.50891    
   3028000   287.94249      0.0090902144   6.5110075      714.39326     -20.219171      694.17409    
   3029000   302.13734      0.0090902144   7.0398386      749.61106     -17.913441      731.69762    
   3030000   307.36849      0.0090902144   2.0903242      762.58969     -17.628636      744.96106    
   3031000   299.82379      0.0090902144   4.2671722      743.8711      -21.469868      722.40123    
   3032000   297.20041      0.0090902144   5.1653791      737.3624      -20.084694      717.2777     
   3033000   304.61255      0.0090902144   5.1744038      755.75214     -19.149406      736.60273    
   3034000   295.89529      0.0090902144   5.063225       734.12436     -19.601602      714.52276    
   3035000   301.33664      0.0090902144   2.6284759      747.6245      -16.907222      730.71728    
   3036000   302.48982      0.0090902144   5.2516832      750.48559     -17.493336      732.99225    
   3037000   278.33376      0.0090902144   6.270201       690.55372     -16.69853       673.85519    
   3038000   298.70469      0.0090902144   4.3284269      741.09456     -18.393889      722.70067    
   3039000   312.09509      0.0090902144   4.8899339      774.31652     -14.15451       760.16201    
   3040000   302.27338      0.0090902144   5.0463962      749.94859     -15.311945      734.63664    
   3041000   294.0298       0.0090902144   8.1010709      729.49605     -17.035068      712.46098    
   3042000   286.71154      0.0090902144   4.0360469      711.33923     -18.432263      692.90697    
   3043000   305.01473      0.0090902144   3.0188308      756.74997     -19.24312       737.50684    
   3044000   312.94316      0.0090902144   5.1762919      776.42061     -16.860363      759.56025    
   3045000   304.44261      0.0090902144   6.4749792      755.33051     -18.550934      736.77957    
   3046000   294.99313      0.0090902144   4.9464617      731.8861      -16.220551      715.66554    
   3047000   304.68728      0.0090902144   6.3602358      755.93753     -16.843648      739.09388    
   3048000   308.83745      0.0090902144   4.8891177      766.23422     -16.006735      750.22749    
   3049000   303.37178      0.0090902144   2.0068221      752.67375     -16.695035      735.97871    
   3050000   302.58376      0.0090902144   5.274595       750.71865     -14.910142      735.80851    
   3051000   303.30414      0.0090902144   5.3490421      752.50594     -15.436998      737.06894    
   3052000   298.37164      0.0090902144   5.0711647      740.26827     -17.883001      722.38527    
   3053000   294.07918      0.0090902144   5.0849448      729.61856     -14.178223      715.44034    
   3054000   321.29297      0.0090902144   5.9756618      797.13672     -16.666532      780.47019    
   3055000   304.35974      0.0090902144   4.9395317      755.1249      -19.34904       735.77586    
   3056000   298.32429      0.0090902144   4.7442653      740.15079     -17.318971      722.83182    
   3057000   306.03576      0.0090902144   4.3813826      759.28314     -21.53171       737.75143    
   3058000   294.191        0.0090902144   5.7142252      729.89597     -22.52079       707.37518    
   3059000   299.72218      0.0090902144   8.1790929      743.619       -18.461103      725.15789    
   3060000   309.39035      0.0090902144   5.5088028      767.60598     -14.043065      753.56291    
   3061000   304.97276      0.0090902144   2.737271       756.64581     -14.942893      741.70292    
   3062000   286.01789      0.0090902144   5.7756456      709.61827     -16.044563      693.57371    
   3063000   293.86971      0.0090902144   8.2660629      729.09885     -19.020462      710.07839    
   3064000   305.75063      0.0090902144   6.5367669      758.57573     -15.583489      742.99224    
   3065000   319.6872       0.0090902144   2.9143794      793.15276     -14.259299      778.89346    
   3066000   298.07035      0.0090902144   4.9439673      739.52074     -16.173342      723.3474     
   3067000   297.77919      0.0090902144   5.4884173      738.79839     -17.086645      721.71174    
   3068000   306.23166      0.0090902144   5.5313117      759.76919     -16.154237      743.61496    
   3069000   296.79242      0.0090902144   3.2266957      736.35016     -14.392068      721.9581     
   3070000   299.71454      0.0090902144   4.2571187      743.60004     -20.804504      722.79553    
   3071000   298.73291      0.0090902144   5.40193        741.16457     -18.339639      722.82493    
   3072000   301.9295       0.0090902144   5.2105064      749.09542     -16.894421      732.20099    
   3073000   309.49349      0.0090902144   5.1562786      767.86188     -17.286922      750.57496    
   3074000   304.65058      0.0090902144   4.3716104      755.8465      -14.6495        741.197      
   3075000   292.84461      0.0090902144   4.6002656      726.55555     -15.441216      711.11433    
   3076000   284.53693      0.0090902144   5.8395994      705.94396     -14.144259      691.7997     
   3077000   305.92025      0.0090902144   5.0357512      758.99656     -16.355685      742.64088    
   3078000   295.40133      0.0090902144   4.0814244      732.89883     -18.725118      714.17372    
   3079000   296.2516       0.0090902144   5.6953453      735.00839     -16.309929      718.69846    
   3080000   304.51202      0.0090902144   5.1906049      755.50272     -18.483906      737.01881    
   3081000   288.40213      0.0090902144   3.7116718      715.53362     -19.042812      696.49081    
   3082000   304.32462      0.0090902144   6.2766446      755.03776     -17.192081      737.84568    
   3083000   297.10199      0.0090902144   6.0853392      737.11822     -14.969903      722.14832    
   3084000   304.23475      0.0090902144   4.7476793      754.81481     -14.25967       740.55514    
   3085000   293.96596      0.0090902144   4.8884471      729.33765     -15.578611      713.75904    
   3086000   294.33076      0.0090902144   3.3493302      730.24274     -13.225072      717.01767    
   3087000   308.30657      0.0090902144   5.4059136      764.9171      -14.122413      750.79469    
   3088000   296.51816      0.0090902144   5.1311567      735.66972     -13.579512      722.09021    
   3089000   304.22646      0.0090902144   4.0341775      754.79424     -15.639744      739.15449    
   3090000   304.05175      0.0090902144   4.9426803      754.36078     -19.102109      735.25867    
   3091000   292.96585      0.0090902144   4.614587       726.85636     -16.049042      710.80731    
   3092000   288.50829      0.0090902144   2.0733088      715.79702     -17.468545      698.32847    
   3093000   308.63962      0.0090902144   4.8042339      765.7434      -19.340932      746.40247    
   3094000   308.35568      0.0090902144   5.3524825      765.03894     -17.562516      747.47642    
   3095000   289.31208      0.0090902144   4.656114       717.79124     -16.748922      701.04232    
   3096000   293.98982      0.0090902144   4.8475074      729.39684     -17.772207      711.62464    
   3097000   305.72444      0.0090902144   5.3148141      758.51075     -17.533892      740.97686    
   3098000   312.31271      0.0090902144   6.5424555      774.85645     -15.18372       759.67273    
   3099000   286.00137      0.0090902144   7.7529394      709.57728     -17.31199       692.26529    
   3100000   308.46351      0.0090902144   5.6018629      765.30648     -16.806643      748.49983    
   3101000   296.11775      0.0090902144   4.6498675      734.6763      -13.861687      720.81462    
   3102000   299.4026       0.0090902144   5.476636       742.82611     -16.018768      726.80734    
   3103000   307.22924      0.0090902144   5.0628032      762.24421     -16.680729      745.56348    
   3104000   297.80547      0.0090902144   4.4283785      738.86359     -15.765045      723.09854    
   3105000   294.1755       0.0090902144   5.6916481      729.85753     -19.972658      709.88487    
   3106000   300.40161      0.0090902144   6.3494062      745.30466     -18.173108      727.13155    
   3107000   304.57652      0.0090902144   5.7732103      755.66274     -16.703109      738.95963    
   3108000   299.54171      0.0090902144   3.355257       743.17125     -16.098848      727.0724     
   3109000   297.257        0.0090902144   5.5722617      737.50282     -13.634548      723.86827    
   3110000   299.37981      0.0090902144   6.2237195      742.76956     -13.467467      729.3021     
   3111000   302.55116      0.0090902144   5.3179572      750.63777     -11.812176      738.8256     
   3112000   320.84775      0.0090902144   3.4833242      796.03212     -11.921325      784.1108     
   3113000   305.67845      0.0090902144   3.7742727      758.39666     -19.993978      738.40268    
   3114000   290.27097      0.0090902144   5.6583344      720.17029     -20.130375      700.03991    
   3115000   296.58505      0.0090902144   5.8553684      735.8357      -16.7619        719.0738     
   3116000   302.63244      0.0090902144   5.9155704      750.83942     -17.914463      732.92496    
   3117000   300.94855      0.0090902144  -7.0088411      746.66165     -14.533183      732.12847    
   3118000   299.03293      0.0090902144   4.437583       741.90894     -12.308085      729.60085    
   3119000   298.91905      0.0090902144   9.8703497      741.62639     -12.116587      729.50981    
   3120000   295.40881      0.0090902144   1.514302       732.91741     -13.321503      719.5959     
   3121000   302.38201      0.0090902144  -1.4365992      750.21811     -14.433013      735.7851     
   3122000   298.16269      0.0090902144   5.4939995      739.74984     -13.758176      725.99167    
   3123000   300.2128       0.0090902144   5.6287926      744.83623     -17.201249      727.63498    
   3124000   309.80185      0.0090902144   4.4962763      768.62692     -17.414141      751.21278    
   3125000   312.5838       0.0090902144   4.139539       775.52902     -14.590671      760.93835    
   3126000   296.69887      0.0090902144   3.922551       736.11807     -13.656911      722.46116    
   3127000   288.12699      0.0090902144   7.928636       714.851       -14.972881      699.87812    
   3128000   298.90166      0.0090902144   5.2438894      741.58327     -13.103894      728.47937    
   3129000   318.56572      0.0090902144   5.2439291      790.37033     -17.509854      772.86048    
   3130000   294.5477       0.0090902144   5.0268972      730.78096     -17.487177      713.29379    
   3131000   292.85973      0.0090902144   1.0076859      726.59305     -15.362067      711.23098    
   3132000   304.90995      0.0090902144   5.1476822      756.48999     -18.048923      738.44107    
   3133000   282.49296      0.0090902144   5.1545761      700.87282     -14.506684      686.36614    
   3134000   300.21241      0.0090902144   4.7938468      744.83527     -17.245168      727.5901     
   3135000   319.50275      0.0090902144   4.8710871      792.69513     -18.95016       773.74497    
   3136000   296.28433      0.0090902144   4.9347633      735.08959     -17.192199      717.89739    
   3137000   295.24004      0.0090902144   5.3282684      732.49869     -13.219366      719.27932    
   3138000   309.37638      0.0090902144   5.2299282      767.57132     -16.716615      750.85471    
   3139000   294.15856      0.0090902144   6.6069208      729.81549     -16.575226      713.24026    
   3140000   291.05993      0.0090902144   4.9212964      722.1277      -19.333973      702.79373    
   3141000   295.08155      0.0090902144   5.44705        732.10545     -19.129501      712.97595    
   3142000   315.98055      0.0090902144   5.3487326      783.95644     -18.381743      765.5747     
   3143000   311.86385      0.0090902144   4.8657734      773.74281     -18.830809      754.91201    
   3144000   291.77024      0.0090902144   4.2460435      723.89002     -19.373069      704.51695    
   3145000   288.44303      0.0090902144   5.4006776      715.6351      -20.048173      695.58693    
   3146000   291.21139      0.0090902144   5.1973029      722.50349     -21.561249      700.94224    
   3147000   306.48557      0.0090902144   4.3936779      760.39914     -21.251466      739.14767    
   3148000   295.76246      0.0090902144   4.9809322      733.79481     -20.055725      713.73909    
   3149000   307.64048      0.0090902144   11.561952      763.2645      -16.849566      746.41494    
   3150000   304.80951      0.0090902144   4.4117765      756.24081     -20.347326      735.89348    
   3151000   307.02209      0.0090902144   0.36938736     761.73028     -19.039231      742.69105    
   3152000   297.57214      0.0090902144   1.6810414      738.28468     -17.928322      720.35636    
   3153000   299.45135      0.0090902144   4.9341109      742.94706     -21.623826      721.32324    
   3154000   294.461        0.0090902144   9.0496988      730.56586     -16.288355      714.2775     
   3155000   304.9974       0.0090902144   5.2086779      756.70695     -17.709026      738.99792    
   3156000   315.24598      0.0090902144   3.712929       782.13397     -15.342595      766.79138    
   3157000   299.30959      0.0090902144   2.8443589      742.59534     -17.216743      725.3786     
   3158000   305.73633      0.0090902144   3.2804063      758.54026     -16.617866      741.92239    
   3159000   290.5843       0.0090902144   1.537053       720.94765     -17.784036      703.16362    
   3160000   300.52507      0.0090902144   8.818783       745.61099     -15.487945      730.12304    
   3161000   306.3174       0.0090902144   2.2456881      759.9819      -15.454751      744.52715    
   3162000   301.22268      0.0090902144   1.2917872      747.34177     -15.50433       731.83744    
   3163000   302.39206      0.0090902144   12.16291       750.24304     -18.521032      731.72201    
   3164000   272.82084      0.0090902144   5.3032715      676.87603     -18.188493      658.68754    
   3165000   299.56405      0.0090902144   10.390655      743.22667     -17.796991      725.42968    
   3166000   317.59091      0.0090902144   4.9622568      787.9518      -18.144731      769.80707    
   3167000   307.28588      0.0090902144   3.343532       762.38473     -16.871479      745.51325    
   3168000   291.74326      0.0090902144   4.2230149      723.82307     -16.66761       707.15546    
   3169000   304.61532      0.0090902144   8.367151       755.759       -17.297623      738.46138    
   3170000   303.29853      0.0090902144   4.4796232      752.49202     -18.293868      734.19815    
   3171000   291.97164      0.0090902144   4.1514527      724.38968     -19.570259      704.81943    
   3172000   307.46989      0.0090902144   5.2356405      762.84127     -16.340317      746.50095    
   3173000   319.12389      0.0090902144   5.5900211      791.75517     -14.649411      777.10576    
   3174000   300.81872      0.0090902144   4.7077608      746.33954     -14.302645      732.0369     
   3175000   299.63845      0.0090902144   3.9622572      743.41127     -15.895742      727.51552    
   3176000   302.06001      0.0090902144   4.7237145      749.41921     -16.588302      732.83091    
   3177000   282.62997      0.0090902144   5.4307034      701.21275     -17.973712      683.23904    
   3178000   300.74842      0.0090902144   5.6762427      746.16512     -15.795283      730.36984    
   3179000   311.54585      0.0090902144   4.8505504      772.95385     -15.079704      757.87415    
   3180000   305.16535      0.0090902144   4.1069736      757.12364     -15.039778      742.08387    
   3181000   297.10074      0.0090902144   5.3565308      737.11513     -12.646071      724.46906    
   3182000   292.08693      0.0090902144   7.6387789      724.67572     -17.951747      706.72398    
   3183000   306.04362      0.0090902144   2.4967259      759.30265     -15.405244      743.89741    
   3184000   308.25817      0.0090902144   2.0891925      764.79701     -15.63159       749.16542    
   3185000   295.84518      0.0090902144   7.6770667      734.00006     -16.122746      717.87731    
   3186000   298.13534      0.0090902144   7.5617864      739.68199     -16.596411      723.08558    
   3187000   309.64263      0.0090902144   5.1318541      768.2319      -17.878157      750.35375    
   3188000   301.04387      0.0090902144   2.0509532      746.89815     -15.028233      731.86992    
   3189000   297.4724       0.0090902144   5.8269         738.03722     -12.685358      725.35186    
   3190000   304.82658      0.0090902144   5.5635248      756.28316     -14.560733      741.72243    
   3191000   305.73962      0.0090902144   4.8847227      758.54841     -12.217599      746.33081    
   3192000   296.43455      0.0090902144   4.8609192      735.46229     -13.411833      722.05045    
   3193000   300.38054      0.0090902144   5.4931477      745.25241     -16.012679      729.23973    
   3194000   300.29546      0.0090902144   5.5222069      745.04131     -12.213545      732.82777    
   3195000   309.27902      0.0090902144   4.9536801      767.32979     -14.559088      752.7707     
   3196000   306.04027      0.0090902144   1.3271044      759.29434     -15.831509      743.46283    
   3197000   287.20356      0.0090902144   5.9911056      712.55995     -14.394777      698.16517    
   3198000   300.76218      0.0090902144   9.3799744      746.19926     -14.860935      731.33833    
   3199000   319.64663      0.0090902144   3.1312711      793.05211     -17.756624      775.29549    
   3200000   284.70323      0.0090902144  -2.7379464      706.35655     -17.618191      688.73836    
   3201000   287.78745      0.0090902144   3.2796164      714.00861     -20.515006      693.4936     
   3202000   290.14649      0.0090902144   12.654192      719.86144     -13.491395      706.37004    
   3203000   312.31955      0.0090902144  -5.6440791      774.8734      -10.737145      764.13626    
   3204000   310.96784      0.0090902144  -1.4038117      771.51978     -14.639773      756.88       
   3205000   288.6153       0.0090902144   13.782841      716.06252     -14.431594      701.63092    
   3206000   308.26982      0.0090902144   18.543628      764.82592     -11.323247      753.50267    
   3207000   306.02951      0.0090902144  -1.3428766      759.26764     -11.679365      747.58828    
   3208000   296.67061      0.0090902144  -2.22049        736.04796     -14.700441      721.34752    
   3209000   299.67988      0.0090902144   6.8642529      743.51405     -14.773318      728.74073    
   3210000   301.54641      0.0090902144   8.5879924      748.14496     -15.027129      733.11783    
   3211000   306.13394      0.0090902144   3.4751775      759.52674     -14.321841      745.2049     
   3212000   307.39381      0.0090902144   1.9090696      762.65253     -14.859637      747.79289    
   3213000   299.79735      0.0090902144   5.3034996      743.80549     -15.678201      728.12729    
   3214000   291.72782      0.0090902144   6.5413425      723.78476     -16.341487      707.44327    
   3215000   302.1352       0.0090902144   6.4024279      749.60577     -17.090974      732.5148     
   3216000   313.69743      0.0090902144   5.3946276      778.29196     -17.229183      761.06278    
   3217000   312.22957      0.0090902144   4.0852193      774.65016     -17.200357      757.4498     
   3218000   297.22977      0.0090902144   3.6288458      737.43525     -15.407958      722.0273     
   3219000   279.83457      0.0090902144   9.351634       694.27728     -15.228618      679.04866    
   3220000   311.93792      0.0090902144   6.5166782      773.92659     -15.206281      758.72031    
   3221000   301.33729      0.0090902144   3.6127534      747.62611     -13.905335      733.72078    
   3222000   287.65011      0.0090902144   5.1343831      713.66785     -14.06811       699.59974    
   3223000   300.761        0.0090902144   6.526974       746.19633     -13.247777      732.94856    
   3224000   319.20987      0.0090902144   6.9130235      791.96848     -15.912865      776.05561    
   3225000   296.17269      0.0090902144   1.5887547      734.81262     -16.407596      718.40502    
   3226000   293.61624      0.0090902144   6.4236042      728.46998     -14.330306      714.13967    
   3227000   310.83107      0.0090902144   6.9648581      771.18046     -18.219294      752.96116    
   3228000   302.93759      0.0090902144   3.512683       751.59651     -15.408627      736.18789    
   3229000   289.83649      0.0090902144   1.4310371      719.09233     -12.379069      706.71326    
   3230000   293.64199      0.0090902144   5.5546111      728.53386     -11.484393      717.04947    
   3231000   320.91605      0.0090902144   7.5439079      796.20157     -12.381308      783.82027    
   3232000   296.57617      0.0090902144   3.5168061      735.81366     -9.9937983      725.81987    
   3233000   294.0275       0.0090902144   1.851788       729.49034     -12.070721      717.41962    
   3234000   299.28426      0.0090902144   9.799929       742.53249     -11.294703      731.23779    
   3235000   305.39366      0.0090902144   10.934768      757.6901      -11.607096      746.083      
   3236000   295.63248      0.0090902144   1.8213351      733.47232     -14.135535      719.33679    
   3237000   297.20714      0.0090902144   3.1227335      737.37911     -13.524799      723.85431    
   3238000   296.29989      0.0090902144   1.9204085      735.12818     -13.441414      721.68677    
   3239000   296.85845      0.0090902144   6.3780535      736.514       -12.719833      723.79417    
   3240000   315.77968      0.0090902144   8.1301907      783.45809     -10.993584      772.4645     
   3241000   302.58101      0.0090902144   3.2302963      750.71182     -13.632131      737.07969    
   3242000   305.73624      0.0090902144   4.7284086      758.54005     -17.148067      741.39198    
   3243000   301.4563       0.0090902144   5.2791354      747.92139     -16.145535      731.77585    
   3244000   311.86372      0.0090902144   5.5006094      773.74249     -14.938929      758.80356    
   3245000   296.66336      0.0090902144   3.142556       736.02996     -12.117987      723.91198    
   3246000   278.98147      0.0090902144   4.3720292      692.16072     -10.530042      681.63067    
   3247000   301.48636      0.0090902144   5.5624499      747.99598     -16.520863      731.47511    
   3248000   304.10291      0.0090902144   6.3164202      754.4877      -13.579814      740.90789    
   3249000   298.81028      0.0090902144   3.8695916      741.35655     -10.858646      730.4979     
   3250000   288.00075      0.0090902144   4.6014782      714.53781     -13.467716      701.07009    
   3251000   293.48996      0.0090902144   4.122303       728.15668     -10.715328      717.44135    
   3252000   314.59446      0.0090902144   3.6554046      780.51752     -13.407208      767.11032    
   3253000   304.27024      0.0090902144   5.9617618      754.90284     -11.349357      743.55348    
   3254000   282.23097      0.0090902144   3.1306134      700.22282     -12.43521       687.78761    
   3255000   311.68174      0.0090902144   4.8653445      773.29098     -12.858858      760.43212    
   3256000   299.79914      0.0090902144   8.6294877      743.80993     -12.466765      731.34316    
   3257000   291.59853      0.0090902144   3.3320583      723.464       -14.802189      708.66181    
   3258000   315.19094      0.0090902144   8.1934653      781.99742     -15.276708      766.72071    
   3259000   312.27176      0.0090902144   6.1328161      774.75484     -15.146414      759.60843    
   3260000   293.88571      0.0090902144   4.8597557      729.13854     -15.946956      713.19158    
   3261000   302.13964      0.0090902144   3.4246512      749.61677     -14.406387      735.21038    
   3262000   298.33184      0.0090902144   7.0511379      740.16951     -16.794049      723.37547    
   3263000   298.58354      0.0090902144   5.6384642      740.79399     -19.193771      721.60021    
   3264000   299.532        0.0090902144   4.1964552      743.14716     -14.175307      728.97185    
   3265000   298.83892      0.0090902144   5.1035286      741.4276      -17.366479      724.06112    
   3266000   287.56952      0.0090902144   7.6228192      713.4679      -15.538518      697.92939    
   3267000   299.81566      0.0090902144   3.5697756      743.85092     -15.962686      727.88824    
   3268000   302.89668      0.0090902144   3.1663478      751.49501     -15.365317      736.12969    
   3269000   305.56607      0.0090902144   3.537768       758.11785     -15.421749      742.6961     
   3270000   305.11652      0.0090902144   4.8789568      757.0025      -11.22624       745.77626    
   3271000   294.01567      0.0090902144   5.7718492      729.46099     -14.850629      714.61036    
   3272000   299.34007      0.0090902144   3.2751119      742.67097     -16.554443      726.11653    
   3273000   302.16811      0.0090902144   3.5993972      749.68741     -14.321327      735.36608    
   3274000   295.34415      0.0090902144   5.2027035      732.75698     -16.746902      716.01008    
   3275000   293.97176      0.0090902144   6.7936851      729.35204     -16.478082      712.87396    
   3276000   287.36414      0.0090902144   2.3067367      712.95836     -12.81818       700.14018    
   3277000   291.87058      0.0090902144   1.4587963      724.13896     -15.265118      708.87384    
   3278000   318.10988      0.0090902144   4.6335126      789.23939     -19.026926      770.21247    
   3279000   305.16251      0.0090902144   10.387604      757.11659     -15.550083      741.56651    
   3280000   292.84923      0.0090902144   6.775315       726.567       -16.918237      709.64876    
   3281000   306.73321      0.0090902144   4.9687052      761.01354     -18.30034       742.7132     
   3282000   313.15636      0.0090902144   4.3475887      776.94956     -15.286988      761.66257    
   3283000   297.47598      0.0090902144   5.3938946      738.04612     -17.714019      720.3321     
   3284000   292.09798      0.0090902144   5.8194824      724.70315     -14.388616      710.31454    
   3285000   290.4331       0.0090902144   4.5207193      720.57253     -14.250663      706.32187    
   3286000   305.87394      0.0090902144   2.2402455      758.88169     -15.994666      742.88702    
   3287000   299.11138      0.0090902144   7.2404972      742.10357     -20.18994       721.91363    
   3288000   291.25815      0.0090902144   3.6792909      722.61951     -18.139417      704.48009    
   3289000   298.37331      0.0090902144   1.6659855      740.2724      -13.937544      726.33486    
   3290000   310.79045      0.0090902144   7.7483148      771.07967     -21.110844      749.96882    
   3291000   292.82866      0.0090902144   5.5203493      726.51598     -16.497789      710.01819    
   3292000   307.32685      0.0090902144   1.6023421      762.48639     -16.165861      746.32053    
   3293000   324.09005      0.0090902144   5.4128932      804.07635     -15.673113      788.40323    
   3294000   304.43979      0.0090902144   8.0650471      755.3235      -12.241558      743.08195    
   3295000   291.5311       0.0090902144   5.3820929      723.2967      -13.503169      709.79353    
   3296000   312.47138      0.0090902144   3.646882       775.2501      -13.150333      762.09977    
   3297000   304.9887       0.0090902144   4.8748852      756.68536     -15.998473      740.68689    
   3298000   294.77136      0.0090902144   6.4622914      731.33586     -13.642674      717.69318    
   3299000   280.34873      0.0090902144   4.7425629      695.55292     -12.507665      683.04525    
   3300000   307.2373       0.0090902144   4.4082383      762.26421     -14.133553      748.13065    
   3301000   309.35827      0.0090902144   5.1917063      767.5264      -10.051019      757.47538    
   3302000   319.90003      0.0090902144   6.629308       793.68079     -12.310209      781.37058    
   3303000   294.30043      0.0090902144   5.4154508      730.16749     -14.037451      716.13004    
   3304000   294.05904      0.0090902144   5.0236058      729.56858     -13.446963      716.12162    
   3305000   302.04571      0.0090902144   5.6836286      749.38374     -15.529135      733.8546     
   3306000   305.63606      0.0090902144   3.9680381      758.29148     -15.392496      742.89898    
   3307000   286.77557      0.0090902144   3.4823123      711.49808     -10.774289      700.7238     
   3308000   294.29375      0.0090902144   4.5319105      730.15091     -15.136471      715.01444    
   3309000   300.09009      0.0090902144   6.6960397      744.53178     -12.965663      731.56612    
   3310000   301.5377       0.0090902144   7.3363404      748.12335     -14.168908      733.95444    
   3311000   305.31501      0.0090902144   5.480188       757.49496     -16.610747      740.88421    
   3312000   301.24747      0.0090902144   3.2259872      747.40328     -16.379604      731.02368    
   3313000   287.48304      0.0090902144   3.9018236      713.25335     -12.144276      701.10907    
   3314000   280.78789      0.0090902144  -2.0988477      696.64248     -11.193413      685.44907    
   3315000   305.09229      0.0090902144   1.310696       756.94239     -10.928501      746.01389    
   3316000   299.59077      0.0090902144   6.2167317      743.29295     -11.037572      732.25538    
   3317000   302.3552       0.0090902144   7.9129726      750.15158     -11.008985      739.1426     
   3318000   300.11051      0.0090902144   0.015571265    744.58246     -12.432004      732.15045    
   3319000   294.51022      0.0090902144   10.367726      730.68798     -12.397355      718.29063    
   3320000   301.41694      0.0090902144   5.4324215      747.82374     -12.216201      735.60754    
   3321000   298.38521      0.0090902144   6.3105902      740.30194     -16.010482      724.29146    
   3322000   310.84198      0.0090902144   4.24107        771.20752     -15.780037      755.42748    
   3323000   315.89729      0.0090902144   1.3141768      783.74988     -13.890461      769.85941    
   3324000   286.15298      0.0090902144  -2.5845694      709.95342     -15.225628      694.72779    
   3325000   282.50434      0.0090902144   6.2200774      700.90106     -12.984008      687.91705    
   3326000   315.9898       0.0090902144   6.1117752      783.97941     -8.4337621      775.54565    
   3327000   306.20332      0.0090902144   1.6480395      759.69887     -15.037125      744.66174    
   3328000   290.51582      0.0090902144   0.79547987     720.77777     -17.729305      703.04846    
   3329000   300.02741      0.0090902144   6.1203091      744.37629     -12.217012      732.15928    
   3330000   315.01708      0.0090902144   7.1992579      781.56607     -13.597452      767.96862    
   3331000   299.11568      0.0090902144  -3.2635672      742.11425     -15.213472      726.90078    
   3332000   283.9675       0.0090902144   4.5163939      704.5312      -17.023969      687.50723    
   3333000   290.55206      0.0090902144   9.667645       720.86766     -14.20248       706.66518    
   3334000   316.2905       0.0090902144   14.112677      784.72546     -12.024984      772.70047    
   3335000   307.74933      0.0090902144   3.4197841      763.53457     -12.408186      751.12639    
   3336000   298.74081      0.0090902144   1.4574373      741.18417     -12.610139      728.57403    
   3337000   291.82427      0.0090902144   7.4019917      724.02406     -10.911229      713.11283    
   3338000   291.92868      0.0090902144   5.9053536      724.28311     -11.606609      712.6765     
   3339000   302.48909      0.0090902144   3.3899278      750.48377     -15.836763      734.64701    
   3340000   294.08131      0.0090902144   5.0966099      729.62385     -16.192847      713.431      
   3341000   313.51917      0.0090902144   4.5586608      777.8497      -13.746717      764.10298    
   3342000   315.30408      0.0090902144   6.0819827      782.27812     -14.488963      767.78916    
   3343000   296.19479      0.0090902144   5.1918692      734.86744     -14.52103       720.34641    
   3344000   302.99036      0.0090902144   4.7412312      751.72744     -9.1769649      742.55048    
   3345000   307.08642      0.0090902144   2.4034044      761.88988     -15.160823      746.72906    
   3346000   303.20807      0.0090902144   6.0976827      752.26758     -13.916279      738.3513     
   3347000   285.53902      0.0090902144   6.5882313      708.43018     -15.402826      693.02735    
   3348000   298.00576      0.0090902144   4.1650636      739.36051     -11.705548      727.65496    
   3349000   320.24142      0.0090902144  -5.2668615      794.52779     -13.657359      780.87043    
   3350000   307.87116      0.0090902144   7.4276463      763.83683     -13.211976      750.62486    
   3351000   294.13639      0.0090902144   6.0246802      729.76048     -13.745109      716.01537    
   3352000   300.12027      0.0090902144   6.2126928      744.60665     -15.171716      729.43494    
   3353000   288.51896      0.0090902144   0.94823168     715.8235      -16.111271      699.71223    
   3354000   315.52127      0.0090902144   4.0390248      782.81698     -15.472949      767.34403    
   3355000   298.21547      0.0090902144   8.2233819      739.8808      -12.909568      726.97123    
   3356000   293.44261      0.0090902144   4.5132047      728.03921     -17.37579       710.66342    
   3357000   300.99597      0.0090902144   4.4596624      746.77931     -14.313912      732.46539    
   3358000   305.45353      0.0090902144   6.0877052      757.83863     -13.673078      744.16555    
   3359000   300.46007      0.0090902144   3.8717577      745.44972     -14.501358      730.94836    
   3360000   309.36543      0.0090902144   3.3277795      767.54415     -13.44823       754.09592    
   3361000   306.70139      0.0090902144   9.876759       760.93461     -9.666819       751.26779    
   3362000   302.51255      0.0090902144   6.8875284      750.54198     -7.3888599      743.15312    
   3363000   297.79485      0.0090902144   1.7227609      738.83723     -11.311767      727.52546    
   3364000   293.02492      0.0090902144   4.0722583      727.0029      -8.1050529      718.89784    
   3365000   292.5423       0.0090902144   11.483992      725.80552     -13.570908      712.23461    
   3366000   293.84985      0.0090902144   4.5451683      729.04957     -13.674103      715.37546    
   3367000   292.60534      0.0090902144   7.1798219      725.96191     -14.352564      711.60935    
   3368000   296.69572      0.0090902144   0.66381553     736.11026     -15.801438      720.30882    
   3369000   305.84905      0.0090902144   4.6300695      758.81992     -11.607795      747.21213    
   3370000   305.80926      0.0090902144   5.0631833      758.72121     -12.214584      746.50663    
   3371000   305.33615      0.0090902144   8.0314589      757.5474      -9.0200592      748.52734    
   3372000   286.39096      0.0090902144   5.869797       710.54386     -10.029425      700.51443    
   3373000   289.9158       0.0090902144   2.2993074      719.28909     -9.8060389      709.48306    
   3374000   311.79669      0.0090902144   5.3431477      773.57619     -11.138218      762.43798    
   3375000   298.39935      0.0090902144   7.1958784      740.33702     -12.334836      728.00218    
   3376000   292.31441      0.0090902144   4.7920499      725.2401      -14.52445       710.71565    
   3377000   296.95484      0.0090902144   2.4419795      736.75315     -12.503601      724.24955    
   3378000   307.10117      0.0090902144   3.3620392      761.92647     -10.528569      751.39791    
   3379000   311.7537       0.0090902144   9.4692874      773.46952     -16.244586      757.22493    
   3380000   285.96362      0.0090902144   5.0587464      709.48363     -14.086009      695.39762    
   3381000   308.20395      0.0090902144   4.1185035      764.66248     -12.150373      752.51211    
   3382000   309.54675      0.0090902144   6.0217545      767.99402     -11.748354      756.24567    
   3383000   295.32806      0.0090902144   4.7653157      732.71707     -10.915569      721.8015     
   3384000   284.41243      0.0090902144   4.5105456      705.63507     -11.643875      693.99119    
   3385000   311.05835      0.0090902144   5.9865768      771.74433     -15.607954      756.13638    
   3386000   300.7295       0.0090902144   7.0764303      746.11819     -16.08627       730.03192    
   3387000   298.93764      0.0090902144   0.96179364     741.67252     -17.036972      724.63555    
   3388000   309.43668      0.0090902144   2.4156817      767.72092     -15.454449      752.26647    
   3389000   297.40097      0.0090902144   8.7036422      737.86001     -13.771052      724.08895    
   3390000   304.6061       0.0090902144   4.1021083      755.73613     -15.541919      740.19421    
   3391000   292.38989      0.0090902144   2.8058938      725.42737     -14.306973      711.1204     
   3392000   302.11451      0.0090902144   4.0464202      749.55443     -11.813994      737.74044    
   3393000   300.29685      0.0090902144   4.8918747      745.04475     -13.645596      731.39915    
   3394000   303.03805      0.0090902144   6.3437215      751.84576     -10.227696      741.61806    
   3395000   295.69225      0.0090902144   4.4184498      733.62063     -12.034647      721.58598    
   3396000   293.94179      0.0090902144   4.4514217      729.27768     -9.2754507      720.00223    
   3397000   316.98748      0.0090902144   5.9281181      786.45468     -15.050601      771.40407    
   3398000   316.81984      0.0090902144   6.8865088      786.03875     -15.813806      770.22494    
   3399000   292.36501      0.0090902144   5.1039758      725.36565     -18.855184      706.51047    
   3400000   316.2111       0.0090902144   2.2479566      784.52844     -17.075493      767.45295    
   3401000   293.40821      0.0090902144   7.7936748      727.95386     -14.209224      713.74464    
   3402000   286.57064      0.0090902144   6.0213607      710.98967     -14.133578      696.85609    
   3403000   282.84452      0.0090902144   2.4006882      701.74504     -15.715291      686.02975    
   3404000   307.25291      0.0090902144  -0.97722233     762.30293     -16.25359       746.04934    
   3405000   319.33725      0.0090902144   0.99745023     792.28453     -18.52065       773.76388    
   3406000   293.58261      0.0090902144   10.369491      728.38655     -17.522898      710.86365    
   3407000   295.38338      0.0090902144   7.8495249      732.85432     -14.739359      718.11496    
   3408000   304.4665       0.0090902144   2.21605        755.38977     -13.644736      741.74504    
   3409000   309.63774      0.0090902144   4.6818279      768.21977     -7.9924674      760.2273     
   3410000   307.97805      0.0090902144   8.5795978      764.10203     -12.530079      751.57195    
   3411000   291.05877      0.0090902144   8.3933878      722.12483     -13.254583      708.87025    
   3412000   298.77809      0.0090902144   3.338602       741.27667     -16.295747      724.98092    
   3413000   320.98887      0.0090902144   5.6797825      796.38223     -13.698107      782.68412    
   3414000   301.32786      0.0090902144   5.7765136      747.60274     -13.452858      734.14988    
   3415000   288.27488      0.0090902144   4.4074789      715.21794     -14.067592      701.15034    
   3416000   315.06328      0.0090902144   4.8286879      781.68068     -16.504338      765.17634    
   3417000   310.40173      0.0090902144   6.5752268      770.11525     -12.669577      757.44567    
   3418000   290.50949      0.0090902144   4.6987741      720.76205     -14.660175      706.10188    
   3419000   296.82411      0.0090902144   6.8914942      736.4288      -16.06859       720.36021    
   3420000   315.73286      0.0090902144   4.9438722      783.34193     -16.471066      766.87087    
   3421000   306.00625      0.0090902144   1.1935319      759.20994     -17.884424      741.32552    
   3422000   291.68973      0.0090902144   5.6396247      723.69026     -17.436543      706.25372    
   3423000   293.85314      0.0090902144   5.4355151      729.05774     -16.392794      712.66495    
   3424000   307.45197      0.0090902144   4.1799582      762.79682     -19.38583       743.41099    
   3425000   303.58199      0.0090902144   3.3779293      753.19528     -22.575971      730.61931    
   3426000   293.92781      0.0090902144   5.0807036      729.243       -18.184265      711.05874    
   3427000   312.06957      0.0090902144   10.564312      774.2532      -18.052188      756.20101    
   3428000   299.70246      0.0090902144   2.5102692      743.57006     -17.307492      726.26257    
   3429000   296.37948      0.0090902144   1.6086723      735.32566     -15.338766      719.98689    
   3430000   299.11993      0.0090902144   7.2682897      742.12479     -15.080027      727.04476    
   3431000   299.61649      0.0090902144   7.0803357      743.35677     -14.673928      728.68285    
   3432000   314.27569      0.0090902144  -0.18754943     779.72665     -17.045046      762.6816     
   3433000   297.51008      0.0090902144   5.9859562      738.13071     -16.795901      721.33481    
   3434000   289.01181      0.0090902144   8.2117269      717.04627     -18.814693      698.23158    
   3435000   319.16815      0.0090902144  -0.19877149     791.86498     -16.84432       775.02066    
   3436000   304.95094      0.0090902144   3.4611771      756.59169     -16.273183      740.3185     
   3437000   291.22588      0.0090902144   6.8435234      722.53943     -17.454616      705.08481    
   3438000   311.66716      0.0090902144   10.948583      773.25481     -15.428923      757.82589    
   3439000   301.90743      0.0090902144   1.7601073      749.04065     -13.850486      735.19016    
   3440000   297.98947      0.0090902144   4.2561753      739.32008     -15.594871      723.72521    
   3441000   306.95338      0.0090902144   10.818424      761.55979     -15.246392      746.3134     
   3442000   304.13723      0.0090902144   7.6855105      754.57284     -15.396649      739.17619    
   3443000   300.7794       0.0090902144   0.14788855     746.24199     -15.853855      730.38814    
   3444000   302.25919      0.0090902144   1.4751114      749.91338     -17.443181      732.4702     
   3445000   297.36954      0.0090902144   3.5912314      737.78204     -15.851372      721.93066    
   3446000   291.09803      0.0090902144   17.588476      722.22223     -14.133054      708.08918    
   3447000   302.07786      0.0090902144   3.9789646      749.46351     -14.152159      735.31135    
   3448000   303.36348      0.0090902144   3.9456916      752.65316     -14.749404      737.90375    
   3449000   288.78609      0.0090902144   4.5058241      716.48624     -12.723995      703.76225    
   3450000   309.29125      0.0090902144   5.0946893      767.36013     -14.350299      753.00983    
   3451000   305.56644      0.0090902144   5.2604614      758.11875     -13.210371      744.90838    
   3452000   305.48211      0.0090902144   6.8451903      757.90953     -12.020816      745.88872    
   3453000   292.21235      0.0090902144   2.7755862      724.9869      -12.331362      712.65554    
   3454000   306.94136      0.0090902144   4.0840058      761.52996     -14.518356      747.01161    
   3455000   304.80461      0.0090902144   10.367168      756.22863     -16.518649      739.70998    
   3456000   285.06207      0.0090902144   6.0064962      707.24685     -14.974001      692.27285    
   3457000   301.15593      0.0090902144   2.6634447      747.17617     -13.140773      734.0354     
   3458000   309.68793      0.0090902144   4.4244171      768.34428     -11.301774      757.04251    
   3459000   313.97778      0.0090902144   5.6613999      778.98752     -12.155163      766.83235    
   3460000   303.11979      0.0090902144   6.8180444      752.04855     -18.473317      733.57523    
   3461000   304.37608      0.0090902144   5.6261767      755.16545     -13.896803      741.26864    
   3462000   298.69553      0.0090902144   3.0992601      741.07185     -15.731908      725.33994    
   3463000   299.4743       0.0090902144   7.4253238      743.00399     -17.617353      725.38664    
   3464000   304.45982      0.0090902144   9.0228667      755.3732      -16.583759      738.78944    
   3465000   298.19282      0.0090902144   1.8531863      739.82461     -14.991993      724.83261    
   3466000   315.23716      0.0090902144   3.3488554      782.11209     -10.625674      771.48642    
   3467000   302.98725      0.0090902144   5.3764632      751.71972     -12.943787      738.77594    
   3468000   294.64436      0.0090902144   4.9335619      731.02077     -16.21051       714.81026    
   3469000   310.40582      0.0090902144   3.4541135      770.12539     -13.81471       756.31068    
   3470000   301.34972      0.0090902144   5.4145503      747.65697     -13.881578      733.77539    
   3471000   290.58194      0.0090902144   5.2086122      720.9418      -13.512027      707.42977    
   3472000   288.9342       0.0090902144   4.818877       716.8537      -14.440864      702.41284    
   3473000   308.00036      0.0090902144   5.5890607      764.15739     -12.82942       751.32797    
   3474000   301.68269      0.0090902144   5.1441951      748.48307     -11.815445      736.66763    
   3475000   317.51945      0.0090902144   4.7560255      787.77451     -12.111114      775.6634     
   3476000   305.63858      0.0090902144   4.4244709      758.29773     -11.86048       746.43725    
   3477000   296.09545      0.0090902144   5.8464662      734.62096     -14.248625      720.37234    
   3478000   298.51478      0.0090902144   5.6802524      740.62339     -10.958798      729.66459    
   3479000   316.15629      0.0090902144   5.06058        784.39246     -9.8647222      774.52774    
   3480000   297.19547      0.0090902144   4.926369       737.35015     -10.541302      726.80885    
   3481000   296.0841       0.0090902144   6.8878073      734.59281     -12.313064      722.27974    
   3482000   307.15062      0.0090902144   5.2966427      762.04915     -10.412041      751.63711    
   3483000   298.76027      0.0090902144   3.8722926      741.23246     -7.7613714      733.47109    
   3484000   298.62383      0.0090902144   9.7537427      740.89394     -9.9034511      730.99049    
   3485000   304.45978      0.0090902144   6.0345364      755.3731      -8.2663375      747.10676    
   3486000   313.18961      0.0090902144   3.1076465      777.03206     -9.0423082      767.98975    
   3487000   300.51375      0.0090902144   4.1369665      745.5829      -12.0538        733.5291     
   3488000   294.45875      0.0090902144   6.2842747      730.56028     -14.845372      715.71491    
   3489000   303.49398      0.0090902144   7.1080698      752.97694     -18.089792      734.88715    
   3490000   312.60395      0.0090902144  -0.84541991     775.57902     -20.895962      754.68306    
   3491000   297.29628      0.0090902144   3.7022876      737.60026     -17.909388      719.69087    
   3492000   289.52704      0.0090902144   7.3233339      718.32456     -20.384658      697.93991    
   3493000   302.26253      0.0090902144   11.450952      749.92167     -15.884111      734.03756    
   3494000   318.43984      0.0090902144   8.5326245      790.05802     -9.9308982      780.12712    
   3495000   292.74148      0.0090902144   3.8516431      726.29968     -10.619378      715.6803     
   3496000   290.47841      0.0090902144   2.74206        720.68494     -12.493388      708.19155    
   3497000   292.24553      0.0090902144   9.4471025      725.06922     -10.227126      714.8421     
   3498000   315.69531      0.0090902144   10.801898      783.24876     -12.403613      770.84515    
   3499000   318.39622      0.0090902144   1.609249       789.9498      -13.504087      776.44571    
   3500000   297.88958      0.0090902144   3.0451308      739.07225     -10.86839       728.20386    
   3501000   296.62138      0.0090902144   4.5466593      735.92583     -12.496967      723.42886    
   3502000   308.44768      0.0090902144   10.618844      765.2672      -11.656032      753.61117    
   3503000   310.48009      0.0090902144   7.9492783      770.30966     -12.943301      757.36635    
   3504000   296.77031      0.0090902144   0.62820727     736.29533     -11.083119      725.21221    
   3505000   294.40895      0.0090902144   4.2316575      730.43672     -9.6678895      720.76883    
   3506000   308.05557      0.0090902144   8.2365995      764.29435     -13.525271      750.76908    
   3507000   299.57111      0.0090902144   3.7975963      743.24419     -14.553597      728.6906     
   3508000   301.9224       0.0090902144   1.6470116      749.0778      -12.079591      736.99821    
   3509000   285.13398      0.0090902144  -0.86817111     707.42527     -12.716132      694.70914    
   3510000   303.63864      0.0090902144   6.9854781      753.33583     -12.764609      740.57122    
   3511000   294.2165       0.0090902144   9.3445502      729.95925     -11.658963      718.30029    
   3512000   299.98237      0.0090902144   1.2498189      744.26454     -12.260269      732.00427    
   3513000   298.9521       0.0090902144   8.8551645      741.7084      -10.948199      730.7602     
   3514000   305.56428      0.0090902144   10.538977      758.1134      -11.335376      746.77803    
   3515000   305.79284      0.0090902144   7.2044757      758.68045     -14.005556      744.6749     
   3516000   298.46396      0.0090902144   2.7386041      740.4973      -12.883087      727.61421    
   3517000   298.13455      0.0090902144   3.5358183      739.68005     -14.124391      725.55566    
   3518000   295.11824      0.0090902144   3.6737763      732.1965      -15.774331      716.42217    
   3519000   288.44903      0.0090902144   5.382638       715.64999     -14.62787       701.02212    
   3520000   298.20168      0.0090902144   8.5651166      739.8466      -13.212744      726.63385    
   3521000   303.53465      0.0090902144   7.284223       753.07784     -13.909395      739.16845    
   3522000   320.80516      0.0090902144   2.1886405      795.92644     -14.329027      781.59741    
   3523000   300.86138      0.0090902144   2.1496506      746.44537     -13.699601      732.74577    
   3524000   298.463        0.0090902144   4.2835885      740.49494     -12.626845      727.86809    
   3525000   316.78102      0.0090902144   8.5604963      785.94244     -15.206004      770.73643    
   3526000   298.9271       0.0090902144   3.1307073      741.64639     -14.542365      727.10402    
   3527000   295.98361      0.0090902144  -4.0085415      734.34349     -13.319059      721.02443    
   3528000   301.41386      0.0090902144   8.4930785      747.81609     -13.945999      733.8701     
   3529000   310.5326       0.0090902144   5.9289554      770.43995     -9.5574841      760.88246    
   3530000   291.49486      0.0090902144  -10.316736      723.20678     -12.331934      710.87485    
   3531000   296.94677      0.0090902144   4.8860035      736.73312     -9.5411203      727.192      
   3532000   300.4053       0.0090902144   10.331228      745.31384     -10.40243       734.91141    
   3533000   307.11338      0.0090902144   8.7626017      761.95677     -11.675255      750.28152    
   3534000   289.19291      0.0090902144  -2.5208323      717.49559     -10.101284      707.3943     
   3535000   300.95052      0.0090902144   8.9618522      746.66654     -11.28667       735.37986    
   3536000   305.34096      0.0090902144   8.690037       757.55934     -8.998098       748.56124    
   3537000   305.23385      0.0090902144  -2.8458742      757.29359     -11.161523      746.13207    
   3538000   294.13753      0.0090902144   5.6151841      729.76332     -12.86725       716.89607    
   3539000   312.87867      0.0090902144   6.0856435      776.26061     -8.0236243      768.23699    
   3540000   301.78606      0.0090902144   3.6579782      748.73953     -11.44573       737.29381    
   3541000   290.03266      0.0090902144   4.7767449      719.57902     -11.734543      707.84447    
   3542000   302.96281      0.0090902144   5.0111644      751.65909     -11.845854      739.81324    
   3543000   298.78704      0.0090902144   5.4967286      741.29887     -11.44699       729.85189    
   3544000   300.06436      0.0090902144   5.5469156      744.46796     -12.687021      731.78093    
   3545000   306.99252      0.0090902144   5.187271       761.65691     -13.966184      747.69073    
   3546000   301.99173      0.0090902144   5.1361207      749.24981     -15.499196      733.75062    
   3547000   297.70571      0.0090902144   3.5252375      738.61607     -15.406329      723.20974    
   3548000   302.2286       0.0090902144   5.4305955      749.83748     -19.368635      730.46884    
   3549000   292.81912      0.0090902144   10.683874      726.49231     -15.532591      710.95972    
   3550000   294.62962      0.0090902144   0.25610566     730.98421     -13.421922      717.56229    
   3551000   294.91954      0.0090902144   3.1746884      731.7035      -13.043289      718.66021    
   3552000   309.02706      0.0090902144   12.22816       766.70465     -13.771732      752.93292    
   3553000   291.34539      0.0090902144   2.8102531      722.83595     -18.843633      703.99232    
   3554000   293.37562      0.0090902144   2.1029686      727.87301     -17.355364      710.51764    
   3555000   313.02891      0.0090902144   4.3046265      776.63335     -17.162593      759.47076    
   3556000   301.27026      0.0090902144   6.173257       747.45982     -15.506203      731.95362    
   3557000   291.76164      0.0090902144   0.38840858     723.86868     -15.705733      708.16295    
   3558000   296.36589      0.0090902144   1.6745334      735.29194     -16.230534      719.0614     
   3559000   323.37139      0.0090902144   5.1747136      802.29333     -13.056016      789.23731    
   3560000   291.45297      0.0090902144   7.0631769      723.10285     -13.165201      709.93765    
   3561000   283.73737      0.0090902144   1.1321458      703.96024     -10.382443      693.5778     
   3562000   303.22605      0.0090902144   3.4559368      752.31219     -16.335102      735.97709    
   3563000   308.91336      0.0090902144   6.9275556      766.42255     -13.011146      753.41141    
   3564000   288.12792      0.0090902144   8.1883765      714.8533      -10.17507       704.67823    
   3565000   291.52901      0.0090902144   5.4100492      723.29152     -14.017983      709.27353    
   3566000   301.32301      0.0090902144   3.4352252      747.5907      -12.683691      734.90701    
   3567000   317.76654      0.0090902144   3.5847662      788.38755     -14.60539       773.78216    
   3568000   295.28052      0.0090902144   5.6909941      732.59912     -15.470781      717.12833    
   3569000   287.03904      0.0090902144   4.2149847      712.15178     -17.978777      694.173      
   3570000   308.73949      0.0090902144   4.3419504      765.9912      -14.890562      751.10063    
   3571000   307.93701      0.0090902144   7.8136076      764.0002      -15.038931      748.96127    
   3572000   298.34842      0.0090902144   6.2026302      740.21064     -10.999082      729.21156    
   3573000   297.01862      0.0090902144   2.6279679      736.91139     -10.356474      726.55492    
   3574000   307.70764      0.0090902144   5.0127443      763.43112     -13.541503      749.88962    
   3575000   298.17815      0.0090902144   4.7613049      739.78821     -11.388646      728.39956    
   3576000   289.84201      0.0090902144   4.6594936      719.10601     -9.1065683      709.99944    
   3577000   297.31451      0.0090902144   4.8204296      737.6455      -12.324263      725.32124    
   3578000   313.63342      0.0090902144   5.113541       778.13315     -12.195659      765.93749    
   3579000   303.04965      0.0090902144   6.5070671      751.87453     -10.761123      741.1134     
   3580000   282.41001      0.0090902144   4.5795651      700.66701     -8.2985577      692.36845    
   3581000   306.35636      0.0090902144   3.7478165      760.07857     -12.289517      747.78905    
   3582000   314.54656      0.0090902144   5.488045       780.39867     -13.482786      766.91589    
   3583000   307.92366      0.0090902144   6.6820935      763.96709     -15.923422      748.04367    
   3584000   296.98964      0.0090902144   3.6061257      736.83949     -15.128162      721.71132    
   3585000   291.61516      0.0090902144   3.7558366      723.50524     -13.508262      709.99698    
   3586000   301.84816      0.0090902144   0.46049621     748.8936      -11.579269      737.31433    
   3587000   305.06451      0.0090902144   7.9004858      756.87346     -11.226891      745.64657    
   3588000   299.75374      0.0090902144   6.9895619      743.6973      -15.381118      728.31618    
   3589000   291.40726      0.0090902144   4.5424802      722.98944     -13.416094      709.57335    
   3590000   299.42742      0.0090902144   4.6118516      742.88767     -10.829422      732.05825    
   3591000   315.82721      0.0090902144   3.5247186      783.57602     -12.698565      770.87745    
   3592000   294.52329      0.0090902144   11.663077      730.72039     -13.725045      716.99535    
   3593000   288.21936      0.0090902144   0.61470322     715.08018     -14.574835      700.50534    
   3594000   309.72447      0.0090902144   3.8845203      768.43495     -14.745926      753.68902    
   3595000   312.35432      0.0090902144   6.7016967      774.95969     -14.195541      760.76415    
   3596000   292.28996      0.0090902144   0.40831849     725.17946     -11.626111      713.55335    
   3597000   309.15154      0.0090902144   4.1450488      767.0135      -13.470955      753.54255    
   3598000   299.12999      0.0090902144   5.8337885      742.14976     -12.473923      729.67584    
   3599000   291.80957      0.0090902144   5.5353928      723.98759     -9.9665108      714.02108    
   3600000   300.42458      0.0090902144   4.9409753      745.36167     -11.239795      734.12187    
   3601000   302.5828       0.0090902144   4.146498       750.71626     -13.73073       736.98553    
   3602000   294.44819      0.0090902144   2.5602749      730.53408     -9.7717484      720.76234    
   3603000   299.53584      0.0090902144  -2.0923488      743.15667     -11.073417      732.08326    
   3604000   315.91179      0.0090902144   4.5271514      783.78586     -11.973996      771.81186    
   3605000   305.56891      0.0090902144   7.9014986      758.1249      -14.720929      743.40397    
   3606000   296.52463      0.0090902144   6.2245351      735.68578     -13.84527       721.84051    
   3607000   303.19843      0.0090902144   5.2631486      752.24367     -10.024617      742.21905    
   3608000   297.92749      0.0090902144   2.0118797      739.16632     -10.190408      728.97592    
   3609000   301.0664       0.0090902144   2.7833009      746.95405     -11.051654      735.90239    
   3610000   303.78863      0.0090902144   5.5248018      753.70797     -11.596772      742.1112     
   3611000   308.26366      0.0090902144   7.8647176      764.81063     -10.366871      754.44376    
   3612000   289.20489      0.0090902144   2.8298289      717.5253      -11.175596      706.3497     
   3613000   301.88939      0.0090902144   3.5673497      748.9959      -6.6308587      742.36504    
   3614000   318.29929      0.0090902144   11.836559      789.7093      -10.293806      779.4155     
   3615000   295.7344       0.0090902144   9.6977575      733.72519     -10.181738      723.54345    
   3616000   294.07043      0.0090902144   3.8410489      729.59685     -10.063047      719.5338     
   3617000   320.89754      0.0090902144   5.6243053      796.15565     -15.383921      780.77173    
   3618000   315.64116      0.0090902144   6.6696142      783.11442     -14.034702      769.07972    
   3619000   301.96926      0.0090902144   7.5312283      749.19406     -14.102905      735.09115    
   3620000   297.99482      0.0090902144   4.5582219      739.33337     -13.042306      726.29106    
   3621000   298.13578      0.0090902144   2.3730949      739.6831      -10.168438      729.51466    
   3622000   315.10955      0.0090902144   5.1779347      781.79548     -9.6592182      772.13626    
   3623000   302.36857      0.0090902144   5.5166583      750.18476     -10.98524       739.19952    
   3624000   302.70786      0.0090902144   3.6695836      751.02655     -12.58131       738.44524    
   3625000   295.23862      0.0090902144   4.916555       732.49515     -13.18229       719.31286    
   3626000   304.57572      0.0090902144   5.8238261      755.66075     -13.786609      741.87414    
   3627000   305.06297      0.0090902144   4.9375815      756.86965     -14.038481      742.83116    
   3628000   301.98207      0.0090902144   1.7752533      749.22583     -15.553433      733.6724     
   3629000   298.84484      0.0090902144   5.5257529      741.44229     -10.371939      731.07035    
   3630000   302.51265      0.0090902144   5.1248355      750.54222     -12.44233       738.09989    
   3631000   298.61012      0.0090902144   4.6370415      740.85994     -13.767829      727.09211    
   3632000   310.39713      0.0090902144   2.4932379      770.10384     -13.601497      756.50234    
   3633000   299.79833      0.0090902144   5.3772389      743.80792     -10.82836       732.97956    
   3634000   298.65755      0.0090902144   5.383671       740.97762     -11.549539      729.42808    
   3635000   307.2923       0.0090902144   4.2335101      762.40066     -8.7666272      753.63403    
   3636000   291.28147      0.0090902144   3.2000394      722.67736     -10.962294      711.71507    
   3637000   288.66442      0.0090902144   3.5198597      716.18439     -12.883874      703.30052    
   3638000   295.78412      0.0090902144   7.5347868      733.84856     -11.070508      722.77806    
   3639000   298.39698      0.0090902144   3.2766521      740.33112     -13.480362      726.85076    
   3640000   310.3433       0.0090902144   4.7577959      769.97028     -14.673384      755.29689    
   3641000   301.24596      0.0090902144   5.4080145      747.39954     -12.006595      735.39295    
   3642000   299.73405      0.0090902144   5.5059489      743.64844     -13.670213      729.97823    
   3643000   297.98257      0.0090902144   4.2283816      739.30298     -15.226362      724.07661    
   3644000   300.39865      0.0090902144   4.7099901      745.29733     -11.203461      734.09387    
   3645000   300.84376      0.0090902144   5.0629541      746.40166     -13.039085      733.36258    
   3646000   295.03036      0.0090902144   4.9792962      731.97846     -11.754497      720.22396    
   3647000   309.05372      0.0090902144   4.9009218      766.77079     -13.242704      753.52809    
   3648000   286.76896      0.0090902144   3.4259369      711.48169     -10.534683      700.94701    
   3649000   303.54288      0.0090902144   3.1570989      753.09826     -10.068601      743.02966    
   3650000   295.48653      0.0090902144   5.9875439      733.11021     -8.9818474      724.12837    
   3651000   299.28183      0.0090902144   6.9815243      742.52646     -9.1556717      733.37079    
   3652000   291.09513      0.0090902144   5.4508111      722.21505     -10.290658      711.92439    
   3653000   302.01355      0.0090902144   4.1531269      749.30394     -11.845436      737.4585     
   3654000   309.18938      0.0090902144   5.7632426      767.10737     -13.08067       754.0267     
   3655000   302.40606      0.0090902144   6.0492638      750.27777     -14.000834      736.27693    
   3656000   306.62341      0.0090902144   4.676039       760.74114     -12.004506      748.73663    
   3657000   313.89923      0.0090902144   5.3551968      778.79265     -12.628605      766.16404    
   3658000   294.06312      0.0090902144   5.4599224      729.57871     -14.802582      714.77612    
   3659000   291.13966      0.0090902144   3.5807451      722.32552     -12.608709      709.71681    
   3660000   300.09261      0.0090902144   4.8429999      744.53804     -13.101404      731.43664    
   3661000   312.11845      0.0090902144   6.0611181      774.37448     -14.04511       760.32937    
   3662000   288.8625       0.0090902144   5.0751012      716.67583     -6.400352       710.27548    
   3663000   288.72574      0.0090902144   4.7253319      716.33651     -12.298062      704.03845    
   3664000   306.79732      0.0090902144   5.3786603      761.17262     -17.008913      744.16371    
   3665000   304.03479      0.0090902144   5.5773808      754.31869     -18.955899      735.36279    
   3666000   291.85595      0.0090902144   5.2437955      724.10266     -17.613064      706.4896     
   3667000   299.51706      0.0090902144   4.6585105      743.11009     -14.526893      728.58319    
   3668000   307.57262      0.0090902144   5.6006948      763.09614     -16.597183      746.49896    
   3669000   300.83266      0.0090902144   4.8564257      746.37411     -14.428836      731.94527    
   3670000   288.93776      0.0090902144   4.6381078      716.86254     -17.202109      699.66043    
   3671000   291.29582      0.0090902144   5.4690597      722.71295     -19.430037      703.28291    
   3672000   311.49844      0.0090902144   5.5990595      772.83621     -15.144376      757.69183    
   3673000   304.72942      0.0090902144   5.168734       756.04208     -15.686632      740.35545    
   3674000   297.22345      0.0090902144   4.5895667      737.41958     -18.290545      719.12904    
   3675000   301.51503      0.0090902144   4.9134111      748.06709     -16.126969      731.94012    
   3676000   301.36216      0.0090902144   5.7542243      747.68783     -17.868874      729.81895    
   3677000   306.33247      0.0090902144   6.3704826      760.0193      -15.624504      744.3948     
   3678000   308.21989      0.0090902144   1.6586875      764.70206     -12.975694      751.72636    
   3679000   302.52877      0.0090902144   2.2127825      750.58222     -13.708093      736.87412    
   3680000   289.62035      0.0090902144   5.0163766      718.55608     -19.329662      699.22642    
   3681000   304.57879      0.0090902144   7.2843358      755.66837     -15.810918      739.85745    
   3682000   309.87692      0.0090902144   5.1217357      768.81318     -15.812793      753.00038    
   3683000   297.87471      0.0090902144   4.2197754      739.03537     -13.723162      725.31221    
   3684000   290.131        0.0090902144   5.4452872      719.823       -11.303871      708.51913    
   3685000   308.14888      0.0090902144   6.3055447      764.52587     -14.31095       750.21492    
   3686000   310.32715      0.0090902144   5.7731715      769.9302      -12.716621      757.21358    
   3687000   302.34718      0.0090902144   1.8581782      750.13168     -14.040271      736.09141    
   3688000   289.07077      0.0090902144   5.0900607      717.19256     -12.219109      704.97345    
   3689000   299.95893      0.0090902144   4.9730201      744.20636     -13.299974      730.90639    
   3690000   313.6444       0.0090902144   5.1505994      778.16041     -12.629382      765.53103    
   3691000   300.80093      0.0090902144   5.0167839      746.2954      -11.345498      734.94991    
   3692000   288.3658       0.0090902144   4.8503095      715.4435      -11.259876      704.18363    
   3693000   301.75672      0.0090902144   5.2586536      748.66674     -13.669333      734.99741    
   3694000   310.27792      0.0090902144   5.1237182      769.80807     -17.478602      752.32947    
   3695000   297.79481      0.0090902144   5.1483569      738.83714     -16.778878      722.05826    
   3696000   286.85393      0.0090902144   4.4404334      711.6925      -18.099595      693.5929     
   3697000   283.78027      0.0090902144   4.5856985      704.06668     -19.343293      684.72339    
   3698000   297.58851      0.0090902144   4.8575984      738.32529     -17.890768      720.43452    
   3699000   297.24573      0.0090902144   5.3793806      737.47484     -14.827637      722.6472     
   3700000   291.86892      0.0090902144   2.811927       724.13484     -16.44102       707.69382    
   3701000   302.33576      0.0090902144   4.8033972      750.10337     -18.85744       731.24593    
   3702000   299.95933      0.0090902144   6.7373276      744.20736     -14.862251      729.34511    
   3703000   301.32929      0.0090902144   5.497289       747.60627     -13.136051      734.47022    
   3704000   323.26749      0.0090902144   1.6379523      802.03555     -13.7604        788.27515    
   3705000   295.31126      0.0090902144   3.3581783      732.67539     -13.927911      718.74748    
   3706000   296.17991      0.0090902144   8.3693859      734.83051     -14.907454      719.92306    
   3707000   304.32187      0.0090902144   5.0224803      755.03095     -16.507013      738.52394    
   3708000   304.1839       0.0090902144   5.5885441      754.68864     -20.928745      733.7599     
   3709000   293.12181      0.0090902144   5.1831161      727.2433      -16.328126      710.91517    
   3710000   293.49165      0.0090902144   3.2723278      728.16088     -15.852893      712.30799    
   3711000   307.94693      0.0090902144   4.6898389      764.02482     -14.944377      749.08044    
   3712000   307.5905       0.0090902144   5.6657148      763.1405      -16.926398      746.2141     
   3713000   280.88727      0.0090902144   4.3353944      696.88907     -12.734606      684.15446    
   3714000   298.77004      0.0090902144   6.8063118      741.25671     -15.64461       725.6121     
   3715000   312.30252      0.0090902144   5.4758445      774.83117     -17.500256      757.33092    
   3716000   297.87413      0.0090902144  -0.63598371     739.03392     -15.083751      723.95017    
   3717000   289.74493      0.0090902144   2.8825326      718.86517     -13.60693       705.25824    
   3718000   298.52363      0.0090902144   5.5474962      740.64535     -15.791868      724.85348    
   3719000   311.5684       0.0090902144   11.271011      773.0098      -16.514345      756.49545    
   3720000   311.57207      0.0090902144   2.0525367      773.01889     -18.958642      754.06025    
   3721000   288.76315      0.0090902144   8.5661323      716.42935     -16.099053      700.33029    
   3722000   303.93276      0.0090902144   8.7763349      754.06555     -18.69715       735.3684     
   3723000   302.0727       0.0090902144   1.4734029      749.45069     -19.315039      730.13565    
   3724000   294.46552      0.0090902144   4.1018646      730.57707     -16.686795      713.89028    
   3725000   304.6378       0.0090902144   7.1147353      755.81479     -19.22556       736.58923    
   3726000   316.82592      0.0090902144   4.6037791      786.05384     -20.376269      765.67757    
   3727000   292.32887      0.0090902144   4.2502952      725.27597     -16.542684      708.73329    
   3728000   291.17873      0.0090902144   4.0952646      722.42246     -15.816656      706.60581    
   3729000   299.58437      0.0090902144   4.7613006      743.27708     -16.315995      726.96108    
   3730000   310.57895      0.0090902144   7.128377       770.55495     -16.820783      753.73416    
   3731000   308.09296      0.0090902144   4.4512611      764.38712     -16.479521      747.9076     
   3732000   292.14847      0.0090902144   4.7393581      724.8284      -16.459892      708.36851    
   3733000   309.76092      0.0090902144   5.2926829      768.52539     -20.588794      747.9366     
   3734000   319.33732      0.0090902144   5.9620482      792.28469     -19.237766      773.04693    
   3735000   304.21573      0.0090902144   4.8445204      754.76762     -15.229035      739.53858    
   3736000   289.6975       0.0090902144   3.4781595      718.74749     -20.269195      698.47829    
   3737000   289.69548      0.0090902144   6.1546276      718.74246     -19.785281      698.95718    
   3738000   301.96184      0.0090902144   5.5752475      749.17566     -20.233055      728.9426     
   3739000   319.75287      0.0090902144   4.4767425      793.31569     -16.823739      776.49195    
   3740000   303.532        0.0090902144   3.3999299      753.07126     -21.028886      732.04237    
   3741000   281.66232      0.0090902144   4.768129       698.81197     -21.373797      677.43818    
   3742000   302.71207      0.0090902144   5.9150027      751.037       -20.691459      730.34554    
   3743000   309.63091      0.0090902144   4.8839262      768.20282     -20.695346      747.50748    
   3744000   291.87069      0.0090902144   4.4109411      724.13923     -20.63919       703.50004    
   3745000   279.16961      0.0090902144   3.0360473      692.6275      -22.940364      669.68714    
   3746000   300.27069      0.0090902144   5.2490496      744.97986     -21.082257      723.8976     
   3747000   298.09987      0.0090902144   6.0642354      739.594       -21.962412      717.63159    
   3748000   302.90871      0.0090902144   4.9636746      751.52486     -22.468878      729.05598    
   3749000   307.02664      0.0090902144   4.8133104      761.74155     -21.526371      740.21518    
   3750000   299.72677      0.0090902144   4.9432115      743.63038     -23.228805      720.40157    
   3751000   287.9838       0.0090902144   3.6456317      714.49576     -25.558817      688.93694    
   3752000   301.94481      0.0090902144   5.9969619      749.1334      -24.495145      724.63825    
   3753000   296.41011      0.0090902144   4.9056042      735.40165     -24.626982      710.77467    
   3754000   306.71111      0.0090902144   4.4004961      760.95873     -22.475138      738.48359    
   3755000   308.79015      0.0090902144   6.6715711      766.11687     -18.948857      747.16802    
   3756000   293.82486      0.0090902144   5.9671042      728.98757     -17.958321      711.02924    
   3757000   282.15001      0.0090902144   3.4546189      700.02195     -21.017007      679.00494    
   3758000   318.60645      0.0090902144   2.8125252      790.47138     -16.614719      773.85667    
   3759000   303.30748      0.0090902144   6.396866       752.51421     -18.482866      734.03134    
   3760000   287.67307      0.0090902144   5.9869708      713.72482     -11.401427      702.3234     
   3761000   291.5309       0.0090902144   7.0654825      723.29621     -16.179087      707.11712    
   3762000   300.78052      0.0090902144   2.7560486      746.24476     -15.698748      730.54601    
   3763000   309.83332      0.0090902144   5.7357468      768.705       -15.628906      753.0761     
   3764000   305.54693      0.0090902144   6.3246995      758.07035     -17.26823       740.80212    
   3765000   294.94209      0.0090902144   3.9592965      731.75946     -16.231074      715.52839    
   3766000   300.24153      0.0090902144   0.64830414     744.90752     -16.396616      728.51091    
   3767000   301.68387      0.0090902144   3.9879936      748.486       -14.934661      733.55134    
   3768000   304.48482      0.0090902144   7.9290852      755.43523     -14.173456      741.26178    
   3769000   298.63434      0.0090902144   6.3413769      740.92003     -13.504279      727.41575    
   3770000   292.46271      0.0090902144  -2.7011989      725.60804     -12.524736      713.08331    
   3771000   299.05251      0.0090902144   6.2982503      741.95753     -13.271651      728.68588    
   3772000   300.56458      0.0090902144   6.0387149      745.70901     -16.894488      728.81452    
   3773000   296.02892      0.0090902144   4.7347539      734.45592     -18.320304      716.13562    
   3774000   312.8011       0.0090902144   2.7024615      776.06816     -17.760014      758.30815    
   3775000   299.14416      0.0090902144   5.0338028      742.18492     -18.310075      723.87484    
   3776000   304.75072      0.0090902144   4.7895888      756.09495     -17.317852      738.77709    
   3777000   299.57133      0.0090902144   4.8486343      743.24474     -20.133018      723.11172    
   3778000   295.26439      0.0090902144   4.42245        732.55909     -24.078056      708.48104    
   3779000   305.43424      0.0090902144   4.1731922      757.79078     -21.972013      735.81877    
   3780000   315.79807      0.0090902144   4.4851555      783.50371     -19.522686      763.98103    
   3781000   288.45692      0.0090902144   6.1345065      715.66957     -18.411528      697.25805    
   3782000   285.81054      0.0090902144   3.6624749      709.10383     -15.082396      694.02144    
   3783000   305.54354      0.0090902144   1.9134339      758.06194     -18.492681      739.56926    
   3784000   315.60665      0.0090902144   7.6837579      783.02881     -20.94401       762.0848     
   3785000   290.20641      0.0090902144   6.3786295      720.01011     -22.189974      697.82014    
   3786000   291.57716      0.0090902144   3.5372228      723.41096     -20.026678      703.38429    
   3787000   317.05262      0.0090902144   6.6298386      786.61628     -17.747893      768.86839    
   3788000   301.95753      0.0090902144   5.9933994      749.16496     -16.598184      732.56677    
   3789000   304.08387      0.0090902144   7.1724665      754.44047     -16.126857      738.31362    
   3790000   295.65983      0.0090902144   4.3655708      733.54018     -15.824551      717.71563    
   3791000   302.14611      0.0090902144   3.9466565      749.63282     -14.744231      734.88859    
   3792000   301.90912      0.0090902144   6.0104747      749.04486     -14.403767      734.64109    
   3793000   297.48064      0.0090902144   5.8398587      738.05768     -12.185251      725.87243    
   3794000   299.90399      0.0090902144   5.5943192      744.07006     -15.533929      728.53613    
   3795000   297.46126      0.0090902144   3.7444754      738.00958     -14.817399      723.19218    
   3796000   301.04808      0.0090902144   3.9745313      746.90858     -10.284549      736.62403    
   3797000   309.15724      0.0090902144   4.5406815      767.02762     -16.607125      750.4205     
   3798000   302.83117      0.0090902144   5.297145       751.33248     -16.800204      734.53228    
   3799000   293.53474      0.0090902144   2.9949442      728.26779     -18.344585      709.92321    
   3800000   301.37157      0.0090902144   4.0395783      747.71117     -17.118973      730.5922     
   3801000   306.14087      0.0090902144   6.4302802      759.54395     -19.617947      739.926      
   3802000   307.09797      0.0090902144   4.8337567      761.91853     -21.19331       740.72522    
   3803000   296.68208      0.0090902144   5.1033741      736.07642     -21.86825       714.20817    
   3804000   310.53538      0.0090902144   4.9623343      770.44684     -19.844387      750.60245    
   3805000   304.72695      0.0090902144   3.780875       756.03596     -21.614011      734.42195    
   3806000   294.89029      0.0090902144   5.9344518      731.63094     -20.94633       710.68461    
   3807000   300.81067      0.0090902144   6.4030493      746.31957     -20.47419       725.84538    
   3808000   295.42529      0.0090902144   1.9640355      732.95829     -20.525278      712.43301    
   3809000   297.19201      0.0090902144   3.957342       737.34156     -17.376656      719.9649     
   3810000   293.21756      0.0090902144   5.6703911      727.48084     -15.708818      711.77202    
   3811000   301.63675      0.0090902144   5.6437836      748.36908     -16.408029      731.96105    
   3812000   310.54441      0.0090902144   2.7067437      770.46925     -19.695249      750.774      
   3813000   303.06436      0.0090902144   4.4736575      751.91102     -17.672368      734.23866    
   3814000   305.53539      0.0090902144   6.487526       758.04171     -14.98445       743.05726    
   3815000   299.43647      0.0090902144   7.5682084      742.91015     -13.605621      729.30453    
   3816000   301.72759      0.0090902144   1.4843819      748.59446     -13.880785      734.71367    
   3817000   310.66861      0.0090902144   1.6086241      770.77739     -12.886521      757.89086    
   3818000   302.0913       0.0090902144   5.8435224      749.49685     -13.406208      736.09064    
   3819000   300.9235       0.0090902144   6.0441307      746.59949     -14.692685      731.9068     
   3820000   303.15341      0.0090902144   5.5318659      752.13197     -17.080381      735.05159    
   3821000   294.65221      0.0090902144  -4.5252517      731.04026     -17.727468      713.3128     
   3822000   305.6595       0.0090902144   8.8646469      758.34964     -16.077106      742.27254    
   3823000   301.34162      0.0090902144   4.8585157      747.63687     -18.557565      729.0793     
   3824000   300.4504       0.0090902144   2.3631054      745.42572     -16.293006      729.13271    
   3825000   298.93118      0.0090902144  -1.3020944      741.65649     -13.700343      727.95615    
   3826000   298.19524      0.0090902144   14.131493      739.83062     -13.37378       726.45684    
   3827000   304.63103      0.0090902144   12.837228      755.79799     -17.721855      738.07614    
   3828000   307.86128      0.0090902144   5.1927081      763.81231     -12.964025      750.84829    
   3829000   292.58229      0.0090902144   1.6440143      725.90472     -13.406687      712.49803    
   3830000   297.60744      0.0090902144   5.7238946      738.37226     -19.669698      718.70257    
   3831000   307.33956      0.0090902144   5.4465108      762.51792     -17.488675      745.02924    
   3832000   299.81418      0.0090902144   3.8618183      743.84723     -20.564376      723.28286    
   3833000   297.29065      0.0090902144   3.4794755      737.58631     -22.076042      715.51027    
   3834000   295.25038      0.0090902144   5.0110601      732.52433     -21.228874      711.29546    
   3835000   296.05593      0.0090902144   8.65564        734.52293     -21.175481      713.34745    
   3836000   308.61999      0.0090902144   8.6348888      765.69471     -20.581103      745.1136     
   3837000   309.75684      0.0090902144   4.3397505      768.51526     -16.579009      751.93625    
   3838000   297.41273      0.0090902144   2.1772209      737.88919     -15.387687      722.5015     
   3839000   288.37195      0.0090902144   5.3234964      715.45875     -14.955809      700.50294    
   3840000   296.85104      0.0090902144   5.8249221      736.49562     -15.16565       721.32997    
   3841000   304.98831      0.0090902144   4.3889337      756.68441     -13.158329      743.52608    
   3842000   301.91282      0.0090902144   5.0651942      749.05402     -17.626601      731.42742    
   3843000   285.70905      0.0090902144   7.8477775      708.85204     -17.586488      691.26555    
   3844000   295.16235      0.0090902144   6.3548983      732.30593     -18.518678      713.78725    
   3845000   319.57968      0.0090902144  -1.0477264      792.886       -18.570031      774.31597    
   3846000   290.34607      0.0090902144  -7.3832575      720.35661     -17.811615      702.545      
   3847000   294.09771      0.0090902144   6.426595       729.66453     -19.424745      710.23978    
   3848000   316.00419      0.0090902144   8.9224394      784.01511     -20.292403      763.7227     
   3849000   307.91697      0.0090902144   2.5145734      763.9505      -23.147868      740.80263    
   3850000   296.72759      0.0090902144   3.7501407      736.18933     -19.834478      716.35485    
   3851000   299.63346      0.0090902144   7.8302722      743.39886     -14.687541      728.71132    
   3852000   306.17203      0.0090902144   4.7857353      759.62125     -14.999822      744.62143    
   3853000   296.35495      0.0090902144   3.3612579      735.2648      -15.470735      719.79406    
   3854000   289.32629      0.0090902144   4.9716139      717.8265      -18.077951      699.74855    
   3855000   311.00626      0.0090902144   5.1869944      771.6151      -16.761843      754.85326    
   3856000   287.62422      0.0090902144   5.5874881      713.60361     -19.0434        694.56021    
   3857000   288.1811       0.0090902144   4.2970939      714.98526     -15.850344      699.13491    
   3858000   314.22426      0.0090902144   4.0942115      779.59904     -14.272693      765.32635    
   3859000   302.98328      0.0090902144   5.9719775      751.70987     -15.055761      736.65411    
   3860000   298.15422      0.0090902144   5.5564437      739.72885     -11.98385       727.745      
   3861000   284.76927      0.0090902144   4.4979614      706.52041     -14.693836      691.82657    
   3862000   311.46671      0.0090902144   4.0133116      772.7575      -12.747146      760.01035    
   3863000   311.80377      0.0090902144   9.1736157      773.59375     -12.609363      760.98438    
   3864000   312.30483      0.0090902144   8.2452994      774.8369      -13.413096      761.42381    
   3865000   298.33847      0.0090902144   2.2083741      740.18597     -11.842471      728.3435     
   3866000   303.32824      0.0090902144   3.8088266      752.56573     -10.565143      742.00059    
   3867000   303.55301      0.0090902144   7.4298202      753.1234      -13.672822      739.45058    
   3868000   300.24354      0.0090902144   7.8337569      744.9125      -16.447809      728.46469    
   3869000   300.65819      0.0090902144   5.3939479      745.94126     -15.617908      730.32335    
   3870000   297.50227      0.0090902144   3.4676536      738.11134     -15.902605      722.20873    
   3871000   299.69054      0.0090902144   2.9546938      743.54049     -14.297751      729.24273    
   3872000   304.67508      0.0090902144   7.8998753      755.90726     -14.92591       740.98135    
   3873000   295.3882       0.0090902144   4.4492581      732.86626     -16.049481      716.81678    
   3874000   293.66046      0.0090902144   4.2911242      728.57969     -15.276232      713.30346    
   3875000   297.54564      0.0090902144   5.0412121      738.21894     -16.353298      721.86564    
   3876000   307.29657      0.0090902144   6.9317966      762.41127     -16.333931      746.07734    
   3877000   296.26362      0.0090902144   5.0778471      735.03822     -16.264377      718.77384    
   3878000   290.88687      0.0090902144   3.9763173      721.69835     -17.224969      704.47339    
   3879000   314.26706      0.0090902144   3.2856636      779.70523     -14.733285      764.97194    
   3880000   305.0239       0.0090902144   5.552176       756.77272     -19.29915       737.47357    
   3881000   286.6799       0.0090902144   4.6883612      711.26073     -14.807934      696.4528     
   3882000   295.48444      0.0090902144   5.6952441      733.10505     -14.513462      718.59159    
   3883000   308.20312      0.0090902144   7.0510163      764.66043     -17.239962      747.42047    
   3884000   305.79584      0.0090902144   3.685434       758.68791     -11.708506      746.9794     
   3885000   284.35371      0.0090902144   4.1569624      705.48938     -14.149715      691.33967    
   3886000   288.98321      0.0090902144   4.7210336      716.97531     -14.464407      702.5109     
   3887000   314.92937      0.0090902144   7.6007691      781.34844     -18.011201      763.33724    
   3888000   312.0922       0.0090902144   5.529514       774.30936     -16.78048       757.52888    
   3889000   298.00134      0.0090902144   4.8686922      739.34953     -15.777386      723.57215    
   3890000   282.1383       0.0090902144   4.3856819      699.99291     -14.916535      685.07637    
   3891000   312.04102      0.0090902144   5.7515334      774.18237     -15.949408      758.23296    
   3892000   317.48101      0.0090902144   5.2572583      787.67913     -12.261148      775.41798    
   3893000   293.66554      0.0090902144   4.7606329      728.5923      -15.279797      713.3125     
   3894000   292.40263      0.0090902144   4.3715068      725.45899     -13.58993       711.86906    
   3895000   304.21908      0.0090902144   5.7788292      754.77593     -9.9945273      744.7814     
   3896000   312.2469       0.0090902144   5.2546658      774.69317     -13.349153      761.34401    
   3897000   304.33494      0.0090902144   7.5537619      755.06336     -14.391083      740.67228    
   3898000   279.88741      0.0090902144   4.0590699      694.40838     -12.962914      681.44547    
   3899000   290.10003      0.0090902144   4.5171957      719.74618     -11.108582      708.63759    
   3900000   308.06227      0.0090902144   5.1580703      764.31099     -14.480333      749.83066    
   3901000   296.19078      0.0090902144   7.0117297      734.85749     -13.369708      721.48778    
   3902000   294.37743      0.0090902144   3.8558678      730.35853     -14.254572      716.10396    
   3903000   304.84142      0.0090902144   2.4107048      756.31996     -14.737549      741.58241    
   3904000   313.61283      0.0090902144   6.1402637      778.08208     -14.630651      763.45143    
   3905000   294.64414      0.0090902144   8.7798977      731.02023     -14.027788      716.99245    
   3906000   287.06323      0.0090902144   5.130665       712.21178     -14.775995      697.43578    
   3907000   290.32961      0.0090902144   5.1833868      720.31575     -14.520412      705.79534    
   3908000   307.61771      0.0090902144   3.7862177      763.20801     -14.041669      749.16634    
   3909000   291.71514      0.0090902144   1.2634303      723.75331     -12.141319      711.61199    
   3910000   296.75601      0.0090902144   4.9213711      736.25985     -11.247625      725.01223    
   3911000   301.72711      0.0090902144   5.37885        748.59329     -12.583038      736.01025    
   3912000   303.89685      0.0090902144   5.7030536      753.97646     -14.379905      739.59656    
   3913000   293.57324      0.0090902144   2.5714011      728.3633      -13.893803      714.46949    
   3914000   312.27577      0.0090902144   3.0456948      774.76479     -15.754298      759.01049    
   3915000   295.79263      0.0090902144   7.2465065      733.86967     -14.304684      719.56498    
   3916000   298.4488       0.0090902144   1.1725505      740.45969     -15.476229      724.98346    
   3917000   311.61638      0.0090902144   6.5079424      773.12883     -14.881962      758.24687    
   3918000   280.97605      0.0090902144   8.0474222      697.10932     -16.981791      680.12753    
   3919000   299.26154      0.0090902144   3.9113962      742.47613     -14.935945      727.54018    
   3920000   318.71596      0.0090902144   4.2332849      790.74308     -9.7014981      781.04158    
   3921000   297.6616       0.0090902144   5.5145858      738.50664     -11.612736      726.8939     
   3922000   283.22227      0.0090902144   4.7329168      702.68226     -11.596194      691.08607    
   3923000   297.5692       0.0090902144   5.1313096      738.27739     -10.013428      728.26396    
   3924000   305.29085      0.0090902144   5.0268199      757.43501     -14.54051       742.8945     
   3925000   308.30204      0.0090902144   5.117473       764.90586     -14.058179      750.84768    
   3926000   291.6018       0.0090902144   5.1128892      723.47211     -12.724197      710.74792    
   3927000   300.79805      0.0090902144   6.3579347      746.28825     -11.933013      734.35524    
   3928000   316.13954      0.0090902144   5.5399572      784.35091     -9.3150513      775.03586    
   3929000   293.90756      0.0090902144   3.2863239      729.19276     -11.298919      717.89385    
   3930000   293.90133      0.0090902144   6.7842485      729.17729     -9.7793956      719.3979     
   3931000   316.67041      0.0090902144   3.4935518      785.66801     -10.705022      774.96299    
   3932000   294.05696      0.0090902144   3.6603886      729.56342     -11.310365      718.25306    
   3933000   297.49858      0.0090902144   8.0225222      738.10217     -13.222194      724.87998    
   3934000   311.33332      0.0090902144   5.6351597      772.42656     -14.343088      758.08347    
   3935000   318.6787       0.0090902144   6.1420944      790.65064     -14.463751      776.18689    
   3936000   285.58689      0.0090902144   4.7072756      708.54895     -14.552175      693.99678    
   3937000   306.1186       0.0090902144   8.7429022      759.48868     -11.747947      747.74073    
   3938000   304.89803      0.0090902144   4.2298486      756.46041     -10.487247      745.97316    
   3939000   296.38816      0.0090902144   3.9152367      735.3472      -13.299386      722.04781    
   3940000   281.04733      0.0090902144   4.9646984      697.28617     -12.504031      684.78214    
   3941000   301.55659      0.0090902144   6.6699363      748.17021     -12.470777      735.69943    
   3942000   308.32667      0.0090902144   7.094458       764.96697     -13.371782      751.59519    
   3943000   294.77078      0.0090902144   3.2503983      731.33444     -12.296708      719.03773    
   3944000   290.19917      0.0090902144   4.4801372      719.99215     -14.730666      705.26148    
   3945000   301.62711      0.0090902144   5.2904496      748.34516     -11.264573      737.08059    
   3946000   309.0932       0.0090902144   4.767445       766.86875     -15.302575      751.56617    
   3947000   299.01094      0.0090902144   4.6552187      741.85439     -11.705846      730.14855    
   3948000   289.39745      0.0090902144   4.4615146      718.00304     -13.655649      704.34739    
   3949000   305.31637      0.0090902144   6.3212887      757.49832     -13.452794      744.04553    
   3950000   307.49861      0.0090902144   5.0102764      762.91252     -12.322301      750.59022    
   3951000   295.5485       0.0090902144   3.4606452      733.26397     -11.845401      721.41857    
   3952000   299.49545      0.0090902144   4.1318755      743.05647     -14.124773      728.9317     
   3953000   287.94257      0.0090902144   5.9589096      714.39345     -12.312039      702.08141    
   3954000   310.74557      0.0090902144   5.303599       770.96832     -12.524154      758.44417    
   3955000   299.98111      0.0090902144   4.9984959      744.2614      -12.940556      731.32085    
   3956000   288.22198      0.0090902144   4.571671       715.08667     -14.153922      700.93275    
   3957000   299.04995      0.0090902144   4.8287227      741.95117     -14.963434      726.98774    
   3958000   308.36373      0.0090902144   8.0365754      765.05891     -16.074883      748.98403    
   3959000   294.49569      0.0090902144   4.9976351      730.65193     -17.420911      713.23102    
   3960000   301.19887      0.0090902144   2.3414557      747.2827      -15.472594      731.81011    
   3961000   301.93978      0.0090902144   5.4306697      749.12092     -13.445998      735.67492    
   3962000   301.74259      0.0090902144   5.0134546      748.63169     -13.267045      735.36464    
   3963000   300.02185      0.0090902144   2.5962603      744.36249     -13.324894      731.03759    
   3964000   301.66475      0.0090902144   6.3207763      748.43856     -13.518161      734.9204     
   3965000   300.65196      0.0090902144   4.9150084      745.92581     -16.118579      729.80723    
   3966000   289.54824      0.0090902144  -1.3655388      718.37717     -13.540815      704.83636    
   3967000   306.54616      0.0090902144   1.7507468      760.54948     -13.338356      747.21113    
   3968000   307.36935      0.0090902144   7.3184169      762.59182     -14.249275      748.34255    
   3969000   305.69579      0.0090902144   5.4620653      758.43969     -11.700715      746.73897    
   3970000   301.9763       0.0090902144   3.1447377      749.21153     -10.902139      738.30939    
   3971000   292.6976       0.0090902144   6.7278138      726.19082     -12.480013      713.71081    
   3972000   290.95012      0.0090902144   3.4255651      721.85527     -12.889804      708.96546    
   3973000   297.79371      0.0090902144   1.3034242      738.83439     -12.047197      726.7872     
   3974000   302.47532      0.0090902144   0.69985078     750.44961     -15.818468      734.63115    
   3975000   310.28332      0.0090902144   3.7915184      769.82147     -11.347511      758.47396    
   3976000   295.54248      0.0090902144   7.8810053      733.24905     -12.284732      720.96431    
   3977000   301.05873      0.0090902144   5.3650073      746.93502     -12.558364      734.37665    
   3978000   300.90865      0.0090902144   2.6089729      746.56265     -10.259814      736.30284    
   3979000   304.93305      0.0090902144   2.8227373      756.5473      -12.250865      744.29643    
   3980000   297.65544      0.0090902144   7.6514993      738.49135     -8.8711296      729.62022    
   3981000   290.03063      0.0090902144   9.1692226      719.57398     -12.061761      707.51221    
   3982000   303.18407      0.0090902144   5.450209       752.20805     -12.688445      739.5196     
   3983000   302.92053      0.0090902144  -3.2564928      751.55419     -11.178478      740.37571    
   3984000   304.64176      0.0090902144   4.5368529      755.8246      -10.610487      745.21411    
   3985000   292.69303      0.0090902144   5.8149971      726.17946     -10.923772      715.25569    
   3986000   299.56291      0.0090902144   4.235878       743.22383     -10.869494      732.35433    
   3987000   305.16658      0.0090902144   5.1766025      757.1267      -10.765217      746.36148    
   3988000   303.87491      0.0090902144   5.4498298      753.92203     -8.2716977      745.65033    
   3989000   287.67792      0.0090902144   5.1125547      713.73685     -8.9381977      704.79865    
   3990000   289.06686      0.0090902144   4.4739164      717.18285     -10.299812      706.88304    
   3991000   315.05233      0.0090902144   4.7419248      781.65351     -13.858587      767.79493    
   3992000   299.16767      0.0090902144   7.2491758      742.24323     -14.679438      727.56379    
   3993000   287.93038      0.0090902144   5.1233924      714.3632      -13.845326      700.51787    
   3994000   303.40029      0.0090902144   4.8533672      752.74447     -11.945061      740.79941    
   3995000   301.18397      0.0090902144   6.0452852      747.24574     -11.022251      736.22349    
   3996000   294.55091      0.0090902144   4.3841689      730.78892     -7.275073       723.51384    
   3997000   289.12027      0.0090902144   1.7084897      717.31536     -9.0708146      708.24455    
   3998000   301.37705      0.0090902144   5.2030466      747.72478     -8.6322132      739.09256    
   3999000   309.32981      0.0090902144   7.1905758      767.45578     -15.205638      752.25014    
   4000000   295.8655       0.0090902144   4.5508854      734.05045     -11.031747      723.01871    
Loop time of 7681.59 on 1 procs for 4000000 steps with 1500 atoms

Performance: 11.248 ns/day, 2.134 hours/ns, 520.726 timesteps/s, 781.089 katom-step/s
100.0% CPU use with 1 MPI tasks x 1 OpenMP threads

MPI task timing breakdown:
Section |  min time  |  avg time  |  max time  |%varavg| %total
---------------------------------------------------------------
Pair    | 790.21     | 790.21     | 790.21     |   0.0 | 10.29
Bond    | 88.291     | 88.291     | 88.291     |   0.0 |  1.15
Kspace  | 6301.3     | 6301.3     | 6301.3     |   0.0 | 82.03
Neigh   | 0.031513   | 0.031513   | 0.031513   |   0.0 |  0.00
Comm    | 15.93      | 15.93      | 15.93      |   0.0 |  0.21
Output  | 0.082919   | 0.082919   | 0.082919   |   0.0 |  0.00
Modify  | 474.39     | 474.39     | 474.39     |   0.0 |  6.18
Other   |            | 11.31      |            |       |  0.15

Nlocal:           1500 ave        1500 max        1500 min
Histogram: 1 0 0 0 0 0 0 0 0 0
Nghost:            952 ave         952 max         952 min
Histogram: 1 0 0 0 0 0 0 0 0 0
Neighs:              0 ave           0 max           0 min
Histogram: 1 0 0 0 0 0 0 0 0 0

Total # of neighbors = 0
Ave neighs/atom = 0
Ave special neighs/atom = 2
Neighbor list builds = 19533
Dangerous builds = 0
write_data	last_conf.data pair ij
System init for write_data ...
PPPM initialization ...
  using 12-bit tables for long-range coulomb (src/kspace.cpp:342)
  G vector (1/distance) = 0.15623461
  grid = 30 30 30
  stencil order = 5
  estimated absolute RMS force accuracy = 0.038174764
  estimated relative force accuracy = 0.00011496217
  using double precision FFTW3
  3d grid and FFT values/proc = 42875 27000
Generated 1 of 1 mixed pair_coeff terms from arithmetic mixing rule
Total wall time: 2:08:01
